Li6 P2 O8
1.0
   6.0981942299999998    0.0000000000000000    0.0000000000000000
   0.0000000000000000    5.2366228899999996    0.0000000000000000
   0.0000000000000000    0.0000000000000000    4.8478279400000002
Li P O
6 2 8
direct
   0.0000000000000000    0.8428680100000000    0.5099073800000000 Li
   0.5000000000000000    0.1571319900000000    0.0099073800000000 Li
   0.7469901300000000    0.3270947500000000    0.5089814600000000 Li
   0.7530098700000000    0.6729052500000000    0.0089814600000000 Li
   0.2469901300000000    0.6729052500000000    0.0089814600000000 Li
   0.2530098700000000    0.3270947500000000    0.5089814600000000 Li
   0.5000000000000000    0.8251045700000000    0.5012287000000000 P
   0.0000000000000000    0.1748954300000000    0.0012287000000000 P
   0.2089512500000000    0.3140811200000000    0.1075839600000000 O
   0.5000000000000000    0.1063161700000000    0.6034873900000000 O
   0.5000000000000000    0.8198276500000000    0.1811457000000000 O
   0.0000000000000000    0.1801723500000000    0.6811457000000000 O
   0.7089512500000000    0.6859188800000000    0.6075839600000000 O
   0.7910487500000000    0.3140811200000000    0.1075839600000000 O
   0.0000000000000000    0.8936838300000000    0.1034873900000000 O
   0.2910487500000000    0.6859188800000000    0.6075839600000000 O
