Ba4 C4 O12
1.0
   6.3862242199999999    0.0000000000000000    0.0000000000000000
   0.0000000000000000    5.3159584000000004    0.0000000000000000
   0.0000000000000000    0.0000000000000000    8.9266816200000001
Ba C O
4 4 12
direct
   0.2539738700000000    0.2500000000000000    0.0837165300000000 Ba
   0.7460261300000000    0.7500000000000000    0.9162834700000000 Ba
   0.7539738700000000    0.2500000000000000    0.4162834700000000 Ba
   0.2460261300000000    0.7500000000000000    0.5837165300000000 Ba
   0.4187704200000000    0.2500000000000000    0.7441597300000000 C
   0.5812295800000000    0.7500000000000000    0.2558402700000000 C
   0.9187704200000000    0.2500000000000000    0.7558402700000000 C
   0.0812295800000000    0.7500000000000000    0.2441597300000000 C
   0.9183542900000000    0.4614523000000000    0.6830651900000000 O
   0.0816457100000000    0.9614523000000000    0.3169348100000000 O
   0.4183542900000000    0.0385477000000000    0.8169348100000000 O
   0.5816457100000000    0.5385477000000000    0.1830651900000000 O
   0.0885887500000000    0.7500000000000000    0.0988643900000000 O
   0.9114112500000000    0.2500000000000000    0.9011356100000000 O
   0.5885887500000000    0.7500000000000000    0.4011356100000000 O
   0.4114112500000000    0.2500000000000000    0.5988643900000000 O
   0.0816457100000000    0.5385477000000000    0.3169348100000000 O
   0.9183542900000000    0.0385477000000000    0.6830651900000000 O
   0.5816457100000000    0.9614523000000000    0.1830651900000000 O
   0.4183542900000000    0.4614523000000000    0.8169348100000000 O
