Cs12 Ge4 As4 Se20
1.0
   7.5507937800000002    0.0000000000000000    0.0200661800000000
   0.0000000000000000    9.5974461800000004    0.0000000000000000
  -4.2547199700000000    0.0000000000000000   19.2370796999999989
Cs Ge As Se
12 4 4 20
direct
   0.8405730600000000    0.9374302600000000    0.2619856000000000 Cs
   0.0871617400000000    0.1985874300000000    0.9566580800000000 Cs
   0.1594269400000000    0.4374302600000000    0.2380144000000000 Cs
   0.6184260200000000    0.2882929200000000    0.0836937700000000 Cs
   0.8405730600000000    0.5625697400000000    0.7619856000000000 Cs
   0.3815739800000000    0.7117070800000000    0.9163062300000000 Cs
   0.0871617400000000    0.3014125700000000    0.4566580800000000 Cs
   0.3815739800000000    0.7882929200000000    0.4163062300000000 Cs
   0.6184260200000000    0.2117070800000000    0.5836937700000000 Cs
   0.1594269400000000    0.0625697400000000    0.7380144000000000 Cs
   0.9128382600000000    0.8014125700000000    0.0433419200000000 Cs
   0.9128382600000000    0.6985874300000000    0.5433419200000000 Cs
   0.5729547400000000    0.2944195500000000    0.8702505500000000 Ge
   0.4270452600000000    0.7055804500000000    0.1297494500000000 Ge
   0.4270452600000000    0.7944195500000000    0.6297494500000000 Ge
   0.5729547400000000    0.2055804500000000    0.3702505500000000 Ge
   0.6640929000000000    0.5405571900000000    0.3010743800000000 As
   0.3359071000000000    0.4594428100000000    0.6989256200000000 As
   0.3359071000000000    0.0405571900000000    0.1989256200000000 As
   0.6640929000000000    0.9594428100000000    0.8010743800000000 As
   0.4720465900000000    0.5875040000000000    0.5733562400000000 Se
   0.6989911100000000    0.2082965500000000    0.7731607700000001 Se
   0.4720465900000000    0.9124960000000000    0.0733562400000000 Se
   0.2451322700000000    0.9644394200000000    0.5666077600000000 Se
   0.2782017200000000    0.3900483100000000    0.8168723300000000 Se
   0.2451322700000000    0.5355605800000000    0.0666077600000000 Se
   0.3010088900000000    0.7082965500000000    0.7268392299999999 Se
   0.0581561800000000    0.3823710500000000    0.6346137600000000 Se
   0.2782017200000000    0.1099516900000000    0.3168723300000000 Se
   0.9418438200000000    0.6176289500000000    0.3653862400000000 Se
   0.7548677300000000    0.4644394200000000    0.9333922400000000 Se
   0.7548677300000000    0.0355605800000000    0.4333922400000000 Se
   0.6989911100000000    0.2917034500000000    0.2731607700000000 Se
   0.9418438200000000    0.8823710500000000    0.8653862400000000 Se
   0.5279534100000000    0.0875040000000000    0.9266437600000000 Se
   0.5279534100000000    0.4124960000000000    0.4266437600000000 Se
   0.0581561800000000    0.1176289500000000    0.1346137600000000 Se
   0.7217982800000000    0.8900483100000000    0.6831276700000000 Se
   0.7217982800000000    0.6099516900000000    0.1831276700000000 Se
   0.3010088900000000    0.7917034500000000    0.2268392300000000 Se
