Ba2 Zn1 Te1 O6
1.0
   0.0000000000000000    4.0518194699999999    4.0518194699999999
   4.0518194699999999    0.0000000000000000    4.0518194699999999
   4.0518194699999999    4.0518194699999999    0.0000000000000000
Ba Zn Te O
2 1 1 6
direct
   0.2500000000000000    0.2500000000000000    0.2500000000000000 Ba
   0.7500000000000000    0.7500000000000000    0.7500000000000000 Ba
   0.0000000000000000    0.0000000000000000    0.0000000000000000 Zn
   0.5000000000000000    0.5000000000000000    0.5000000000000000 Te
   0.7410218300000000    0.2589781700000000    0.2589781700000000 O
   0.2589781700000000    0.2589781700000000    0.7410218300000000 O
   0.2589781700000000    0.7410218300000000    0.2589781700000000 O
   0.2589781700000000    0.7410218300000000    0.7410218300000000 O
   0.7410218300000000    0.2589781700000000    0.7410218300000000 O
   0.7410218300000000    0.7410218300000000    0.2589781700000000 O
