Cs2 Li2 B12 O20
1.0
  -5.2372421400000002    5.2372421400000002    4.5004417900000000
   5.2372421400000002   -5.2372421400000002    4.5004417900000000
   5.2372421400000002    5.2372421400000002   -4.5004417900000000
Cs Li B O
2 2 12 20
direct
   0.0000000000000000    0.0000000000000000    0.0000000000000000 Cs
   0.7500000000000000    0.2500000000000000    0.5000000000000000 Cs
   0.5000000000000000    0.5000000000000000    0.0000000000000000 Li
   0.2500000000000000    0.7500000000000000    0.5000000000000000 Li
   0.4001819800000000    0.1250000000000000    0.7751819800000000 B
   0.3498180200000000    0.6250000000000000    0.2248180200000000 B
   0.3750000000000000    0.5998180200000000    0.7248180200000000 B
   0.8750000000000000    0.6501819800000000    0.2751819800000000 B
   0.6752457700000000    0.2912501800000000    0.0854470700000000 B
   0.5441968900000000    0.9587498200000000    0.8839955800000000 B
   0.2058031100000000    0.5897986900000000    0.9145529300000000 B
   0.0747542300000000    0.6602013100000000    0.1160044200000000 B
   0.4102013100000000    0.3247542300000000    0.6160044200000000 B
   0.0412501800000000    0.9252457700000000    0.5854470700000000 B
   0.7087498200000000    0.7941968900000000    0.3839955800000000 B
   0.3397986900000000    0.4558031100000000    0.4145529300000000 B
   0.6769579100000001    0.1250000000000000    0.0519579100000000 O
   0.0730420900000000    0.6250000000000000    0.9480420899999999 O
   0.3750000000000000    0.3230420900000000    0.4480420900000000 O
   0.8750000000000000    0.9269579100000001    0.5519579100000001 O
   0.8116563999999999    0.4510886500000000    0.2483001300000000 O
   0.5472114800000000    0.7989113500000000    0.8605677400000000 O
   0.2027885200000000    0.5633562700000000    0.7516998700000000 O
   0.9383436000000001    0.6866437300000000    0.1394322600000000 O
   0.4366437300000000    0.1883436000000000    0.6394322600000000 O
   0.2010886500000000    0.0616564000000000    0.7483001300000000 O
   0.5489113500000000    0.7972114800000000    0.3605677400000000 O
   0.3133562700000000    0.4527885200000000    0.2516998700000000 O
   0.5368785200000000    0.2874120200000000    0.9594016200000000 O
   0.4219896000000000    0.9625879800000000    0.7494655000000000 O
   0.3280104000000000    0.5774759000000000    0.0405983800000000 O
   0.2131214800000000    0.6725241000000000    0.2505345000000000 O
   0.4225241000000000    0.4631214800000000    0.7505345000000000 O
   0.0374120200000000    0.7868785200000000    0.4594016200000000 O
   0.7125879800000000    0.6719896000000000    0.2494655000000000 O
   0.3274759000000000    0.5780104000000000    0.5405983800000000 O
