Tl3 V5 O14
1.0
   8.7279997199999997    0.0000000000000000    0.0000000000000000
  -4.3640003500000004    7.5586696800000004    0.0000000000000000
   0.0000000000000000    0.0000000000000000    5.1099860899999996
Tl V O
3 5 14
direct
   0.3872629600000000    0.3872629600000000    0.7649689900000000 Tl
   0.0000000000000000    0.6127370400000000    0.7649689900000000 Tl
   0.6127370400000000    0.0000000000000000    0.7649689900000000 Tl
   0.6666670000000000    0.3333330000000000    0.2966538800000000 V
   0.3333330000000000    0.6666670000000000    0.2966538800000000 V
   0.2283163000000000    1.0000000000000000    0.2909718800000000 V
   0.7716837000000000    0.7716837000000000    0.2909718800000000 V
   1.0000000000000000    0.2283163000000000    0.2909718800000000 V
   0.3333330000000000    0.6666670000000000    0.9740782600000000 O
   0.6666670000000000    0.3333330000000000    0.9740782600000000 O
   0.7534811400000000    0.7534811400000000    0.9749316600000000 O
   1.0000000000000000    0.2465188600000000    0.9749316600000000 O
   0.2465188600000000    1.0000000000000000    0.9749316600000000 O
   0.1689443500000000    0.1689443500000000    0.3594016600000000 O
   0.0000000000000000    0.8310556500000000    0.3594016600000000 O
   0.8310556500000000    0.0000000000000000    0.3594016600000000 O
   0.5391916100000000    0.7073529000000000    0.4145230200000000 O
   0.1681612900000000    0.4608083900000000    0.4145230200000000 O
   0.2926471000000000    0.8318387100000000    0.4145230200000000 O
   0.8318387100000000    0.2926471000000000    0.4145230200000000 O
   0.4608083900000000    0.1681612900000000    0.4145230200000000 O
   0.7073529000000000    0.5391916100000000    0.4145230200000000 O
