Sr1 S1
1.0
   0.0000000000000000    2.9890716099999999    2.9890716099999999
   2.9890716099999999    0.0000000000000000    2.9890716099999999
   2.9890716099999999    2.9890716099999999    0.0000000000000000
Sr S
1 1
direct
   0.0000000000000000    0.0000000000000000    0.0000000000000000 Sr
   0.5000000000000000    0.5000000000000000    0.5000000000000000 S
