Sr6 Li2 Bi2 O12
1.0
   4.7637192099999996   -4.9756914400000003    0.0005729000000000
   4.7637192099999996    4.9756914400000003    0.0005729000000000
  -0.3947600400000000    0.0000000000000000    6.8611928899999999
Sr Li Bi O
6 2 2 12
direct
   0.7473290299999999    0.8980625500000000    0.6036978600000000 Sr
   0.1019374500000000    0.2526709700000000    0.8963021400000000 Sr
   0.4005892900000000    0.5994107100000000    0.2500000000000000 Sr
   0.8980625500000000    0.7473290299999999    0.1036978600000000 Sr
   0.5994107100000000    0.4005892900000000    0.7500000000000000 Sr
   0.2526709700000000    0.1019374500000000    0.3963021400000000 Sr
   0.7724149700000000    0.2275850300000000    0.2500000000000000 Li
   0.2275850300000000    0.7724149700000000    0.7500000000000000 Li
   0.0000000000000000    0.5000000000000000    0.5000000000000000 Bi
   0.5000000000000000    0.0000000000000000    0.0000000000000000 Bi
   0.9162206700000000    0.2054695500000000    0.5424489700000000 O
   0.0445775900000000    0.4210581500000000    0.2052595300000000 O
   0.7075482000000000    0.5582245200000000    0.4263083500000000 O
   0.2054695500000000    0.9162206700000000    0.0424489700000000 O
   0.5582245200000000    0.7075482000000000    0.9263083500000000 O
   0.4210581500000000    0.0445775900000000    0.7052595300000000 O
   0.0837793300000000    0.7945304500000000    0.4575510300000000 O
   0.9554224100000001    0.5789418500000000    0.7947404700000000 O
   0.2924518000000000    0.4417754800000000    0.5736916500000000 O
   0.7945304500000000    0.0837793300000000    0.9575510300000000 O
   0.4417754800000000    0.2924518000000000    0.0736916500000000 O
   0.5789418500000000    0.9554224100000001    0.2947404700000000 O
