Ca2 Al4 Se8
1.0
   3.0995002999999999   -5.2451492399999999    0.0000000000000000
   3.0995002999999999    5.2451492399999999    0.0000000000000000
   0.0000000000000000    0.0000000000000000   10.5045134200000003
Ca Al Se
2 4 8
direct
   0.5000000000000000    0.5000000000000000    0.7500000000000000 Ca
   0.5000000000000000    0.5000000000000000    0.2500000000000000 Ca
   0.2361542400000000    0.7605843200000000    0.5000000000000000 Al
   0.2394156800000000    0.7638457600000000    0.0000000000000000 Al
   0.7605843200000000    0.2361542400000000    0.0000000000000000 Al
   0.7638457600000000    0.2394156800000000    0.5000000000000000 Al
   0.0000000000000000    0.5000000000000000    0.6756670600000000 Se
   0.1935347600000000    0.3446542000000000    0.0000000000000000 Se
   0.3446542000000000    0.1935347600000000    0.5000000000000000 Se
   0.6553458000000000    0.8064652400000000    0.5000000000000000 Se
   0.5000000000000000    0.0000000000000000    0.8243329400000000 Se
   0.5000000000000000    0.0000000000000000    0.1756670600000000 Se
   0.8064652400000000    0.6553458000000000    0.0000000000000000 Se
   0.0000000000000000    0.5000000000000000    0.3243329400000000 Se
