Cs4 Al4 Si6 O20
1.0
   0.0000000000000000    9.6343484099999994    3.2839660300000002
   8.9802501400000008    0.0000000000000000    3.2839660300000002
   8.9802501400000008    9.6343484099999994    0.0000000000000000
Cs Al Si O
4 4 6 20
direct
   0.2767979600000000    0.9628387300000000    0.6136011000000000 Cs
   0.9628387300000000    0.2767979600000000    0.1467612100000000 Cs
   0.1032387900000000    0.6363989000000000    0.2871612700000000 Cs
   0.6363989000000000    0.1032387900000000    0.9732020400000000 Cs
   0.6826058400000000    0.5843738600000000    0.9976060300000000 Al
   0.5843738600000000    0.6826058400000000    0.7354132700000000 Al
   0.5145867300000000    0.2523939700000000    0.6656261400000000 Al
   0.2523939700000000    0.5145867300000000    0.5673941600000000 Al
   0.2497639900000000    0.2497639900000000    0.2502360100000000 Si
   0.9997639900000000    0.9997639900000000    0.0002360100000000 Si
   0.6860180900000000    0.5630400100000000    0.2424148600000000 Si
   0.5630400100000000    0.6860180900000000    0.5085270400000000 Si
   0.7414729600000000    0.0075851400000000    0.6869599900000000 Si
   0.0075851400000000    0.7414729600000000    0.5639819100000000 Si
   0.4431958000000000    0.3277788000000000    0.1956793400000000 O
   0.3277788000000000    0.4431958000000000    0.0333460600000000 O
   0.2166539400000000    0.0543206600000000    0.9222212000000000 O
   0.0543206600000000    0.2166539400000000    0.8068042000000000 O
   0.7465721000000000    0.5372854900000000    0.1064188300000000 O
   0.5372854900000000    0.7465721000000000    0.6097245800000000 O
   0.6402754200000000    0.1435811700000000    0.7127145100000000 O
   0.1435811700000000    0.6402754200000000    0.5034279000000000 O
   0.6454443800000000    0.7998793600000000    0.9151889300000000 O
   0.7998793600000000    0.6454443800000000    0.6394873300000000 O
   0.6105126700000000    0.3348110700000000    0.4501206400000000 O
   0.3348110700000000    0.6105126700000000    0.6045556200000000 O
   0.4956399900000000    0.6074999100000000    0.3239948800000000 O
   0.6074999100000000    0.4956399900000000    0.5728652100000000 O
   0.6771347900000000    0.9260051200000000    0.6425000900000000 O
   0.9260051200000000    0.6771347900000000    0.7543600100000000 O
   0.9231095000000000    0.7902571800000000    0.0598409600000000 O
   0.7902571800000000    0.9231095000000000    0.2267923600000000 O
   0.0232076400000000    0.1901590400000000    0.4597428200000000 O
   0.1901590400000000    0.0232076400000000    0.3268905000000000 O
