Zr6 N6 O3
1.0
   6.8394896300000001   -1.6577435300000001    0.0047091000000000
   6.8394896300000001    1.6577435300000001    0.0047091000000000
  -1.4864378700000000    0.0000000000000000    8.1652653500000003
Zr N O
6 6 3
direct
   0.0308528300000000    0.0308528300000000    0.8087413400000000 Zr
   0.6303710200000000    0.6303710200000000    0.4756989100000000 Zr
   0.6938410000000000    0.6938410000000000    0.1316381700000000 Zr
   0.3061590000000000    0.3061590000000000    0.8683618300000000 Zr
   0.3696289800000000    0.3696289800000000    0.5243010900000000 Zr
   0.9691471699999999    0.9691471699999999    0.1912586600000000 Zr
   0.5341340700000000    0.5341340700000000    0.6561438200000000 N
   0.1719926300000000    0.1719926300000000    0.9644574800000000 N
   0.1278909800000000    0.1278909800000000    0.2853359100000000 N
   0.8721090200000000    0.8721090200000000    0.7146640900000000 N
   0.8280073700000000    0.8280073700000000    0.0355425200000000 N
   0.4658659300000000    0.4658659300000000    0.3438561800000000 N
   0.2098314200000000    0.2098314200000000    0.6171704400000000 O
   0.7901685800000000    0.7901685800000000    0.3828295600000000 O
   0.5000000000000000    0.5000000000000000    0.0000000000000000 O
