Cs8 P4 Se18
1.0
   5.0199787599999999   -5.2632279400000002    0.0223390100000000
   5.0199787599999999    5.2632279400000002    0.0223390100000000
  -1.2267973900000000    0.0000000000000000   19.5357132900000003
Cs P Se
8 4 18
direct
   0.2872141700000000    0.7827538600000000    0.4735138200000000 Cs
   0.7127858300000000    0.2172461400000000    0.5264861800000000 Cs
   0.2172461400000000    0.7127858300000000    0.0264861800000000 Cs
   0.4379407400000000    0.2406361200000000    0.1736790200000000 Cs
   0.7593638800000000    0.5620592599999999    0.3263209800000000 Cs
   0.2406361200000000    0.4379407400000000    0.6736790200000000 Cs
   0.7827538600000000    0.2872141700000000    0.9735138200000000 Cs
   0.5620592599999999    0.7593638800000000    0.8263209800000000 Cs
   0.2712560100000000    0.2531714000000000    0.3767291800000000 P
   0.7468286000000000    0.7287439900000000    0.1232708200000000 P
   0.2531714000000000    0.2712560100000000    0.8767291800000000 P
   0.7287439900000000    0.7468286000000000    0.6232708200000000 P
   0.8905125699999999    0.4812877400000000    0.1452883500000000 Se
   0.1094874300000000    0.5187122600000000    0.8547116500000000 Se
   0.4978610100000000    0.2502710000000000    0.8173037300000000 Se
   0.4812877400000000    0.8905125699999999    0.6452883500000000 Se
   0.2502710000000000    0.4978610100000000    0.3173037300000000 Se
   0.5187122600000000    0.1094874300000000    0.3547116500000000 Se
   0.7497290000000000    0.5021389900000000    0.6826962700000000 Se
   0.9865609600000000    0.9467725500000000    0.6494208600000000 Se
   0.7172282600000000    0.7920510100000000    0.0146947500000000 Se
   0.0134390400000000    0.0532274500000000    0.3505791400000000 Se
   0.2079489900000000    0.2827717400000000    0.4853052500000000 Se
   0.0532274500000000    0.0134390400000000    0.8505791400000000 Se
   0.5021389900000000    0.7497290000000000    0.1826962700000000 Se
   0.2827717400000000    0.2079489900000000    0.9853052500000000 Se
   0.9467725500000000    0.9865609600000000    0.1494208600000000 Se
   0.1026728800000000    0.8973271200000000    0.2500000000000000 Se
   0.7920510100000000    0.7172282600000000    0.5146947500000000 Se
   0.8973271200000000    0.1026728800000000    0.7500000000000000 Se
