Cs2 La2 Mo4 O16
1.0
   5.4523272299999999   -5.4052117500000003    0.0464216100000000
   5.4523272299999999    5.4052117500000003    0.0464216100000000
  -5.1197379099999996    0.0000000000000000    5.8909973100000004
Cs La Mo O
2 2 4 16
direct
   0.8061063800000000    0.1938936200000000    0.7500000000000000 Cs
   0.1938936200000000    0.8061063800000000    0.2500000000000000 Cs
   0.2284674600000000    0.7715325400000000    0.7500000000000000 La
   0.7715325400000000    0.2284674600000000    0.2500000000000000 La
   0.3089776900000000    0.3128585600000000    0.7688172900000000 Mo
   0.6910223100000000    0.6871414400000000    0.2311827100000000 Mo
   0.6871414400000000    0.6910223100000000    0.7311827100000000 Mo
   0.3128585600000000    0.3089776900000000    0.2688172900000000 Mo
   0.3851127700000000    0.2473843200000000    0.5691208100000000 O
   0.6148872300000000    0.7526156800000000    0.4308791900000000 O
   0.7526156800000000    0.6148872300000000    0.9308791900000000 O
   0.2473843200000000    0.3851127700000000    0.0691208100000000 O
   0.6089927600000000    0.9216862700000000    0.8625341700000000 O
   0.3910072400000000    0.0783137300000000    0.1374658300000000 O
   0.0783137300000000    0.3910072400000000    0.6374658300000000 O
   0.9216862700000000    0.6089927600000000    0.3625341700000000 O
   0.4193892100000000    0.6294949399999999    0.9747990700000000 O
   0.5806107900000000    0.3705050600000000    0.0252009300000000 O
   0.3705050600000000    0.5806107900000000    0.5252009300000000 O
   0.6294949399999999    0.4193892100000000    0.4747990700000000 O
   0.2083452800000000    0.0642483900000000    0.7006728600000000 O
   0.7916547200000000    0.9357516100000000    0.2993271400000000 O
   0.9357516100000000    0.7916547200000000    0.7993271400000000 O
   0.0642483900000000    0.2083452800000000    0.2006728600000000 O
