Ba2 Zn3 As2 O2
1.0
  -2.0603956200000000    2.0603956200000000    9.8636346800000005
   2.0603956200000000   -2.0603956200000000    9.8636346800000005
   2.0603956200000000    2.0603956200000000   -9.8636346800000005
Ba Zn As O
2 3 2 2
direct
   0.5898333100000001    0.5898333100000001    0.0000000000000000 Ba
   0.4101666900000000    0.4101666900000000    0.0000000000000000 Ba
   0.0000000000000000    0.0000000000000000    0.0000000000000000 Zn
   0.2500000000000000    0.7500000000000000    0.5000000000000000 Zn
   0.7500000000000000    0.2500000000000000    0.5000000000000000 Zn
   0.1750837700000000    0.1750837700000000    0.0000000000000000 As
   0.8249162300000000    0.8249162300000000    0.0000000000000000 As
   0.5000000000000000    0.0000000000000000    0.5000000000000000 O
   0.0000000000000000    0.5000000000000000    0.5000000000000000 O
