Na2 Nb6 O16
1.0
  -3.6600540700000002    5.2993189999999997    3.5303574499999999
   3.6600540700000002   -5.2993189999999997    3.5303574499999999
   3.6600540700000002    5.2993189999999997   -3.5303574499999999
Na Nb O
2 6 16
direct
   0.2500000000000000    0.2500000000000000    0.0000000000000000 Na
   0.7500000000000000    0.7500000000000000    0.0000000000000000 Na
   0.7350120900000000    0.2360034700000000    0.9710155600000000 Nb
   0.2649879100000000    0.7639965300000000    0.0289844400000000 Nb
   0.7649879100000000    0.7360034700000000    0.5009923800000000 Nb
   0.2350120900000000    0.2639965300000000    0.4990076200000000 Nb
   0.2500000000000000    0.7500000000000000    0.5000000000000000 Nb
   0.7500000000000000    0.2500000000000000    0.5000000000000000 Nb
   0.6492424400000000    0.0998030000000000    0.1629476800000000 O
   0.9368543200000000    0.4862947600000000    0.8370523200000000 O
   0.8507575600000000    0.0137052400000000    0.4505595600000000 O
   0.5631456800000000    0.4001970000000000    0.5494404400000000 O
   0.3507575600000000    0.9001970000000000    0.8370523200000000 O
   0.0631456800000000    0.5137052400000000    0.1629476800000000 O
   0.1492424400000000    0.9862947600000000    0.5494404400000000 O
   0.4368543200000000    0.5998030000000000    0.4505595600000000 O
   0.3269959700000000    0.5091301499999999    0.8361261200000000 O
   0.6730040300000000    0.4908698500000000    0.1638738800000000 O
   0.1730040300000000    0.0091301500000000    0.1821341800000000 O
   0.8269959700000000    0.9908698500000001    0.8178658200000000 O
   0.0646027100000000    0.3789432600000000    0.4435459700000000 O
   0.9353972900000000    0.6210567400000000    0.5564540300000000 O
   0.4353972900000000    0.8789432600000000    0.3143405400000000 O
   0.5646027100000000    0.1210567400000000    0.6856594600000000 O
