Rb8 Zr4 O12
1.0
   5.9490825599999999    0.0000000000000000    0.0000000000000000
   0.0000000000000000   10.7953221599999996    0.0000000000000000
   0.0000000000000000    0.0000000000000000    7.3011505200000002
Rb Zr O
8 4 12
direct
   0.2379607600000000    0.9131881300000000    0.6112476100000001 Rb
   0.2379607600000000    0.5868118700000000    0.6112476100000001 Rb
   0.2620392400000000    0.4131881300000000    0.1112476100000000 Rb
   0.2620392400000000    0.0868118700000000    0.1112476100000000 Rb
   0.7379607600000000    0.9131881300000000    0.8887523899999999 Rb
   0.7379607600000000    0.5868118700000000    0.8887523899999999 Rb
   0.7620392400000000    0.4131881300000000    0.3887523900000000 Rb
   0.7620392400000000    0.0868118700000000    0.3887523900000000 Rb
   0.2302809300000000    0.2500000000000000    0.6624751600000000 Zr
   0.2697190700000000    0.7500000000000000    0.1624751600000000 Zr
   0.7302809300000001    0.2500000000000000    0.8375248400000000 Zr
   0.7697190699999999    0.7500000000000000    0.3375248400000000 Zr
   0.0111866500000000    0.8750880900000000    0.2358360200000000 O
   0.0111866500000000    0.6249119100000000    0.2358360200000000 O
   0.1840339400000000    0.2500000000000000    0.3994419700000000 O
   0.3159660600000000    0.7500000000000000    0.8994419700000000 O
   0.4888133500000000    0.1249119100000000    0.7358360200000000 O
   0.4888133500000000    0.3750880900000000    0.7358360200000000 O
   0.5111866500000000    0.8750880900000000    0.2641639800000000 O
   0.5111866500000000    0.6249119100000000    0.2641639800000000 O
   0.6840339400000000    0.2500000000000000    0.1005580300000000 O
   0.8159660600000000    0.7500000000000000    0.6005580300000000 O
   0.9888133500000000    0.3750880900000000    0.7641639800000000 O
   0.9888133500000000    0.1249119100000000    0.7641639800000000 O
