Ba2 Ga8 S14
1.0
  14.6348485999999998    0.0000000000000000    0.0000000000000000
   0.0000000000000000    6.1904415799999999    0.0000000000000000
   0.0000000000000000    0.0000000000000000    5.8938873200000002
Ba Ga S
2 8 14
direct
   0.5000000000000000    0.6620824500000000    0.4558182300000000 Ba
   0.0000000000000000    0.3379175500000000    0.9558182300000000 Ba
   0.1194688600000000    0.8286887300000000    0.3402720000000000 Ga
   0.3805311400000000    0.1713112700000000    0.8402720000000000 Ga
   0.6194688600000000    0.1713112700000000    0.8402720000000000 Ga
   0.8805311400000000    0.8286887300000000    0.3402720000000000 Ga
   0.2482179400000000    0.3132500300000000    0.3568408600000000 Ga
   0.2517820600000000    0.6867499700000000    0.8568408600000000 Ga
   0.7482179400000000    0.6867499700000000    0.8568408600000000 Ga
   0.7517820600000000    0.3132500300000000    0.3568408600000000 Ga
   0.2443685400000000    0.3254212300000000    0.9608879500000000 S
   0.2556314600000000    0.6745787700000000    0.4608879500000000 S
   0.7443685400000000    0.6745787700000000    0.4608879500000000 S
   0.7556314600000000    0.3254212300000000    0.9608879500000000 S
   0.1138016500000000    0.8083264800000000    0.9556620700000000 S
   0.3861983500000000    0.1916735200000000    0.4556620700000000 S
   0.6138016500000000    0.1916735200000000    0.4556620700000000 S
   0.8861983500000000    0.8083264800000000    0.9556620700000000 S
   0.1116971300000000    0.1775606000000000    0.4489651500000000 S
   0.3883028700000000    0.8224394000000000    0.9489651500000000 S
   0.0000000000000000    0.6291287500000000    0.4593347100000000 S
   0.5000000000000000    0.3708712500000000    0.9593347100000000 S
   0.8883028700000000    0.1775606000000000    0.4489651500000000 S
   0.6116971300000000    0.8224394000000000    0.9489651500000000 S
