Ge2 O4
1.0
   4.4503950000000003    0.0000000000000000    0.0000000000000000
   0.0000000000000000    4.4503950000000003    0.0000000000000000
   0.0000000000000000    0.0000000000000000    2.9105300000000001
Ge O
2 4
direct
   0.5000000000000000    0.5000000000000000    0.5000000000000000 Ge
   0.0000000000000000    0.0000000000000000    0.0000000000000000 Ge
   0.8060349999999999    0.1939650000000000    0.5000000000000000 O
   0.1939650000000000    0.8060349999999999    0.5000000000000000 O
   0.6939650000000001    0.6939650000000001    0.0000000000000000 O
   0.3060350000000000    0.3060350000000000    0.0000000000000000 O
