Ba2 Ta6 Te2 O21
1.0
   8.4040679800000007   -2.8458973900000002    0.0132765400000000
   8.4040679800000007    2.8458973900000002    0.0132765400000000
  -1.1367169600000000    0.0000000000000000    9.5488014299999993
Ba Ta Te O
2 6 2 21
direct
   0.8633450499999999    0.8633450499999999    0.4685479700000000 Ba
   0.1366549500000000    0.1366549500000000    0.5314520300000000 Ba
   0.1014440300000000    0.1014440300000000    0.9232474100000000 Ta
   0.8985559700000000    0.8985559700000000    0.0767525900000000 Ta
   0.5236480600000000    0.5236480600000000    0.6639385500000000 Ta
   0.4763519400000000    0.4763519400000000    0.3360614500000000 Ta
   0.3231266700000000    0.3231266700000000    0.8183927100000000 Ta
   0.6768733300000001    0.6768733300000001    0.1816072900000000 Ta
   0.7253258000000000    0.7253258000000000    0.7543939900000000 Te
   0.2746742000000000    0.2746742000000000    0.2456060100000000 Te
   0.5806211700000000    0.5806211700000000    0.2792487400000000 O
   0.4193788300000000    0.4193788300000000    0.7207512600000000 O
   0.7917155299999999    0.7917155299999999    0.1564451100000000 O
   0.2082844700000000    0.2082844700000000    0.8435548899999999 O
   0.0000000000000000    0.0000000000000000    0.0000000000000000 O
   0.8250430100000000    0.3099632100000000    0.7814893500000000 O
   0.6900367900000000    0.1749569900000000    0.2185106500000000 O
   0.1749569900000000    0.6900367900000000    0.2185106500000000 O
   0.3099632100000000    0.8250430100000000    0.7814893500000000 O
   0.0990866400000000    0.6052070700000000    0.9432934300000000 O
   0.7245460700000000    0.2754539300000000    0.5000000000000000 O
   0.2754539300000000    0.7245460700000000    0.5000000000000000 O
   0.3576292500000000    0.3576292500000000    0.3983983800000000 O
   0.6423707500000000    0.6423707500000000    0.6016016199999999 O
   0.4575090800000000    0.9784020100000000    0.3335180500000000 O
   0.0215979900000000    0.5424909200000000    0.6664819500000000 O
   0.5424909200000000    0.0215979900000000    0.6664819500000000 O
   0.9784020100000000    0.4575090800000000    0.3335180500000000 O
   0.6052070700000000    0.0990866400000000    0.9432934300000000 O
   0.9009133600000000    0.3947929300000000    0.0567065700000000 O
   0.3947929300000000    0.9009133600000000    0.0567065700000000 O
