Ga2 Cu2 Se4
1.0
  -2.7863710199999998    2.7863710199999998    5.5170029500000002
   2.7863710199999998   -2.7863710199999998    5.5170029500000002
   2.7863710199999998    2.7863710199999998   -5.5170029500000002
Ga Cu Se
2 2 4
direct
   0.5000000000000000    0.5000000000000000    0.0000000000000000 Ga
   0.2500000000000000    0.7500000000000000    0.5000000000000000 Ga
   0.0000000000000000    0.0000000000000000    0.0000000000000000 Cu
   0.7500000000000000    0.2500000000000000    0.5000000000000000 Cu
   0.3750000000000000    0.3692563600000000    0.4942563600000000 Se
   0.6307436400000000    0.1250000000000000    0.0057436400000000 Se
   0.1192563600000000    0.6250000000000000    0.9942563600000000 Se
   0.8750000000000000    0.8807436400000000    0.5057436400000000 Se
