Cs8 Ga4 Se10
1.0
   8.4706762700000002    0.0018745000000000   -0.0015332200000000
   1.5769683600000000    8.7554597899999997    0.0077548800000000
   0.3650207500000000    2.7480695399999999   10.7664597700000009
Cs Ga Se
8 4 10
direct
   0.4516143500000000    0.3126388600000000    0.1019261700000000 Cs
   0.5483856499999999    0.6873611400000000    0.8980738300000000 Cs
   0.1661464200000000    0.0899010400000000    0.8732421200000000 Cs
   0.0487473600000000    0.6112765900000000    0.7508614000000000 Cs
   0.8338535800000000    0.9100989600000000    0.1267578800000000 Cs
   0.9512526400000000    0.3887234100000000    0.2491386000000000 Cs
   0.5402024700000000    0.7189130100000000    0.5061550200000000 Cs
   0.4597975300000000    0.2810869900000000    0.4938449800000000 Cs
   0.9041694600000000    0.0930538600000000    0.5959557000000000 Ga
   0.0958305400000000    0.9069461400000000    0.4040443000000000 Ga
   0.2918498600000000    0.7194841199999999    0.2101599000000000 Ga
   0.7081501400000000    0.2805158800000000    0.7898401000000000 Ga
   0.8556685000000001    0.3672776100000000    0.5938833400000000 Se
   0.1879934200000000    0.9795610800000000    0.5839209700000000 Se
   0.4310550000000000    0.3894464100000000    0.7714002500000000 Se
   0.1669542900000000    0.6746803700000000    0.0379510400000000 Se
   0.8330457100000001    0.3253196300000000    0.9620489600000000 Se
   0.5689450000000000    0.6105535900000000    0.2285997500000000 Se
   0.1443315000000000    0.6327223900000000    0.4061166600000000 Se
   0.2353677100000000    0.0051290800000000    0.2173352500000000 Se
   0.7646322900000000    0.9948709200000000    0.7826647500000000 Se
   0.8120065800000000    0.0204389200000000    0.4160790300000000 Se
