Ba6 Ca2 Bi4 O18
1.0
  -3.0405637200000002    4.2863549399999998    9.1336057799999999
   3.0405637200000002   -4.2863549399999998    9.1336057799999999
   3.0405637200000002    4.2863549399999998   -9.1336057799999999
Ba Ca Bi O
6 2 4 18
direct
   0.7598180000000000    0.5000000000000000    0.2598180000000000 Ba
   0.4155774600000000    0.1688801800000000    0.2466982800000000 Ba
   0.0778181000000000    0.8311198200000000    0.2466982800000000 Ba
   0.2401820000000000    0.5000000000000000    0.7401820000000000 Ba
   0.9221819000000000    0.1688801800000000    0.7533017200000000 Ba
   0.5844225400000000    0.8311198200000000    0.7533017200000000 Ba
   0.1666545600000000    0.6666545600000000    0.5000000000000000 Ca
   0.8333454400000000    0.3333454400000000    0.5000000000000000 Ca
   0.0000000000000000    0.0000000000000000    0.0000000000000000 Bi
   0.6671650200000000    0.6671650200000000    0.0000000000000000 Bi
   0.3328349800000000    0.3328349800000000    0.0000000000000000 Bi
   0.5000000000000000    0.0000000000000000    0.5000000000000000 Bi
   0.7452751900000000    0.0000000000000000    0.7452751900000000 O
   0.4201198000000000    0.6596375200000000    0.7604822800000000 O
   0.1008437600000000    0.3403624800000000    0.7604822800000000 O
   0.5812682200000000    0.8349467500000000    0.2536785300000000 O
   0.2544199800000000    0.5005849500000000    0.2461659700000000 O
   0.9200559500000000    0.1603496400000000    0.2402936900000000 O
   0.4187317800000000    0.6724103100000000    0.2536785300000000 O
   0.0799440500000000    0.3202377300000000    0.2402936900000000 O
   0.7455800200000000    0.9917459900000000    0.2461659700000000 O
   0.2547248100000000    0.0000000000000000    0.2547248100000000 O
   0.8991562400000001    0.6596375200000000    0.2395177200000000 O
   0.5798802000000000    0.3403624800000000    0.2395177200000000 O
   0.4187317800000000    0.1650532500000000    0.7463214700000000 O
   0.0799440500000000    0.8396503600000000    0.7597063100000000 O
   0.7455800200000000    0.4994150500000000    0.7538340300000000 O
   0.5812682200000000    0.3275896900000000    0.7463214700000000 O
   0.2544199800000000    0.0082540100000000    0.7538340300000000 O
   0.9200559500000000    0.6797622700000000    0.7597063100000000 O
