Rb1 Na3 Li12 Si4 O16
1.0
  -5.4339661799999996    5.4339661899999996    3.1458192000000000
   5.4339661799999996   -5.4339661899999996    3.1458192000000000
   5.4339661899999996    5.4339661799999996   -3.1458192000000000
Rb Na Li Si O
1 3 12 4 16
direct
   0.0000000000000000    0.0000000000000000    0.0000000000000000 Rb
   0.7500000000000000    0.2500000000000000    0.5000000000000000 Na
   0.2500000000000000    0.7500000000000000    0.5000000000000000 Na
   0.5000000000000000    0.5000000000000000    0.0000000000000000 Na
   0.7155131100000000    0.9272347300000000    0.6427478400000000 Li
   0.9272347300000000    0.2844868900000000    0.2117216200000000 Li
   0.2844868900000000    0.0727652700000000    0.3572521600000000 Li
   0.0727652700000000    0.7155131100000000    0.7882783799999999 Li
   0.3640343300000000    0.4903971800000000    0.3413112800000000 Li
   0.0227230500000000    0.3640343300000000    0.8736371500000000 Li
   0.6359656700000000    0.5096028200000000    0.6586887200000000 Li
   0.1490859000000000    0.0227230500000000    0.6586887200000000 Li
   0.8509141000000000    0.9772769500000000    0.3413112800000000 Li
   0.5096028200000000    0.8509141000000000    0.8736371500000000 Li
   0.9772769500000000    0.6359656700000000    0.1263628500000000 Li
   0.4903971800000000    0.1490859000000000    0.1263628500000000 Li
   0.4255238000000000    0.7801832200000000    0.2057060200000000 Si
   0.7801832200000000    0.5744762000000000    0.3546594300000000 Si
   0.2198167800000000    0.4255238000000000    0.6453405700000000 Si
   0.5744762000000000    0.2198167800000000    0.7942939800000000 Si
   0.3655143600000000    0.0872948300000000    0.8872437700000000 O
   0.0872948300000000    0.2000510500000000    0.7217804600000000 O
   0.2000510500000000    0.4782705900000000    0.1127562300000000 O
   0.4782705900000000    0.3655143600000000    0.2782195400000000 O
   0.9127051700000000    0.7999489500000000    0.2782195400000000 O
   0.6344856400000000    0.9127051700000000    0.1127562300000000 O
   0.5217294099999999    0.6344856400000000    0.7217804600000000 O
   0.7999489500000000    0.5217294099999999    0.8872437700000000 O
   0.8405538500000000    0.4343948900000000    0.2749487400000000 O
   0.5656051100000000    0.8405538500000000    0.4061599600000000 O
   0.4343948900000000    0.1594461500000000    0.5938400400000000 O
   0.1594461500000000    0.5656051100000000    0.7250512600000000 O
   0.3252124200000000    0.8928896400000000    0.2181020600000000 O
   0.1071103600000000    0.3252124200000000    0.4323227900000000 O
   0.8928896400000000    0.6747875800000001    0.5676772100000000 O
   0.6747875800000001    0.1071103600000000    0.7818979400000000 O
