Ba2 La1 Ta1 O6
1.0
   5.2517554799999999   -3.0366176100000000   -0.0061220400000000
   5.2517554799999999    3.0366176100000000   -0.0061220400000000
  -3.5365744800000001    0.0000000000000000    5.0384925699999998
Ba La Ta O
2 1 1 6
direct
   0.2477388400000000    0.2477388400000000    0.7405889600000000 Ba
   0.7522611600000000    0.7522611600000000    0.2594110400000000 Ba
   0.0000000000000000    0.0000000000000000    0.0000000000000000 La
   0.5000000000000000    0.5000000000000000    0.5000000000000000 Ta
   0.6931656000000000    0.2274822600000000    0.6867771400000000 O
   0.7725177400000000    0.3068344000000000    0.3132228600000000 O
   0.3068344000000000    0.7725177400000000    0.3132228600000000 O
   0.2274822600000000    0.6931656000000000    0.6867771400000000 O
   0.2720952700000000    0.2720952700000000    0.2004675200000000 O
   0.7279047300000000    0.7279047300000000    0.7995324800000000 O
