Cs2 La2 W4 O16
1.0
   5.4617157599999997   -5.4619303800000001    0.0041458000000000
   5.4617157599999997    5.4619303800000001    0.0041458000000000
  -4.8628979100000000    0.0000000000000000    5.8162323799999998
Cs La W O
2 2 4 16
direct
   0.8024438000000000    0.1975562000000000    0.2500000000000000 Cs
   0.1975562000000000    0.8024438000000000    0.7500000000000000 Cs
   0.2256487700000000    0.7743512299999999    0.2500000000000000 La
   0.7743512299999999    0.2256487700000000    0.7500000000000000 La
   0.6839813900000000    0.6938936100000000    0.2209330600000000 W
   0.3160186100000000    0.3061063900000000    0.7790669400000000 W
   0.3061063900000000    0.3160186100000000    0.2790669400000000 W
   0.6938936100000000    0.6839813900000000    0.7209330600000000 W
   0.7441101100000000    0.6215472000000000    0.4340444500000000 O
   0.2558898900000000    0.3784528000000000    0.5659555500000000 O
   0.3784528000000000    0.2558898900000000    0.0659555500000000 O
   0.6215472000000000    0.7441101100000000    0.9340444500000000 O
   0.0740534800000000    0.3839641900000000    0.1400385200000000 O
   0.9259465200000000    0.6160358100000000    0.8599614799999999 O
   0.6160358100000000    0.9259465200000000    0.3599614800000000 O
   0.3839641900000000    0.0740534800000000    0.6400385200000001 O
   0.3725934500000000    0.5835433100000000    0.0264606100000000 O
   0.6274065500000000    0.4164566900000000    0.9735393900000000 O
   0.4164566900000000    0.6274065500000000    0.4735393900000000 O
   0.5835433100000000    0.3725934500000000    0.5264606100000000 O
   0.9381774300000000    0.7843520400000000    0.3009679800000000 O
   0.0618225700000000    0.2156479600000000    0.6990320200000000 O
   0.2156479600000000    0.0618225700000000    0.1990320200000000 O
   0.7843520400000000    0.9381774300000000    0.8009679800000000 O
