Na2 Sr2 P6 O18
1.0
   6.8293210400000000    0.0010826700000000   -0.0030286000000000
   0.9052749900000000    7.0972838300000003   -0.0089735400000000
   1.2755535300000000    0.6675551199999999    7.5793005800000000
Na Sr P O
2 2 6 18
direct
   0.4638161900000000    0.3658290400000000    0.3434776300000000 Na
   0.5361838100000000    0.6341709600000000    0.6565223700000000 Na
   0.0126884000000000    0.7302673400000000    0.6420082300000000 Sr
   0.9873116000000000    0.2697326600000000    0.3579917700000000 Sr
   0.8349085300000000    0.7889788300000000    0.2727720700000000 P
   0.1650914700000000    0.2110211700000000    0.7272279300000000 P
   0.7973896900000000    0.3375237100000000    0.9437803100000000 P
   0.2026103100000000    0.6624762900000000    0.0562196900000000 P
   0.6044873600000000    0.1186466600000000    0.7213127900000000 P
   0.3955126400000000    0.8813533400000000    0.2786872100000000 P
   0.0815514800000000    0.0556086000000000    0.6568346000000000 O
   0.9184485200000000    0.9443914000000000    0.3431654000000000 O
   0.3688957800000000    0.1440056400000000    0.7995610399999999 O
   0.6311042200000000    0.8559943600000000    0.2004389600000000 O
   0.1796129700000000    0.3857116000000000    0.5989667600000000 O
   0.8203870300000000    0.6142884000000000    0.4010332400000000 O
   0.0326121900000000    0.2560502400000000    0.9140626400000000 O
   0.9673878100000000    0.7439497600000000    0.0859373600000000 O
   0.7450517800000001    0.3456472100000000    0.1388524300000000 O
   0.2549482200000000    0.6543527900000000    0.8611475700000000 O
   0.7701658600000000    0.5112031600000000    0.8204838900000000 O
   0.2298341400000000    0.4887968400000000    0.1795161100000000 O
   0.6890447200000001    0.1692832500000000    0.8916217400000001 O
   0.3109552800000000    0.8307167500000000    0.1083782600000000 O
   0.6463865600000001    0.2657572100000000    0.5695475500000000 O
   0.3536134400000000    0.7342427900000000    0.4304524500000000 O
   0.6649734400000000    0.9139083300000000    0.6984120700000001 O
   0.3350265600000000    0.0860916700000000    0.3015879300000000 O
