In2 B2 O6
1.0
   2.4409453800000001    1.4092808699999999    5.1835164400000000
  -2.4409453800000001    1.4092808699999999    5.1835164400000000
   0.0000000000000000   -2.8185617299999999    5.1835164400000000
In B O
2 2 6
direct
   0.5000000000000000    0.5000000000000000    0.5000000000000000 In
   0.0000000000000000    0.0000000000000000    0.0000000000000000 In
   0.2500000000000000    0.2500000000000000    0.2500000000000000 B
   0.7500000000000000    0.7500000000000000    0.7500000000000000 B
   0.7500000000000000    0.0330802900000000    0.4669197100000000 O
   0.4669197100000000    0.7500000000000000    0.0330802900000000 O
   0.0330802900000000    0.4669197100000000    0.7500000000000000 O
   0.2500000000000000    0.9669197100000000    0.5330802900000000 O
   0.5330802900000000    0.2500000000000000    0.9669197100000000 O
   0.9669197100000000    0.5330802900000000    0.2500000000000000 O
