Ag8 Se4 O12
1.0
   4.7804479999999998    0.0000000000000000    0.0000000000000000
   0.0000000000000000   10.1504670000000008    0.0000000000000000
  -0.0856240000000000    0.0000000000000000    6.8805909999999999
Ag Se O
8 4 12
direct
   0.2511160000000000    0.9156900000000000    0.1314860000000000 Ag
   0.2511160000000000    0.5843100000000000    0.6314860000000000 Ag
   0.7488840000000000    0.0843100000000000    0.8685140000000000 Ag
   0.7488840000000000    0.4156900000000000    0.3685140000000000 Ag
   0.7421380000000000    0.7518950000000000    0.4019770000000000 Ag
   0.2578620000000000    0.2518950000000000    0.0980230000000000 Ag
   0.2578620000000000    0.2481050000000000    0.5980230000000000 Ag
   0.7421380000000000    0.7481050000000000    0.9019770000000000 Ag
   0.2635240000000000    0.5902630000000000    0.1612380000000000 Se
   0.7364760000000000    0.4097370000000000    0.8387620000000000 Se
   0.7364760000000000    0.0902630000000000    0.3387620000000000 Se
   0.2635240000000000    0.9097370000000000    0.6612380000000000 Se
   0.2132550000000000    0.7822810000000000    0.8270720000000000 O
   0.7867450000000000    0.2822810000000000    0.6729280000000000 O
   0.7867450000000000    0.2177190000000000    0.1729280000000000 O
   0.2132550000000000    0.7177190000000000    0.3270720000000000 O
   0.2413570000000000    0.0432190000000000    0.8166560000000000 O
   0.7586430000000000    0.5432190000000000    0.6833440000000000 O
   0.7586430000000000    0.9567810000000000    0.1833440000000000 O
   0.6249870000000000    0.6016660000000000    0.1449620000000000 O
   0.6249870000000000    0.8983340000000000    0.6449620000000000 O
   0.3750130000000000    0.3983340000000000    0.8550380000000000 O
   0.3750130000000000    0.1016660000000000    0.3550380000000000 O
   0.2413570000000000    0.4567810000000000    0.3166560000000000 O
