Tl6 P2 O8
1.0
   8.3696605099999992   -0.0000000800000000    0.0000000000000000
  -4.1848301899999996    7.2483391900000003    0.0000000000000000
   0.0000000000000000    0.0000000000000000    5.0800799999999997
Tl P O
6 2 8
direct
   0.0883490900000000    0.3536853100000000    0.5028231200000000 Tl
   0.6463146900000000    0.7346637800000000    0.5028231200000000 Tl
   0.7346637800000000    0.0883490900000000    0.0028231200000000 Tl
   0.9116509100000000    0.6463146900000000    0.0028231200000000 Tl
   0.3536853100000000    0.2653362200000000    0.0028231200000000 Tl
   0.2653362200000000    0.9116509100000000    0.5028231200000000 Tl
   0.6666670000000000    0.3333330000000000    0.4851489100000000 P
   0.3333330000000000    0.6666670000000000    0.9851489100000000 P
   0.1346389400000000    0.5290607899999999    0.0806925400000000 O
   0.6055781400000000    0.1346389400000000    0.5806925400000000 O
   0.5290607899999999    0.3944218600000000    0.5806925400000000 O
   0.4709392100000000    0.6055781400000000    0.0806925400000000 O
   0.6666670000000000    0.3333330000000000    0.1749030900000000 O
   0.8653610600000000    0.4709392100000000    0.5806925400000000 O
   0.3333330000000000    0.6666670000000000    0.6749030900000000 O
   0.3944218600000000    0.8653610600000000    0.0806925400000000 O
