Ta4 V4 O20
1.0
  11.9689652800000008    0.0000000000000000    0.0000000000000000
   0.0000000000000000    5.5747962400000004    0.0000000000000000
   0.0000000000000000    0.0000000000000000    6.9993241199999998
Ta V O
4 4 20
direct
   0.5584954000000000    0.2500000000000000    0.1589356400000000 Ta
   0.4415046000000000    0.7500000000000000    0.8410643600000000 Ta
   0.9415046000000000    0.7500000000000000    0.6589356400000000 Ta
   0.0584954000000000    0.2500000000000000    0.3410643600000000 Ta
   0.8450224100000000    0.2500000000000000    0.9697325500000000 V
   0.1549775900000000    0.7500000000000000    0.0302674500000000 V
   0.6549775900000000    0.7500000000000000    0.4697325500000000 V
   0.3450224100000000    0.2500000000000000    0.5302674500000000 V
   0.9215993700000000    0.2500000000000000    0.1783998100000000 O
   0.0784006300000000    0.7500000000000000    0.8216001900000000 O
   0.5784006300000000    0.7500000000000000    0.6783998100000000 O
   0.4215993700000000    0.2500000000000000    0.3216001900000000 O
   0.7038587500000000    0.2500000000000000    0.0244542900000000 O
   0.2961412500000000    0.7500000000000000    0.9755457100000000 O
   0.7961412500000000    0.7500000000000000    0.5244542900000000 O
   0.2038587500000000    0.2500000000000000    0.4755457100000000 O
   0.0000000000000000    0.0000000000000000    0.5000000000000000 O
   0.0000000000000000    0.5000000000000000    0.5000000000000000 O
   0.5000000000000000    0.0000000000000000    0.0000000000000000 O
   0.5000000000000000    0.5000000000000000    0.0000000000000000 O
   0.1234427000000000    0.0012042000000000    0.1590200700000000 O
   0.8765573000000000    0.5012042000000000    0.8409799300000000 O
   0.3765573000000000    0.9987958000000000    0.6590200700000000 O
   0.6234427000000000    0.4987958000000000    0.3409799300000000 O
   0.8765573000000000    0.9987958000000000    0.8409799300000000 O
   0.1234427000000000    0.4987958000000000    0.1590200700000000 O
   0.6234427000000000    0.0012042000000000    0.3409799300000000 O
   0.3765573000000000    0.5012042000000000    0.6590200700000000 O
