Ba4 Ge2 Te4 Se4
1.0
   7.4252093900000000    0.0000000000000000    0.0380473000000000
   0.0000000000000000    7.1647807800000001    0.0000000000000000
  -2.9009010399999999    0.0000000000000000    8.7074200600000005
Ba Ge Te Se
4 2 4 4
direct
   0.7767262600000000    0.2500000000000000    0.9456763100000000 Ba
   0.7746821699999999    0.2500000000000000    0.4420718500000000 Ba
   0.2253178300000000    0.7500000000000000    0.5579281500000000 Ba
   0.2232737400000000    0.7500000000000000    0.0543236900000000 Ba
   0.2161107200000000    0.2500000000000000    0.3041465200000000 Ge
   0.7838892800000000    0.7500000000000000    0.6958534800000000 Ge
   0.3875106200000000    0.2500000000000000    0.0972444200000000 Te
   0.3896098600000000    0.2500000000000000    0.5962715700000000 Te
   0.6103901400000000    0.7500000000000000    0.4037284300000000 Te
   0.6124893800000000    0.7500000000000000    0.9027555800000000 Te
   0.0025153700000000    0.5062764100000000    0.2492074500000000 Se
   0.9974846300000000    0.0062764100000000    0.7507925500000000 Se
   0.9974846300000000    0.4937235900000000    0.7507925500000000 Se
   0.0025153700000000    0.9937235900000000    0.2492074500000000 Se
