Ba2 Sc2 Cu2 S6
1.0
   1.9271712700000001   -6.6323439200000003    0.0000000000000000
   1.9271712700000001    6.6323439200000003    0.0000000000000000
   0.0000000000000000    0.0000000000000000    9.6525634300000007
Ba Sc Cu S
2 2 2 6
direct
   0.2551514700000000    0.7448485300000000    0.2500000000000000 Ba
   0.7448485300000000    0.2551514700000000    0.7500000000000000 Ba
   0.0000000000000000    0.0000000000000000    0.5000000000000000 Sc
   0.0000000000000000    0.0000000000000000    0.0000000000000000 Sc
   0.5321164000000000    0.4678836000000000    0.2500000000000000 Cu
   0.4678836000000000    0.5321164000000000    0.7500000000000000 Cu
   0.6270999900000001    0.3729000100000000    0.4471082600000000 S
   0.3729000100000000    0.6270999900000001    0.5528917400000000 S
   0.6270999900000001    0.3729000100000000    0.0528917400000000 S
   0.3729000100000000    0.6270999900000001    0.9471082600000000 S
   0.9369936600000000    0.0630063400000000    0.2500000000000000 S
   0.0630063400000000    0.9369936600000000    0.7500000000000000 S
