Na4 Sr2 P8 O24
1.0
   9.8265002700000004    0.0000000000000000    0.0000000000000000
   0.0000000000000000    9.8265002700000004    0.0000000000000000
   0.0000000000000000    0.0000000000000000    4.9761732800000003
Na Sr P O
4 2 8 24
direct
   0.7500000000000000    0.7500000000000000    0.5000000000000000 Na
   0.7500000000000000    0.2500000000000000    0.5000000000000000 Na
   0.2500000000000000    0.7500000000000000    0.5000000000000000 Na
   0.2500000000000000    0.2500000000000000    0.5000000000000000 Na
   0.0000000000000000    0.0000000000000000    0.5000000000000000 Sr
   0.5000000000000000    0.5000000000000000    0.5000000000000000 Sr
   0.0000000000000000    0.2864976000000000    0.0000000000000000 P
   0.2864976000000000    0.0000000000000000    0.0000000000000000 P
   0.7135024000000000    0.0000000000000000    0.0000000000000000 P
   0.0000000000000000    0.7135024000000000    0.0000000000000000 P
   0.5000000000000000    0.2135024000000000    0.0000000000000000 P
   0.2135024000000000    0.5000000000000000    0.0000000000000000 P
   0.7864976000000000    0.5000000000000000    0.0000000000000000 P
   0.5000000000000000    0.7864976000000000    0.0000000000000000 P
   0.1100713600000000    0.3899286400000000    0.1340500100000000 O
   0.3899286400000000    0.8899286400000000    0.1340500100000000 O
   0.6100713600000000    0.1100713600000000    0.1340500100000000 O
   0.8899286400000000    0.6100713600000000    0.1340500100000000 O
   0.8899286400000000    0.3899286400000000    0.8659499899999999 O
   0.1100713600000000    0.6100713600000000    0.8659499899999999 O
   0.3899286400000000    0.1100713600000000    0.8659499899999999 O
   0.6100713600000000    0.8899286400000000    0.8659499899999999 O
   0.7878786500000000    0.9366478900000000    0.2299615600000000 O
   0.9366478900000000    0.2121213500000000    0.2299615600000000 O
   0.0633521100000000    0.7878786500000000    0.2299615600000000 O
   0.2121213500000000    0.0633521100000000    0.2299615600000000 O
   0.2121213500000000    0.9366478900000000    0.7700384400000000 O
   0.7878786500000000    0.0633521100000000    0.7700384400000000 O
   0.9366478900000000    0.7878786500000000    0.7700384400000000 O
   0.0633521100000000    0.2121213500000000    0.7700384400000000 O
   0.7121213500000000    0.5633521100000000    0.7700384400000000 O
   0.5633521100000000    0.2878786500000000    0.7700384400000000 O
   0.4366478900000000    0.7121213500000000    0.7700384400000000 O
   0.2878786500000000    0.4366478900000000    0.7700384400000000 O
   0.2878786500000000    0.5633521100000000    0.2299615600000000 O
   0.7121213500000000    0.4366478900000000    0.2299615600000000 O
   0.5633521100000000    0.7121213500000000    0.2299615600000000 O
   0.4366478900000000    0.2878786500000000    0.2299615600000000 O
