Ca1 Sn4 P6 O24
1.0
   4.2075111400000003    2.4292068599999999    7.6059682899999999
  -4.2075108900000000    2.4292072999999998    7.6059682899999999
  -0.0000002500000000   -4.8584151499999999    7.6059682799999999
Ca Sn P O
1 4 6 24
direct
   0.0000000000000000    0.0000000000000000    0.0000000000000000 Ca
   0.3518924700000000    0.3518924700000000    0.3518924700000000 Sn
   0.6481075300000000    0.6481075300000000    0.6481075300000000 Sn
   0.1471707100000000    0.1471707100000000    0.1471707100000000 Sn
   0.8528292900000000    0.8528292900000000    0.8528292900000000 Sn
   0.7523541100000000    0.0355757600000000    0.4570238200000000 P
   0.0355757600000000    0.4570238200000000    0.7523541100000000 P
   0.4570238200000000    0.7523541100000000    0.0355757600000000 P
   0.2476458900000000    0.9644242400000000    0.5429761800000000 P
   0.9644242400000000    0.5429761800000000    0.2476458900000000 P
   0.5429761800000000    0.2476458900000000    0.9644242400000000 P
   0.8083415700000000    0.0120215600000000    0.6027277400000000 O
   0.0120215600000000    0.6027277400000000    0.8083415700000000 O
   0.6027277400000000    0.8083415700000000    0.0120215600000000 O
   0.1916584300000000    0.9879784400000000    0.3972722600000000 O
   0.9879784400000000    0.3972722600000000    0.1916584300000000 O
   0.3972722600000000    0.1916584300000000    0.9879784400000000 O
   0.7861816600000000    0.8417316600000000    0.4688760000000000 O
   0.8417316600000000    0.4688760000000000    0.7861816600000000 O
   0.4688760000000000    0.7861816600000000    0.8417316600000000 O
   0.2138183400000000    0.1582683400000000    0.5311240000000000 O
   0.1582683400000000    0.5311240000000000    0.2138183400000000 O
   0.5311240000000000    0.2138183400000000    0.1582683400000000 O
   0.5442505800000000    0.1762333900000000    0.4863420400000000 O
   0.1762333900000000    0.4863420400000000    0.5442505800000000 O
   0.4863420400000000    0.5442505800000000    0.1762333900000000 O
   0.4557494200000000    0.8237666100000000    0.5136579600000000 O
   0.8237666100000000    0.5136579600000000    0.4557494200000000 O
   0.5136579600000000    0.4557494200000000    0.8237666100000000 O
   0.8901216500000000    0.1163448600000000    0.2485162100000000 O
   0.1163448600000000    0.2485162100000000    0.8901216500000000 O
   0.2485162100000000    0.8901216500000000    0.1163448600000000 O
   0.1098783500000000    0.8836551400000000    0.7514837900000000 O
   0.8836551400000000    0.7514837900000000    0.1098783500000000 O
   0.7514837900000000    0.1098783500000000    0.8836551400000000 O
