Rb2 Re2 O8
1.0
  -2.9425548500000001    2.9425548199999998    6.4909619999999997
   2.9425548500000001   -2.9425548199999998    6.4909619999999997
   2.9425548199999998    2.9425548500000001   -6.4909619999999997
Rb Re O
2 2 8
direct
   0.7500000000000000    0.2500000000000000    0.5000000000000000 Rb
   0.0000000000000000    0.0000000000000000    0.0000000000000000 Rb
   0.2500000000000000    0.7500000000000000    0.5000000000000000 Re
   0.5000000000000000    0.5000000000000000    0.0000000000000000 Re
   0.2106905500000000    0.5430507800000000    0.9075592600000000 O
   0.2930507800000000    0.8854915200000000    0.8323602400000000 O
   0.0531312800000000    0.4606905500000000    0.1676397600000000 O
   0.6354915200000000    0.3031312800000000    0.0924407400000000 O
   0.1145084800000000    0.9468687200000000    0.4075592600000000 O
   0.6968687200000000    0.7893094500000000    0.3323602400000000 O
   0.4569492200000000    0.3645084800000000    0.6676397600000000 O
   0.5393094500000000    0.7069492200000000    0.5924407400000000 O
