Na2 Sn4 P6 O24
1.0
   4.3078645299999998    2.4871467500000000    7.4639547000000004
  -4.3078646599999999    2.4871465200000000    7.4639547000000004
   0.0000001300000000   -4.9742932700000004    7.4639547000000004
Na Sn P O
2 4 6 24
direct
   0.0000000000000000    0.0000000000000000    0.0000000000000000 Na
   0.5000000000000000    0.5000000000000000    0.5000000000000000 Na
   0.8536621100000000    0.8536621100000000    0.8536621100000000 Sn
   0.1463378900000000    0.1463378900000000    0.1463378900000000 Sn
   0.6449507400000000    0.6449507400000000    0.6449507400000000 Sn
   0.3550492600000000    0.3550492600000000    0.3550492600000000 Sn
   0.4577139500000000    0.7491334600000000    0.0434804100000000 P
   0.0434804100000000    0.4577139500000000    0.7491334600000000 P
   0.5422860500000000    0.2508665400000000    0.9565195900000000 P
   0.9565195900000000    0.5422860500000000    0.2508665400000000 P
   0.7491334600000000    0.0434804100000000    0.4577139500000000 P
   0.2508665400000000    0.9565195900000000    0.5422860500000000 P
   0.2411343200000000    0.4031086300000000    0.6004340000000000 O
   0.6004340000000000    0.2411343200000000    0.4031086300000000 O
   0.4031086300000000    0.6004340000000000    0.2411343200000000 O
   0.7588656800000000    0.5968913700000000    0.3995660000000000 O
   0.3995660000000000    0.7588656800000000    0.5968913700000000 O
   0.5968913700000000    0.3995660000000000    0.7588656800000000 O
   0.0611407700000000    0.9676665000000000    0.7102976400000000 O
   0.7102976400000000    0.0611407700000000    0.9676665000000000 O
   0.9676665000000000    0.7102976400000000    0.0611407700000000 O
   0.9388592300000000    0.0323335000000000    0.2897023600000000 O
   0.2897023600000000    0.9388592300000000    0.0323335000000000 O
   0.0323335000000000    0.2897023600000000    0.9388592300000000 O
   0.9769437700000000    0.3673005500000000    0.2388167200000000 O
   0.3673005500000000    0.2388167200000000    0.9769437700000000 O
   0.2388167200000000    0.9769437700000000    0.3673005500000000 O
   0.0230562300000000    0.6326994500000001    0.7611832800000000 O
   0.6326994500000001    0.7611832800000000    0.0230562300000000 O
   0.7611832800000000    0.0230562300000000    0.6326994500000001 O
   0.4919043000000000    0.6935185699999999    0.8906361900000000 O
   0.6935185699999999    0.8906361900000000    0.4919043000000000 O
   0.8906361900000000    0.4919043000000000    0.6935185699999999 O
   0.5080957000000000    0.3064814300000000    0.1093638100000000 O
   0.3064814300000000    0.1093638100000000    0.5080957000000000 O
   0.1093638100000000    0.5080957000000000    0.3064814300000000 O
