Mg6 P4 O16
1.0
   5.0923166300000000    0.0000000000000000   -0.0082581300000000
   0.0000000000000000    8.2280231500000003    0.0000000000000000
  -4.5354948100000003    0.0000000000000000    7.6101071800000000
Mg P O
6 4 16
direct
   0.4878892700000000    0.8562783600000000    0.3919697100000000 Mg
   0.5121107300000000    0.3562783600000000    0.1080302900000000 Mg
   0.5121107300000000    0.1437216400000000    0.6080302900000000 Mg
   0.4878892700000000    0.6437216400000000    0.8919697100000000 Mg
   0.5000000000000000    0.5000000000000000    0.5000000000000000 Mg
   0.5000000000000000    0.0000000000000000    0.0000000000000000 Mg
   0.8359977800000000    0.8049943200000000    0.8004760600000000 P
   0.1640022200000000    0.3049943200000000    0.6995239400000000 P
   0.1640022200000000    0.1950056800000000    0.1995239400000000 P
   0.8359977800000000    0.6950056800000000    0.3004760600000000 P
   0.6923526500000000    0.5745552700000000    0.1441262900000000 O
   0.3076473500000000    0.0745552700000000    0.3558737100000000 O
   0.3076473500000000    0.4254447300000000    0.8558737100000000 O
   0.6923526500000000    0.9254447300000000    0.6441262900000000 O
   0.6816056800000000    0.8648931399999999    0.2385756200000000 O
   0.3183943200000000    0.3648931400000000    0.2614243800000000 O
   0.3183943200000000    0.1351068600000000    0.7614243800000000 O
   0.6816056800000000    0.6351068600000001    0.7385756200000000 O
   0.1837308500000000    0.6984322400000000    0.3770068300000000 O
   0.8162691500000000    0.1984322400000000    0.1229931700000000 O
   0.7582659400000000    0.8550961400000000    0.9413016100000000 O
   0.2417340600000000    0.3550961400000000    0.5586983900000000 O
   0.2417340600000000    0.1449038600000000    0.0586983900000000 O
   0.7582659400000000    0.6449038600000000    0.4413016100000000 O
   0.1837308500000000    0.8015677600000000    0.8770068300000000 O
   0.8162691500000000    0.3015677600000000    0.6229931700000000 O
