Rb6 Al4 P6 O24
1.0
   8.5770936899999999   -4.2933061199999996    0.0000000000000000
   8.5770936899999999    4.2933061199999996    0.0000000000000000
   0.0000000000000000    0.0000000000000000    8.9327930700000007
Rb Al P O
6 4 6 24
direct
   0.8332632600000000    0.9391588800000000    0.5258994800000000 Rb
   0.9391588800000000    0.8332632600000000    0.0258994800000000 Rb
   0.6403337900000000    0.3596662100000000    0.8416835400000000 Rb
   0.0608411200000000    0.1667367400000000    0.5258994800000000 Rb
   0.1667367400000000    0.0608411200000000    0.0258994800000000 Rb
   0.3596662100000000    0.6403337900000000    0.3416835400000000 Rb
   0.8236675200000000    0.5115045200000000    0.1795118500000000 Al
   0.5115045200000000    0.8236675200000000    0.6795118500000000 Al
   0.1763324800000000    0.4884954800000000    0.6795118500000000 Al
   0.4884954800000000    0.1763324800000000    0.1795118500000000 Al
   0.5352458800000000    0.8739007500000000    0.3425959700000000 P
   0.2275120100000000    0.7724879900000000    0.7407086000000001 P
   0.7724879900000000    0.2275120100000000    0.2407086000000000 P
   0.4647541200000000    0.1260992500000000    0.8425959700000000 P
   0.1260992500000000    0.4647541200000000    0.3425959700000000 P
   0.8739007500000000    0.5352458800000000    0.8425959700000000 P
   0.3603871600000000    0.7823562300000000    0.6426686400000000 O
   0.3452022100000000    0.9602113700000000    0.3163089500000000 O
   0.6882222500000000    0.6475819800000000    0.7740283600000000 O
   0.8504928000000000    0.5862493700000000    0.0113273400000000 O
   0.4007417900000000    0.0221476000000000    0.7775017700000000 O
   0.9778524000000000    0.5992582100000000    0.7775017700000000 O
   0.6396128400000000    0.2176437700000000    0.1426686400000000 O
   0.6975824600000000    0.3024175400000000    0.3945505800000000 O
   0.7823562300000000    0.3603871600000000    0.1426686400000000 O
   0.2176437700000000    0.6396128400000000    0.6426686400000000 O
   0.1495072000000000    0.4137506300000000    0.5113273400000000 O
   0.3117777500000000    0.3524180200000000    0.2740283600000000 O
   0.9602113700000000    0.3452022100000000    0.8163089500000000 O
   0.9492669900000000    0.0507330100000000    0.2402535800000000 O
   0.3524180200000000    0.3117777500000000    0.7740283600000000 O
   0.3024175400000000    0.6975824600000000    0.8945505800000000 O
   0.5992582100000000    0.9778524000000000    0.2775017700000000 O
   0.0507330100000000    0.9492669900000000    0.7402535800000000 O
   0.0221476000000000    0.4007417900000000    0.2775017700000000 O
   0.4137506300000000    0.1495072000000000    0.0113273400000000 O
   0.5862493700000000    0.8504928000000000    0.5113273400000000 O
   0.0397886300000000    0.6547977900000000    0.3163089500000000 O
   0.6547977900000000    0.0397886300000000    0.8163089500000000 O
   0.6475819800000000    0.6882222500000000    0.2740283600000000 O
