Na4 Cu8 S6
1.0
   7.7024886800000001   -1.9071526999999999   -0.0406500400000000
   7.7024886800000001    1.9071526999999999   -0.0406500400000000
  -3.1050377899999999    0.0000000000000000    9.6224478999999992
Na Cu S
4 8 6
direct
   0.8334210700000000    0.8334210700000000    0.1576437800000000 Na
   0.1665789300000000    0.1665789300000000    0.8423562200000000 Na
   0.6882425500000000    0.6882425500000000    0.3453522700000000 Na
   0.3117574500000000    0.3117574500000000    0.6546477300000000 Na
   0.5088817300000000    0.5088817300000000    0.8780084700000000 Cu
   0.4911182700000000    0.4911182700000000    0.1219915300000000 Cu
   0.0921761800000000    0.0921761800000000    0.5123543100000000 Cu
   0.0912051100000000    0.0912051100000000    0.0933022100000000 Cu
   0.9087948900000000    0.9087948900000000    0.9066977899999999 Cu
   0.4790831600000000    0.4790831600000000    0.3676336700000000 Cu
   0.5209168400000000    0.5209168400000000    0.6323663300000000 Cu
   0.9078238199999999    0.9078238199999999    0.4876456900000000 Cu
   0.6459472700000000    0.6459472700000000    0.0425478600000000 S
   0.0306123500000000    0.0306123500000000    0.2758818400000000 S
   0.9693876500000000    0.9693876500000000    0.7241181600000000 S
   0.6641338400000000    0.6641338400000000    0.6162503000000000 S
   0.3358661600000000    0.3358661600000000    0.3837497000000000 S
   0.3540527300000000    0.3540527300000000    0.9574521400000000 S
