Cs2 Tl2 O2
1.0
   7.0055155600000001   -1.8752322299999999   -0.0028285200000000
   7.0055155600000001    1.8752322299999999   -0.0028285200000000
  -1.8158920700000001    0.0000000000000000    6.2712790600000003
Cs Tl O
2 2 2
direct
   0.1207745100000000    0.1207745100000000    0.3419309800000000 Cs
   0.8792254900000001    0.8792254900000001    0.6580690200000000 Cs
   0.3513667300000000    0.3513667300000000    0.1424309200000000 Tl
   0.6486332700000000    0.6486332700000000    0.8575690800000000 Tl
   0.7516934900000000    0.7516934900000000    0.2077086800000000 O
   0.2483065100000000    0.2483065100000000    0.7922913200000000 O
