Na4 Se2 O8
1.0
   0.0000000000000000    5.0386600399999999    6.2408770000000002
   3.0350773100000001    0.0000000000000000    6.2408770000000002
   3.0350773100000001    5.0386600399999999    0.0000000000000000
Na Se O
4 2 8
direct
   0.1854669600000000    0.8145330400000000    0.1854669600000000 Na
   0.4354669600000000    0.0645330400000000    0.4354669600000000 Na
   0.8145330400000000    0.1854669600000000    0.8145330400000000 Na
   0.0645330400000000    0.4354669600000000    0.0645330400000000 Na
   0.7500000000000000    0.7500000000000000    0.7500000000000000 Se
   0.5000000000000000    0.5000000000000000    0.5000000000000000 Se
   0.9338916300000000    0.4188426800000000    0.7670301000000000 O
   0.7670301000000000    0.8802355900000000    0.9338916300000000 O
   0.3697644100000000    0.4829699000000000    0.8311573200000000 O
   0.3161083700000000    0.8311573200000000    0.4829699000000000 O
   0.8311573200000000    0.3161083700000000    0.3697644100000000 O
   0.4188426800000000    0.9338916300000000    0.8802355900000000 O
   0.8802355900000000    0.7670301000000000    0.4188426800000000 O
   0.4829699000000000    0.3697644100000000    0.3161083700000000 O
