Na4 Li8 P4 O16
1.0
  10.0332302099999993    0.0000000000000000    0.0000000000000000
   0.0000000000000000    6.8199364400000002    0.0000000000000000
   0.0000000000000000    0.0000000000000000    4.9150577999999996
Na Li P O
4 8 4 16
direct
   0.8941437500000000    0.7500000000000000    0.2431301100000000 Na
   0.3941437500000000    0.7500000000000000    0.2568698900000000 Na
   0.1058562500000000    0.2500000000000000    0.7568698900000000 Na
   0.6058562500000000    0.2500000000000000    0.7431301100000000 Na
   0.3426619800000000    0.5005624000000000    0.7906494400000000 Li
   0.1573380200000000    0.0005624000000000    0.2906494400000000 Li
   0.8426619800000000    0.9994376000000000    0.7093505600000000 Li
   0.6573380200000000    0.4994376000000000    0.2093505600000000 Li
   0.8426619800000000    0.5005624000000000    0.7093505600000000 Li
   0.6573380200000000    0.0005624000000000    0.2093505600000000 Li
   0.3426619800000000    0.9994376000000000    0.7906494400000000 Li
   0.1573380200000000    0.4994376000000000    0.2906494400000000 Li
   0.4035152900000000    0.2500000000000000    0.2989429600000000 P
   0.9035152900000000    0.2500000000000000    0.2010570400000000 P
   0.5964847100000000    0.7500000000000000    0.7010570400000000 P
   0.0964847100000000    0.7500000000000000    0.7989429600000000 P
   0.4434204600000000    0.7500000000000000    0.7563259800000000 O
   0.8392401200000000    0.4366772500000000    0.3235489800000000 O
   0.1607598800000000    0.9366772500000000    0.6764510200000000 O
   0.8392401200000000    0.0633227500000000    0.3235489800000000 O
   0.3814350400000000    0.2500000000000000    0.6130001000000000 O
   0.6185649600000001    0.7500000000000000    0.3869999000000000 O
   0.9434204600000000    0.7500000000000000    0.7436740200000000 O
   0.3392401200000000    0.4366772500000000    0.1764510200000000 O
   0.6607598800000000    0.5633227500000000    0.8235489800000000 O
   0.1607598800000000    0.5633227500000000    0.6764510200000000 O
   0.8814350399999999    0.2500000000000000    0.8869999000000000 O
   0.1185649600000000    0.7500000000000000    0.1130001000000000 O
   0.0565795400000000    0.2500000000000000    0.2563259800000000 O
   0.5565795400000000    0.2500000000000000    0.2436740200000000 O
   0.3392401200000000    0.0633227500000000    0.1764510200000000 O
   0.6607598800000000    0.9366772500000000    0.8235489800000000 O
