Mg4 P6 S1 N12
1.0
  -4.1475735000000000    4.1475735000000000    4.1475735000000000
   4.1475735000000000   -4.1475735000000000    4.1475735000000000
   4.1475735000000000    4.1475735000000000   -4.1475735000000000
Mg P S N
4 6 1 12
direct
   0.3416220000000000    0.3416220000000000    0.3416220000000000 Mg
   0.0000000000000000    0.6583780000000000    0.0000000000000000 Mg
   0.6583780000000000    0.0000000000000000    0.0000000000000000 Mg
   0.0000000000000000    0.0000000000000000    0.6583780000000000 Mg
   0.5000000000000000    0.2500000000000000    0.7500000000000000 P
   0.5000000000000000    0.7500000000000000    0.2500000000000000 P
   0.7500000000000000    0.2500000000000000    0.5000000000000000 P
   0.2500000000000000    0.5000000000000000    0.7500000000000000 P
   0.7500000000000000    0.5000000000000000    0.2500000000000000 P
   0.2500000000000000    0.7500000000000000    0.5000000000000000 P
   0.0000000000000000    0.0000000000000000    0.0000000000000000 S
   0.0000000000000000    0.7260630300000001    0.4404857400000000 N
   0.2739369700000000    0.7144217100000000    0.2739369700000000 N
   0.2855782900000000    0.5595142600000000    0.5595142600000000 N
   0.5595142600000000    0.5595142600000000    0.2855782900000000 N
   0.5595142600000000    0.2855782900000000    0.5595142600000000 N
   0.7260630300000001    0.0000000000000000    0.4404857400000000 N
   0.4404857400000000    0.0000000000000000    0.7260630300000001 N
   0.7260630300000001    0.4404857400000000    0.0000000000000000 N
   0.2739369700000000    0.2739369700000000    0.7144217100000000 N
   0.7144217100000000    0.2739369700000000    0.2739369700000000 N
   0.0000000000000000    0.4404857400000000    0.7260630300000001 N
   0.4404857400000000    0.7260630300000001    0.0000000000000000 N
