La5 Tl1 Se8
1.0
  -4.5226229199999999    4.5226228199999996    4.4751544000000001
   4.5226229199999999   -4.5226228199999996    4.4751544000000001
   4.5226228199999996    4.5226229199999999   -4.4751544000000001
La Tl Se
5 1 8
direct
   0.4981258500000000    0.8817331899999999    0.1192699500000000 La
   0.2500000000000000    0.7500000000000000    0.5000000000000000 La
   0.7624622400000000    0.3788559000000000    0.8807300500000000 La
   0.6211441000000000    0.5018741500000000    0.3836073400000000 La
   0.1182668100000000    0.2375377600000000    0.6163926600000000 La
   0.0000000000000000    0.0000000000000000    0.0000000000000000 Tl
   0.3866271200000000    0.1306651000000000    0.8986860000000000 Se
   0.3849957900000000    0.1266485900000000    0.4157864100000000 Se
   0.0307916100000000    0.6150042100000001    0.7416537900000000 Se
   0.7108621800000000    0.9692083900000000    0.5842135899999999 Se
   0.8693349000000000    0.7680209099999999    0.2559630200000000 Se
   0.2319790900000000    0.4879411200000000    0.1013140000000000 Se
   0.5120588800000000    0.6133728800000000    0.7440369800000000 Se
   0.8733514100000001    0.2891378200000000    0.2583462100000000 Se
