Li1 Al1 O2
1.0
   1.4021703500000000    0.8095432400000000    4.7340593999999996
  -1.4021703500000000    0.8095432400000000    4.7340593999999996
   0.0000000000000000   -1.6190874700000000    4.7340593999999996
Li Al O
1 1 2
direct
   0.0000000000000000    0.0000000000000000    0.0000000000000000 Li
   0.5000000000000000    0.5000000000000000    0.5000000000000000 Al
   0.2387039000000000    0.2387039000000000    0.2387039000000000 O
   0.7612961000000000    0.7612961000000000    0.7612961000000000 O
