Ca2 Sn2 O6
1.0
   2.7531977200000002    1.5895587300000000    5.0792182199999996
  -2.7531975599999998    1.5895590100000001    5.0792182199999996
  -0.0000001600000000   -3.1791187299999999    5.0792182099999996
Ca Sn O
2 2 6
direct
   0.6375247400000000    0.6375247400000000    0.6375247400000000 Ca
   0.3624752600000000    0.3624752600000000    0.3624752600000000 Ca
   0.8458868600000000    0.8458868600000000    0.8458868600000000 Sn
   0.1541131400000000    0.1541131400000000    0.1541131400000000 Sn
   0.4439414700000000    0.7901355300000000    0.0353292600000000 O
   0.7901355300000000    0.0353292600000000    0.4439414700000000 O
   0.0353292600000000    0.4439414700000000    0.7901355300000000 O
   0.5560585300000001    0.2098644700000000    0.9646707400000000 O
   0.2098644700000000    0.9646707400000000    0.5560585300000001 O
   0.9646707400000000    0.5560585300000001    0.2098644700000000 O
