Ba8 Tl8 O20
1.0
   6.0667563099999997    0.0000000000000000    0.0000000000000000
   0.0000000000000000   17.1108590800000009    0.0000000000000000
   0.0000000000000000    0.0000000000000000    6.3231982799999997
Ba Tl O
8 8 20
direct
   0.4951054600000000    0.8899899600000000    0.9821979000000000 Ba
   0.9951054600000000    0.6100100400000000    0.5178021000000000 Ba
   0.0048945400000000    0.1100100400000000    0.4821979000000000 Ba
   0.5048945400000000    0.3899899600000000    0.0178021000000000 Ba
   0.5048945400000000    0.1100100400000000    0.0178021000000000 Ba
   0.0048945400000000    0.3899899600000000    0.4821979000000000 Ba
   0.9951054600000000    0.8899899600000000    0.5178021000000000 Ba
   0.4951054600000000    0.6100100400000000    0.9821979000000000 Ba
   0.0000000000000000    0.0000000000000000    0.0000000000000000 Tl
   0.5000000000000000    0.5000000000000000    0.5000000000000000 Tl
   0.5000000000000000    0.0000000000000000    0.5000000000000000 Tl
   0.0000000000000000    0.5000000000000000    0.0000000000000000 Tl
   0.9757017800000000    0.7500000000000000    0.0557591300000000 Tl
   0.4757017800000000    0.7500000000000000    0.4442408700000000 Tl
   0.5242982200000000    0.2500000000000000    0.5557591300000000 Tl
   0.0242982200000000    0.2500000000000000    0.9442408700000000 Tl
   0.3872331300000000    0.2500000000000000    0.8816697100000001 O
   0.8872331300000000    0.2500000000000000    0.6183302899999999 O
   0.1127668700000000    0.7500000000000000    0.3816697100000000 O
   0.6127668700000000    0.7500000000000000    0.1183302900000000 O
   0.0424143900000000    0.6378788800000000    0.9307268700000000 O
   0.5424143900000000    0.8621211200000000    0.5692731300000000 O
   0.4575856100000000    0.3621211200000000    0.4307268700000000 O
   0.9575856100000000    0.1378788800000000    0.0692731300000000 O
   0.9575856100000000    0.3621211200000000    0.0692731300000000 O
   0.4575856100000000    0.1378788800000000    0.4307268700000000 O
   0.5424143900000000    0.6378788800000000    0.5692731300000000 O
   0.0424143900000000    0.8621211200000000    0.9307268700000000 O
   0.2420914900000000    0.4872586700000000    0.7650734200000000 O
   0.7420914900000000    0.0127413300000000    0.7349265800000000 O
   0.2579085100000000    0.5127413300000000    0.2650734200000000 O
   0.7579085100000000    0.9872586700000000    0.2349265800000000 O
   0.2420914900000000    0.0127413300000000    0.7650734200000000 O
   0.7420914900000000    0.4872586700000000    0.7349265800000000 O
   0.2579085100000000    0.9872586700000000    0.2650734200000000 O
   0.7579085100000000    0.5127413300000000    0.2349265800000000 O
