Sc4 S6 O24
1.0
   4.3779527600000003    2.5276119900000000    7.5312886099999998
  -4.3779527600000003    2.5276119900000000    7.5312886099999998
   0.0000000000000000   -5.0552249700000003    7.5312886099999998
Sc S O
4 6 24
direct
   0.1440239600000000    0.1440239600000000    0.1440239600000000 Sc
   0.8559760400000000    0.8559760400000000    0.8559760400000000 Sc
   0.3559760400000000    0.3559760400000000    0.3559760400000000 Sc
   0.6440239600000000    0.6440239600000000    0.6440239600000000 Sc
   0.0358702300000000    0.4641297700000000    0.7500000000000000 S
   0.4641297700000000    0.7500000000000000    0.0358702300000000 S
   0.7500000000000000    0.0358702300000000    0.4641297700000000 S
   0.9641297700000000    0.5358702300000000    0.2500000000000000 S
   0.2500000000000000    0.9641297700000000    0.5358702300000000 S
   0.5358702300000000    0.2500000000000000    0.9641297700000000 S
   0.2279726300000000    0.9918430200000000    0.3719954700000000 O
   0.3719954700000000    0.2279726300000000    0.9918430200000000 O
   0.9918430200000000    0.3719954700000000    0.2279726300000000 O
   0.7720273700000000    0.0081569800000000    0.6280045300000000 O
   0.6280045300000000    0.7720273700000000    0.0081569800000000 O
   0.0081569800000000    0.6280045300000000    0.7720273700000000 O
   0.2720273700000000    0.1280045300000000    0.5081569800000000 O
   0.5081569800000000    0.2720273700000000    0.1280045300000000 O
   0.1280045300000000    0.5081569800000000    0.2720273700000000 O
   0.7279726300000000    0.8719954700000000    0.4918430200000000 O
   0.0634201000000000    0.2975661100000000    0.9154190600000000 O
   0.2975661100000000    0.9154190600000000    0.0634201000000000 O
   0.9154190600000000    0.0634201000000000    0.2975661100000000 O
   0.9365799000000000    0.7024338900000000    0.0845809400000000 O
   0.7024338900000000    0.0845809400000000    0.9365799000000000 O
   0.0845809400000000    0.9365799000000000    0.7024338900000000 O
   0.2024338900000000    0.4365799000000000    0.5845809400000000 O
   0.4365799000000000    0.5845809400000000    0.2024338900000000 O
   0.5845809400000000    0.2024338900000000    0.4365799000000000 O
   0.7975661100000000    0.5634201000000000    0.4154190600000000 O
   0.5634201000000000    0.4154190600000000    0.7975661100000000 O
   0.4154190600000000    0.7975661100000000    0.5634201000000000 O
   0.8719954700000000    0.4918430200000000    0.7279726300000000 O
   0.4918430200000000    0.7279726300000000    0.8719954700000000 O
