Ca8 Ta4 O18
1.0
   5.6090085800000002    0.0000000000000000    0.0000000000000000
  -2.8045042900000001    4.8575438999999996    0.0000000000000000
   0.0000000000000000    0.0000000000000000   14.7473173499999994
Ca Ta O
8 4 18
direct
   0.3333330000000000    0.6666670000000000    0.0243713800000000 Ca
   0.3333330000000000    0.6666670000000000    0.3064779500000000 Ca
   0.3333330000000000    0.6666670000000000    0.8064779500000000 Ca
   0.3333330000000000    0.6666670000000000    0.5243713800000001 Ca
   0.6666670000000000    0.3333330000000000    0.1935220500000000 Ca
   0.6666670000000000    0.3333330000000000    0.6935220500000000 Ca
   0.6666670000000000    0.3333330000000000    0.4756286200000000 Ca
   0.6666670000000000    0.3333330000000000    0.9756286199999999 Ca
   0.0000000000000000    0.0000000000000000    0.1469681700000000 Ta
   0.0000000000000000    0.0000000000000000    0.3530318300000000 Ta
   0.0000000000000000    0.0000000000000000    0.6469681700000000 Ta
   0.0000000000000000    0.0000000000000000    0.8530318300000000 Ta
   0.0000000000000000    0.7361634000000000    0.7500000000000000 O
   0.0404282300000000    0.7138877900000000    0.4117521300000000 O
   0.2861122100000000    0.9595717700000000    0.9117521300000000 O
   0.0404282300000000    0.3265404400000000    0.9117521300000000 O
   1.0000000000000000    0.2638366000000000    0.2500000000000000 O
   0.2638366000000000    0.2638366000000000    0.7500000000000000 O
   0.2861122100000000    0.3265404400000000    0.4117521300000000 O
   0.6734595600000000    0.9595717700000000    0.4117521300000000 O
   0.3265404400000000    0.2861122100000000    0.0882478700000000 O
   0.2638366000000000    0.0000000000000000    0.2500000000000000 O
   0.6734595600000000    0.7138877900000000    0.9117521300000000 O
   0.3265404400000000    0.0404282300000000    0.5882478700000000 O
   0.7138877900000000    0.6734595600000000    0.5882478700000000 O
   0.7361634000000000    0.7361634000000000    0.2500000000000000 O
   0.9595717700000000    0.6734595600000000    0.0882478700000000 O
   0.7138877900000000    0.0404282300000000    0.0882478700000000 O
   0.7361634000000000    0.0000000000000000    0.7500000000000000 O
   0.9595717700000000    0.2861122100000000    0.5882478700000000 O
