Rb2 Na2 Li12 Si4 O16
1.0
   7.8283526800000001   -3.1498396099999999    0.0065807800000000
   7.8283526800000001    3.1498396099999999    0.0065807800000000
  -0.0712914100000000    0.0000000000000000    7.7820029100000001
Rb Na Li Si O
2 2 12 4 16
direct
   0.7547716000000000    0.7547716000000000    0.5290563600000000 Rb
   0.2452284000000000    0.2452284000000000    0.4709436400000000 Rb
   0.7473899000000001    0.2526101000000000    0.0000000000000000 Na
   0.2526101000000000    0.7473899000000001    0.0000000000000000 Na
   0.3580894000000000    0.3580894000000000    0.1354622800000000 Li
   0.8206692500000000    0.3268026200000000    0.6276200600000000 Li
   0.0710232100000000    0.5561690900000000    0.8563111300000000 Li
   0.5561690900000000    0.0710232100000000    0.8563111300000000 Li
   0.4438309100000000    0.9289767900000000    0.1436888700000000 Li
   0.9289767900000000    0.4438309100000000    0.1436888700000000 Li
   0.0677114900000000    0.0677114900000000    0.2838662700000000 Li
   0.6731973800000000    0.1793307500000000    0.3723799400000000 Li
   0.6419106000000000    0.6419106000000000    0.8645377200000000 Li
   0.3268026200000000    0.8206692500000000    0.6276200600000000 Li
   0.1793307500000000    0.6731973800000000    0.3723799400000000 Li
   0.9322885100000000    0.9322885100000000    0.7161337300000000 Li
   0.1461441000000000    0.1461441000000000    0.8588171600000000 Si
   0.8538559000000000    0.8538559000000000    0.1411828400000000 Si
   0.5709961300000000    0.5709961300000000    0.2920926700000000 Si
   0.4290038700000000    0.4290038700000000    0.7079073299999999 Si
   0.4141459500000000    0.9747960200000000    0.7967332000000000 O
   0.3825683300000000    0.8227040600000000    0.3889796800000000 O
   0.0252039800000000    0.5858540500000000    0.2032668000000000 O
   0.1326824000000000    0.1326824000000000    0.0685153600000000 O
   0.8227040600000000    0.3825683300000000    0.3889796800000000 O
   0.0509154700000000    0.0509154700000000    0.7647492400000000 O
   0.4670369100000000    0.4670369100000000    0.2603084000000000 O
   0.3846780000000000    0.3846780000000000    0.9003028400000000 O
   0.9747960200000000    0.4141459500000000    0.7967332000000000 O
   0.5329630900000000    0.5329630900000000    0.7396916000000000 O
   0.1772959400000000    0.6174316700000000    0.6110203200000000 O
   0.6174316700000000    0.1772959400000000    0.6110203200000000 O
   0.8673176000000000    0.8673176000000000    0.9314846400000000 O
   0.9490845300000000    0.9490845300000000    0.2352507600000000 O
   0.6153220000000000    0.6153220000000000    0.0996971600000000 O
   0.5858540500000000    0.0252039800000000    0.2032668000000000 O
