Ga3 As3 O12
1.0
   5.0045498500000001    0.0000000100000000    0.0000000000000000
  -2.5022754100000002    4.3340678600000002    0.0000000000000000
   0.0000000000000000    0.0000000000000000   11.4970313999999991
Ga As O
3 3 12
direct
   0.4504123400000000    0.0000000000000000    0.3333330000000000 Ga
   1.0000000000000000    0.4504123400000000    0.6666670000000000 Ga
   0.5495876600000000    0.5495876600000000    0.0000000000000000 Ga
   0.4487277300000000    0.0000000000000000    0.8333330000000000 As
   1.0000000000000000    0.4487277300000000    0.1666670000000000 As
   0.5512722700000000    0.5512722700000000    0.5000000000000000 As
   0.2994690700000000    0.3948815500000000    0.1289929800000000 O
   0.6051184500000000    0.9045875200000000    0.4623269800000000 O
   0.0954124800000000    0.7005309300000000    0.7956599800000000 O
   0.9045875200000000    0.6051184500000000    0.5376730199999999 O
   0.7005309300000000    0.0954124800000000    0.2043400200000000 O
   0.3948815500000000    0.2994690700000000    0.8710070200000000 O
   0.3945329100000000    0.3184292000000000    0.3812989100000000 O
   0.6815708000000000    0.0761037000000000    0.7146319100000000 O
   0.9238963000000000    0.6054670900000000    0.0479659100000000 O
   0.0761037000000000    0.6815708000000000    0.2853680900000000 O
   0.6054670900000000    0.9238963000000000    0.9520340900000001 O
   0.3184292000000000    0.3945329100000000    0.6187010900000000 O
