La2 Ta2 N4 O2
1.0
   0.0000000000000000    4.0001467499999999    4.1347018999999996
   3.9449256099999999    0.0000000000000000    4.1347018999999996
   3.9449256099999999    4.0001467499999999    0.0000000000000000
La Ta N O
2 2 4 2
direct
   0.2543668600000000    0.2543668600000000    0.7456331400000000 La
   0.7456331400000000    0.7456331400000000    0.2543668600000000 La
   0.0000000000000000    0.0000000000000000    0.5000000000000000 Ta
   0.5000000000000000    0.5000000000000000    0.0000000000000000 Ta
   0.2500000000000000    0.2500000000000000    0.2500000000000000 N
   0.6855288200000000    0.3144711800000000    0.3144711800000000 N
   0.7500000000000000    0.7500000000000000    0.7500000000000000 N
   0.3144711800000000    0.6855288200000000    0.6855288200000000 N
   0.1841248800000000    0.8158751200000000    0.1841248800000000 O
   0.8158751200000000    0.1841248800000000    0.8158751200000000 O
