La6 Sb2 O14
1.0
   5.5486418300000002   -3.7845786399999999    0.0000000000000000
   5.5486418300000002    3.7845786399999999    0.0000000000000000
   0.0000000000000000    0.0000000000000000    7.7301347800000002
La Sb O
6 2 14
direct
   0.0000000000000000    0.0000000000000000    0.5000000000000000 La
   0.0000000000000000    0.0000000000000000    0.0000000000000000 La
   0.9318424700000000    0.5235841900000000    0.2500000000000000 La
   0.5235841900000000    0.9318424700000000    0.7500000000000000 La
   0.0681575300000000    0.4764158100000000    0.7500000000000000 La
   0.4764158100000000    0.0681575300000000    0.2500000000000000 La
   0.5000000000000000    0.5000000000000000    0.5000000000000000 Sb
   0.5000000000000000    0.5000000000000000    0.0000000000000000 Sb
   0.8112945800000000    0.4397100200000000    0.5352955400000000 O
   0.4397100200000000    0.8112945800000000    0.4647044600000000 O
   0.8112945800000000    0.4397100200000000    0.9647044600000000 O
   0.4397100200000000    0.8112945800000000    0.0352955400000000 O
   0.1887054200000000    0.5602899800000000    0.4647044600000000 O
   0.5602899800000000    0.1887054200000000    0.5352955400000000 O
   0.1887054200000000    0.5602899800000000    0.0352955400000000 O
   0.5602899800000000    0.1887054200000000    0.9647044600000000 O
   0.1068941600000000    0.1534291600000000    0.2500000000000000 O
   0.1534291600000000    0.1068941600000000    0.7500000000000000 O
   0.8931058400000000    0.8465708400000000    0.7500000000000000 O
   0.8465708400000000    0.8931058400000000    0.2500000000000000 O
   0.5806352299999999    0.4193647700000000    0.2500000000000000 O
   0.4193647700000000    0.5806352299999999    0.7500000000000000 O
