Ba4 Na2 W2 O11
1.0
   8.5111384200000000    0.0000000000000000    0.0000000000000000
   0.0000000000000000    4.1318017400000002    4.1845154000000004
   0.0000000000000000   -4.1318017400000002    4.1845154000000004
Ba Na W O
4 2 2 11
direct
   0.7221066600000000    0.0160439000000000    0.5228063400000000 Ba
   0.2778933400000000    0.0160439000000000    0.5228063400000000 Ba
   0.7221066600000000    0.5228063400000000    0.0160439000000000 Ba
   0.2778933400000000    0.5228063400000000    0.0160439000000000 Ba
   0.5000000000000000    0.5142554200000000    0.5142554200000000 Na
   0.0000000000000000    0.9815091900000000    0.9815091900000000 Na
   0.0000000000000000    0.5039456100000000    0.5039456100000000 W
   0.5000000000000000    0.0197528100000000    0.0197528100000000 W
   0.5000000000000000    0.2467685800000000    0.2467685800000000 O
   0.5000000000000000    0.7864998200000000    0.7864998200000000 O
   0.5000000000000000    0.7813177900000000    0.2447132100000000 O
   0.5000000000000000    0.2447132100000000    0.7813177900000000 O
   0.7302805200000000    0.0215221300000000    0.0215221300000000 O
   0.2697194800000000    0.0215221300000000    0.0215221300000000 O
   0.2237893900000000    0.4913169500000000    0.4913169500000000 O
   0.7762106100000000    0.4913169500000000    0.4913169500000000 O
   0.0000000000000000    0.7204759900000000    0.7204759900000000 O
   0.0000000000000000    0.6081113400000000    0.2030106100000000 O
   0.0000000000000000    0.2030106100000000    0.6081113400000000 O
