Cr2 Hg10 O12
1.0
   5.6401145300000000   -5.8777131699999998   -0.0589585500000000
   5.6401145300000000    5.8777131699999998   -0.0589585500000000
  -0.9919929900000000    0.0000000000000000    6.5192567600000002
Cr Hg O
2 10 12
direct
   0.6835019800000000    0.3164980200000000    0.7500000000000000 Cr
   0.3164980200000000    0.6835019800000000    0.2500000000000000 Cr
   0.6512044200000000    0.7978318900000000    0.6972932300000000 Hg
   0.2021681100000000    0.3487955800000000    0.8027067700000000 Hg
   0.3487955800000000    0.2021681100000000    0.3027067700000000 Hg
   0.7978318900000000    0.6512044200000000    0.1972932300000000 Hg
   0.0677233600000000    0.6124136999999999    0.7065327900000000 Hg
   0.6124136999999999    0.0677233600000000    0.2065327900000000 Hg
   0.9322766400000000    0.3875863000000000    0.2934672100000000 Hg
   0.3875863000000000    0.9322766400000000    0.7934672100000000 Hg
   0.0000000000000000    0.0000000000000000    0.0000000000000000 Hg
   0.0000000000000000    0.0000000000000000    0.5000000000000000 Hg
   0.7254521200000000    0.5198049400000000    0.7960933800000000 O
   0.4801950600000000    0.2745478800000000    0.7039066200000000 O
   0.2745478800000000    0.4801950600000000    0.2039066200000000 O
   0.5198049400000000    0.7254521200000000    0.2960933800000000 O
   0.7622086100000000    0.2296515700000000    0.9541786700000000 O
   0.7703484300000000    0.2377913900000000    0.5458213300000000 O
   0.2377913900000000    0.7703484300000000    0.0458213300000000 O
   0.2296515700000000    0.7622086100000000    0.4541786700000000 O
   0.1932478200000000    0.0919620100000000    0.8621338300000000 O
   0.9080379900000000    0.8067521800000000    0.6378661700000000 O
   0.8067521800000000    0.9080379900000000    0.1378661700000000 O
   0.0919620100000000    0.1932478200000000    0.3621338300000000 O
