Sr4 Nb4 O14
1.0
   2.0049901900000000  -13.6331424899999991    0.0000000000000000
   2.0049901900000000   13.6331424899999991    0.0000000000000000
   0.0000000000000000    0.0000000000000000    5.7131730100000002
Sr Nb O
4 4 14
direct
   0.2872746700000000    0.7127253300000000    0.0101711800000000 Sr
   0.7127253300000000    0.2872746700000000    0.5101711799999999 Sr
   0.4460999200000000    0.5539000800000000    0.4643425100000000 Sr
   0.5539000800000000    0.4460999200000000    0.9643425100000000 Sr
   0.8397503400000000    0.1602496600000000    0.4867181900000000 Nb
   0.1602496600000000    0.8397503400000000    0.9867181900000001 Nb
   0.0550682800000000    0.9449317200000000    0.4727319700000000 Nb
   0.9449317200000000    0.0550682800000000    0.9727319700000000 Nb
   0.4536458500000000    0.5463541500000000    0.9662369400000000 O
   0.5463541500000000    0.4536458500000000    0.4662369400000000 O
   0.9066982500000000    0.0933017500000000    0.6809470200000000 O
   0.0933017500000000    0.9066982500000000    0.1809470200000000 O
   0.7972114500000000    0.2027885500000000    0.7464413300000000 O
   0.2027885500000000    0.7972114500000000    0.2464413300000000 O
   0.2122013900000000    0.7877986100000000    0.7640025800000000 O
   0.7877986100000000    0.2122013900000000    0.2640025800000000 O
   0.9931717000000000    0.0068283000000000    0.2497702100000000 O
   0.0068283000000000    0.9931717000000000    0.7497702100000000 O
   0.8933882000000000    0.1066118000000000    0.1983375000000000 O
   0.1066118000000000    0.8933882000000000    0.6983375000000001 O
   0.3501759400000000    0.6498240600000000    0.4704205900000000 O
   0.6498240600000000    0.3501759400000000    0.9704205900000000 O
