Ba8 Al4 In4 O20
1.0
   5.8795292100000003   -0.0000000000000000    0.0000000000000000
  -2.9397641100000000    5.0918218900000003    0.0000000000000000
   0.0000000000000000    0.0000000000000000   19.8739792999999985
Ba Al In O
8 4 4 20
direct
   0.3333330000000000    0.6666670000000000    0.3951547700000000 Ba
   0.6666670000000000    0.3333330000000000    0.6048452300000000 Ba
   0.6666670000000000    0.3333330000000000    0.8951547700000000 Ba
   0.0000000000000000    0.0000000000000000    0.5000000000000000 Ba
   0.0000000000000000    0.0000000000000000    0.0000000000000000 Ba
   0.3333330000000000    0.6666670000000000    0.7500000000000000 Ba
   0.3333330000000000    0.6666670000000000    0.1048452300000000 Ba
   0.6666670000000000    0.3333330000000000    0.2500000000000000 Ba
   0.0000000000000000    0.0000000000000000    0.3365777500000000 Al
   0.0000000000000000    0.0000000000000000    0.6634222500000000 Al
   0.0000000000000000    0.0000000000000000    0.1634222500000000 Al
   0.0000000000000000    0.0000000000000000    0.8365777500000000 Al
   0.6666670000000000    0.3333330000000000    0.0674197400000000 In
   0.3333330000000000    0.6666670000000000    0.5674197400000000 In
   0.6666670000000000    0.3333330000000000    0.4325802600000000 In
   0.3333330000000000    0.6666670000000000    0.9325802600000000 In
   0.8365777700000000    0.1634222300000000    0.1346654500000000 O
   0.5000000000000000    0.5000000000000000    0.0000000000000000 O
   0.0000000000000000    0.0000000000000000    0.7500000000000000 O
   0.6731555400000000    0.8365777700000000    0.8653345500000000 O
   0.1634222300000000    0.3268444600000000    0.6346654500000000 O
   0.3268444600000000    0.1634222300000000    0.1346654500000000 O
   0.8365777700000000    0.1634222300000000    0.3653345500000000 O
   0.1634222300000000    0.8365777700000000    0.6346654500000000 O
   0.0000000000000000    0.0000000000000000    0.2500000000000000 O
   0.1634222300000000    0.3268444600000000    0.8653345500000000 O
   0.3268444600000000    0.1634222300000000    0.3653345500000000 O
   0.0000000000000000    0.5000000000000000    0.5000000000000000 O
   0.1634222300000000    0.8365777700000000    0.8653345500000000 O
   0.0000000000000000    0.5000000000000000    0.0000000000000000 O
   0.6731555400000000    0.8365777700000000    0.6346654500000000 O
   0.8365777700000000    0.6731555400000000    0.1346654500000000 O
   0.5000000000000000    0.0000000000000000    0.5000000000000000 O
   0.5000000000000000    0.5000000000000000    0.5000000000000000 O
   0.5000000000000000    0.0000000000000000    0.0000000000000000 O
   0.8365777700000000    0.6731555400000000    0.3653345500000000 O
