Ba6 Na2 Nb2 O12
1.0
   5.1468027100000002    2.9715080700000001    3.9802269300000002
  -5.1468027100000002    2.9715080700000001    3.9802269300000002
   0.0000000000000000   -5.9430151499999999    3.9802269400000001
Ba Na Nb O
6 2 2 12
direct
   0.8976808700000000    0.6023191300000000    0.2500000000000000 Ba
   0.2500000000000000    0.8976808700000000    0.6023191300000000 Ba
   0.6023191300000000    0.2500000000000000    0.8976808700000000 Ba
   0.1023191300000000    0.3976808700000000    0.7500000000000000 Ba
   0.7500000000000000    0.1023191300000000    0.3976808700000000 Ba
   0.3976808700000000    0.7500000000000000    0.1023191300000000 Ba
   0.7500000000000000    0.7500000000000000    0.7500000000000000 Na
   0.2500000000000000    0.2500000000000000    0.2500000000000000 Na
   0.5000000000000000    0.5000000000000000    0.5000000000000000 Nb
   0.0000000000000000    0.0000000000000000    0.0000000000000000 Nb
   0.7298022700000000    0.9211196100000000    0.0502977500000000 O
   0.0502977500000000    0.7298022700000000    0.9211196100000000 O
   0.9211196100000000    0.0502977500000000    0.7298022700000000 O
   0.5788803900000000    0.7701977300000000    0.4497022500000000 O
   0.4497022500000000    0.5788803900000000    0.7701977300000000 O
   0.7701977300000000    0.4497022500000000    0.5788803900000000 O
   0.2701977300000000    0.0788803900000000    0.9497022500000000 O
   0.9497022500000000    0.2701977300000000    0.0788803900000000 O
   0.0788803900000000    0.9497022500000000    0.2701977300000000 O
   0.4211196100000000    0.2298022700000000    0.5502977500000000 O
   0.2298022700000000    0.5502977500000000    0.4211196100000000 O
   0.5502977500000000    0.4211196100000000    0.2298022700000000 O
