Sr4 Cd2 W2 O12
1.0
   5.7119320099999999    0.0000000000000000   -0.0013866800000000
   0.0000000000000000    5.8648420899999998    0.0000000000000000
  -5.7187306800000002    0.0000000000000000    8.1153298899999999
Sr Cd W O
4 2 2 12
direct
   0.2412207400000000    0.9528957200000000    0.7519329000000000 Sr
   0.7587792600000000    0.4528957200000000    0.7480671000000000 Sr
   0.7587792600000000    0.0471042800000000    0.2480671000000000 Sr
   0.2412207400000000    0.5471042800000000    0.2519329000000000 Sr
   0.5000000000000000    0.0000000000000000    0.5000000000000000 Cd
   0.5000000000000000    0.5000000000000000    0.0000000000000000 Cd
   0.0000000000000000    0.5000000000000000    0.5000000000000000 W
   0.0000000000000000    0.0000000000000000    0.0000000000000000 W
   0.8688912200000000    0.2306669200000000    0.5503803900000001 O
   0.1311087800000000    0.7306669200000000    0.9496196099999999 O
   0.1311087800000000    0.7693330800000000    0.4496196100000000 O
   0.8688912200000000    0.2693330800000000    0.0503803900000000 O
   0.7679106100000000    0.6858504200000000    0.5403745800000000 O
   0.2320893900000000    0.1858504200000000    0.9596254200000000 O
   0.2320893900000000    0.3141495800000000    0.4596254200000000 O
   0.7679106100000000    0.8141495800000000    0.0403745800000000 O
   0.6851513500000000    0.0302460100000000    0.7714490899999999 O
   0.3148486500000000    0.5302460100000000    0.7285509100000001 O
   0.3148486500000000    0.9697539900000000    0.2285509100000000 O
   0.6851513500000000    0.4697539900000000    0.2714490900000000 O
