Sr4 Te4 O16
1.0
   5.5868763100000001    0.0000000000000000    0.0000000000000000
   0.0000000000000000   13.1349501499999999    0.0000000000000000
   0.0000000000000000    0.0000000000000000    5.0419900499999999
Sr Te O
4 4 16
direct
   0.0000000000000000    0.6667726500000000    0.7500000000000000 Sr
   0.5000000000000000    0.8332273500000000    0.2500000000000000 Sr
   0.0000000000000000    0.3332273500000000    0.2500000000000000 Sr
   0.5000000000000000    0.1667726500000000    0.7500000000000000 Sr
   0.5000000000000000    0.4298089400000000    0.7500000000000000 Te
   0.0000000000000000    0.0701910600000000    0.2500000000000000 Te
   0.5000000000000000    0.5701910600000000    0.2500000000000000 Te
   0.0000000000000000    0.9298089400000000    0.7500000000000000 Te
   0.2839040800000000    0.6682101600000000    0.1309117100000000 O
   0.2160959200000000    0.8317898400000000    0.6309117100000000 O
   0.7839040800000000    0.8317898400000000    0.8690882900000000 O
   0.7160959200000000    0.6682101600000000    0.3690882900000000 O
   0.7160959200000000    0.3317898400000000    0.8690882900000000 O
   0.7839040800000000    0.1682101600000000    0.3690882900000000 O
   0.2160959200000000    0.1682101600000000    0.1309117100000000 O
   0.2839040800000000    0.3317898400000000    0.6309117100000000 O
   0.3097712800000000    0.5424099400000000    0.5729268800000000 O
   0.1902287200000000    0.9575900600000000    0.0729268800000000 O
   0.8097712800000000    0.9575900600000000    0.4270731200000000 O
   0.6902287200000000    0.5424099400000000    0.9270731200000000 O
   0.6902287200000000    0.4575900600000000    0.4270731200000000 O
   0.8097712800000000    0.0424099400000000    0.9270731200000000 O
   0.1902287200000000    0.0424099400000000    0.5729268800000000 O
   0.3097712800000000    0.4575900600000000    0.0729268800000000 O
