Na2 La2 S4 O16
1.0
   6.4048808199999998    0.0316139000000000    0.0345640900000000
   1.4104958900000000    6.5653899700000000   -0.0495040800000000
   0.1782709400000000    0.3460446100000000    7.0373945200000003
Na La S O
2 2 4 16
direct
   0.4183736400000000    0.7893385000000001    0.3493038000000000 Na
   0.5816263600000000    0.2106615000000000    0.6506961999999999 Na
   0.1209384700000000    0.7284394400000000    0.8232699999999999 La
   0.8790615300000000    0.2715605600000000    0.1767300000000000 La
   0.8957280200000000    0.8002757200000000    0.3241303400000000 S
   0.6212726200000001    0.7022534300000000    0.8385430300000000 S
   0.1042719800000000    0.1997242800000000    0.6758696600000000 S
   0.3787273800000000    0.2977465700000000    0.1614569700000000 S
   0.0623133500000000    0.7476324600000001    0.4696310900000000 O
   0.2047652200000000    0.3738524200000000    0.7029942900000000 O
   0.8057319700000000    0.5414439000000000    0.9099946400000000 O
   0.7278331600000000    0.9809193700000000    0.3717561900000000 O
   0.9376866500000000    0.2523675400000000    0.5303689100000000 O
   0.5114918300000000    0.6214115400000000    0.6857269900000000 O
   0.2721668400000000    0.0190806300000000    0.6282438100000000 O
   0.1942680300000000    0.4585561000000000    0.0900053600000000 O
   0.4582304600000000    0.7637125900000000    0.9909287100000000 O
   0.9996845400000000    0.8643032500000000    0.1434049900000000 O
   0.7952347800000000    0.6261475800000000    0.2970057100000000 O
   0.2783576700000000    0.1283744500000000    0.2307528500000000 O
   0.0003154600000000    0.1356967500000000    0.8565950100000000 O
   0.4885081700000000    0.3785884600000000    0.3142730100000000 O
   0.5417695400000000    0.2362874100000000    0.0090712900000000 O
   0.7216423300000000    0.8716255500000000    0.7692471500000000 O
