Rb12 Sb4 Se16
1.0
   9.7534865600000007    0.0000000000000000    0.0000000000000000
   0.0000000000000000   11.3842152599999995    0.0000000000000000
   0.0000000000000000    0.0000000000000000   10.3188122599999996
Rb Sb Se
12 4 16
direct
   0.9298842899999999    0.0447545300000000    0.3059901900000000 Rb
   0.4298842900000000    0.0447545300000000    0.1940098100000000 Rb
   0.5701157100000001    0.5447545300000000    0.8059901900000001 Rb
   0.0701157100000000    0.9552454700000000    0.6940098099999999 Rb
   0.1440696900000000    0.2500000000000000    0.9192278400000000 Rb
   0.6440696900000000    0.2500000000000000    0.5807721600000000 Rb
   0.3559303100000000    0.7500000000000000    0.4192278400000000 Rb
   0.8559303100000000    0.7500000000000000    0.0807721600000000 Rb
   0.0701157100000000    0.5447545300000000    0.6940098099999999 Rb
   0.4298842900000000    0.4552454700000000    0.1940098100000000 Rb
   0.5701157100000001    0.9552454700000000    0.8059901900000001 Rb
   0.9298842899999999    0.4552454700000000    0.3059901900000000 Rb
   0.7710624900000000    0.7500000000000000    0.5219599400000000 Sb
   0.2710624900000000    0.7500000000000000    0.9780400600000000 Sb
   0.7289375100000000    0.2500000000000000    0.0219599400000000 Sb
   0.2289375100000000    0.2500000000000000    0.4780400600000000 Sb
   0.6364993300000000    0.9326475500000000    0.4725159500000000 Se
   0.1364993300000000    0.5673524500000000    0.0274840500000000 Se
   0.8635006700000000    0.0673524500000000    0.9725159500000000 Se
   0.3635006700000000    0.4326475500000000    0.5274840500000000 Se
   0.3635006700000000    0.0673524500000000    0.5274840500000000 Se
   0.8635006700000000    0.4326475500000000    0.9725159500000000 Se
   0.1364993300000000    0.9326475500000000    0.0274840500000000 Se
   0.6364993300000000    0.5673524500000000    0.4725159500000000 Se
   0.0055641300000000    0.2500000000000000    0.5997293600000000 Se
   0.5055641300000000    0.2500000000000000    0.9002706400000000 Se
   0.4944358700000000    0.7500000000000000    0.0997293600000000 Se
   0.9944358700000000    0.7500000000000000    0.4002706400000000 Se
   0.1742908500000000    0.2500000000000000    0.2418556300000000 Se
   0.8257091500000000    0.7500000000000000    0.7581443700000000 Se
   0.3257091500000000    0.7500000000000000    0.7418556300000000 Se
   0.6742908500000000    0.2500000000000000    0.2581443700000000 Se
