Ca4 Nb2 In2 O12
1.0
   5.5257426900000004    0.0000000000000000   -0.0091776800000000
   0.0000000000000000    5.7638946999999998    0.0000000000000000
  -5.5549365499999999    0.0000000000000000    7.9660997499999997
Ca Nb In O
4 2 2 12
direct
   0.2619006100000000    0.4422844800000000    0.2462061100000000 Ca
   0.7380993900000000    0.5577155200000000    0.7537938900000000 Ca
   0.2619006100000000    0.0577155200000000    0.7462061100000000 Ca
   0.7380993900000000    0.9422844800000000    0.2537938900000000 Ca
   0.5000000000000000    0.0000000000000000    0.5000000000000000 Nb
   0.5000000000000000    0.5000000000000000    0.0000000000000000 Nb
   0.0000000000000000    0.5000000000000000    0.5000000000000000 In
   0.0000000000000000    0.0000000000000000    0.0000000000000000 In
   0.8537120800000000    0.9527060600000000    0.7392100100000000 O
   0.3828940900000000    0.2902037600000000    0.5652813500000000 O
   0.7415746900000000    0.3133550100000000    0.9453192500000001 O
   0.3828940900000000    0.2097962400000000    0.0652813500000000 O
   0.1462879200000000    0.0472939400000000    0.2607899900000000 O
   0.8537120800000000    0.5472939400000000    0.2392100100000000 O
   0.7415746900000000    0.1866449900000000    0.4453192500000000 O
   0.2584253100000000    0.8133550100000000    0.5546807499999999 O
   0.6171059100000000    0.7902037600000000    0.9347186500000000 O
   0.6171059100000000    0.7097962400000000    0.4347186500000000 O
   0.2584253100000000    0.6866449900000000    0.0546807500000000 O
   0.1462879200000000    0.4527060600000000    0.7607899900000000 O
