Na4 Sb4 P8 S24
1.0
  11.1285364799999993    0.0000000000000000    0.0317937100000000
   0.0000000000000000    7.1776739999999997    0.0000000000000000
  -3.7417984700000000    0.0000000000000000   10.8706015399999991
Na Sb P S
4 4 8 24
direct
   0.4064901700000000    0.1096629200000000    0.6206734600000000 Na
   0.5935098300000000    0.8903370800000000    0.3793265400000000 Na
   0.5935098300000000    0.6096629200000000    0.8793265400000000 Na
   0.4064901700000000    0.3903370800000000    0.1206734600000000 Na
   0.8704256700000000    0.1464597200000000    0.1742763700000000 Sb
   0.1295743300000000    0.8535402800000000    0.8257236300000000 Sb
   0.8704256700000000    0.3535402800000000    0.6742763700000000 Sb
   0.1295743300000000    0.6464597200000000    0.3257236300000000 Sb
   0.2428273400000000    0.8989127900000000    0.1648115700000000 P
   0.7571726600000001    0.1010872100000000    0.8351884300000000 P
   0.7524396800000001    0.8758572999999999    0.7001679500000000 P
   0.7571726600000001    0.3989127900000000    0.3351884300000000 P
   0.2475603200000000    0.3758573000000000    0.7998320500000000 P
   0.7524396800000001    0.6241427000000001    0.2001679500000000 P
   0.2475603200000000    0.1241427000000000    0.2998320500000000 P
   0.2428273400000000    0.6010872100000000    0.6648115700000000 P
   0.1771929400000000    0.5073107100000001    0.9230041200000000 S
   0.3436567900000000    0.8099117900000000    0.7774210300000000 S
   0.6563432100000000    0.3099117900000000    0.7225789700000000 S
   0.1233924300000000    0.3126298500000000    0.1921504800000000 S
   0.3436567900000000    0.6900882100000000    0.2774210300000000 S
   0.4256558500000000    0.2173253400000000    0.3685222500000000 S
   0.8228070600000000    0.0073107100000000    0.5769958800000000 S
   0.6847295300000000    0.5013004599999999    0.4600735600000000 S
   0.8766075700000000    0.6873701500000000    0.8078495200000000 S
   0.3152704700000000    0.4986995400000000    0.5399264400000000 S
   0.3152704700000000    0.0013004600000000    0.0399264400000000 S
   0.0589337600000000    0.8074585700000000    0.1051585000000000 S
   0.6847295300000000    0.9986995400000001    0.9600735600000000 S
   0.5743441500000001    0.7173253400000000    0.1314777500000000 S
   0.1771929400000000    0.9926892899999999    0.4230041200000000 S
   0.8228070600000000    0.4926892900000000    0.0769958800000000 S
   0.5743441500000001    0.7826746600000000    0.6314777499999999 S
   0.0589337600000000    0.6925414300000000    0.6051585000000000 S
   0.1233924300000000    0.1873701500000000    0.6921504800000000 S
   0.8766075700000000    0.8126298500000000    0.3078495200000000 S
   0.9410662400000001    0.3074585700000000    0.3948415000000000 S
   0.6563432100000000    0.1900882100000000    0.2225789700000000 S
   0.4256558500000000    0.2826746600000000    0.8685222500000001 S
   0.9410662400000001    0.1925414300000000    0.8948415000000000 S
