Ba2 Ta8 O22
1.0
   6.3241764500000004   -0.0000000000000000    0.0000000000000000
  -3.1620877300000001    5.4768975500000003    0.0000000000000000
   0.0000000000000000    0.0000000000000000   12.5358361100000000
Ba Ta O
2 8 22
direct
   0.6666670000000000    0.3333330000000000    0.2500000000000000 Ba
   0.3333330000000000    0.6666670000000000    0.7500000000000000 Ba
   0.6418043300000000    0.6418043300000000    0.0000000000000000 Ta
   0.3581956700000000    0.3581956700000000    0.5000000000000000 Ta
   0.6666670000000000    0.3333330000000000    0.7500000000000000 Ta
   0.3581956700000000    0.0000000000000000    0.0000000000000000 Ta
   0.6418043300000000    1.0000000000000000    0.5000000000000000 Ta
   1.0000000000000000    0.6418043300000000    0.5000000000000000 Ta
   0.3333330000000000    0.6666670000000000    0.2500000000000000 Ta
   0.0000000000000000    0.3581956700000000    0.0000000000000000 Ta
   0.7492317500000000    0.7492317500000000    0.5000000000000000 O
   0.6415828900000000    0.5704296500000000    0.8467791000000000 O
   0.4295703500000000    0.3584171100000000    0.6532209000000000 O
   0.2507682500000000    0.2507682500000000    0.0000000000000000 O
   0.9288467600000000    0.5704296500000000    0.6532209000000000 O
   0.6666670000000000    0.3333330000000000    0.0340947400000000 O
   0.6666670000000000    0.3333330000000000    0.4659052600000000 O
   0.9288467600000000    0.3584171100000000    0.8467791000000000 O
   0.2507682500000000    0.0000000000000000    0.5000000000000000 O
   0.4295703500000000    0.0711532400000000    0.8467791000000000 O
   0.3584171100000000    0.9288467600000000    0.1532209000000000 O
   1.0000000000000000    0.7492317500000000    0.0000000000000000 O
   0.6415828900000000    0.0711532400000000    0.6532209000000000 O
   0.5704296500000000    0.9288467600000000    0.3467791000000000 O
   0.7492317500000000    1.0000000000000000    0.0000000000000000 O
   0.0711532400000000    0.6415828900000000    0.3467791000000000 O
   0.3333330000000000    0.6666670000000000    0.5340947400000000 O
   0.3333330000000000    0.6666670000000000    0.9659052600000000 O
   0.0711532400000000    0.4295703500000000    0.1532209000000000 O
   0.5704296500000000    0.6415828900000000    0.1532209000000000 O
   0.0000000000000000    0.2507682500000000    0.5000000000000000 O
   0.3584171100000000    0.4295703500000000    0.3467791000000000 O
