Ba10 Nb4 O20
1.0
   3.0238906700000001   -5.3310820500000000    0.0000000000000000
   3.0238906700000001    5.3310820500000000    0.0000000000000000
   0.0000000000000000    0.0000000000000000   18.2481100299999994
Ba Nb O
10 4 20
direct
   0.8223924900000000    0.1776075100000000    0.7526864100000000 Ba
   0.8166466600000000    0.1833533400000000    0.9789149200000000 Ba
   0.4991493800000000    0.5008506200000000    0.8670027500000000 Ba
   0.4925340200000000    0.5074659800000000    0.6350973700000000 Ba
   0.5008506200000000    0.4991493800000000    0.3670027500000000 Ba
   0.5074659800000000    0.4925340200000000    0.1350973700000000 Ba
   0.8431035800000000    0.1568964200000000    0.5235834600000000 Ba
   0.1833533400000000    0.8166466600000000    0.4789149200000000 Ba
   0.1776075100000000    0.8223924900000000    0.2526864100000000 Ba
   0.1568964200000000    0.8431035800000000    0.0235834600000000 Ba
   0.8303817900000000    0.1696182100000000    0.3302132700000000 Nb
   0.8465645200000000    0.1534354800000000    0.1693810300000000 Nb
   0.1696182100000000    0.8303817900000000    0.8302132700000000 Nb
   0.1534354800000000    0.8465645200000000    0.6693810300000000 Nb
   0.5770743100000000    0.4229256900000000    0.0000429100000000 O
   0.9613541900000000    0.5019944900000000    0.3753016000000000 O
   0.0351881500000000    0.4496884000000000    0.1083512100000000 O
   0.6932404000000000    0.3067596000000000    0.2375517000000000 O
   0.1325416800000000    0.3182677100000000    0.2554372100000000 O
   0.4980055100000000    0.0386458100000000    0.3753016000000000 O
   0.5503116000000000    0.9648118500000000    0.1083512100000000 O
   0.6817322900000000    0.8674583200000000    0.2554372100000000 O
   0.9715548400000000    0.0284451600000000    0.3950781100000000 O
   0.0213050900000000    0.9786949100000000    0.1345520100000000 O
   0.9786949100000000    0.0213050900000000    0.6345520100000001 O
   0.0284451600000000    0.9715548400000000    0.8950781100000000 O
   0.3182677100000000    0.1325416800000000    0.7554372100000000 O
   0.5019944900000000    0.9613541900000000    0.8753016000000000 O
   0.8674583200000000    0.6817322900000000    0.7554372100000000 O
   0.4496884000000000    0.0351881500000000    0.6083512100000000 O
   0.3067596000000000    0.6932404000000000    0.7375517000000000 O
   0.0386458100000000    0.4980055100000000    0.8753016000000000 O
   0.9648118500000000    0.5503116000000000    0.6083512100000000 O
   0.4229256900000000    0.5770743100000000    0.5000429100000000 O
