Zn3 Te1 As2 Pb3 O14
1.0
   8.4750480800000005    0.0000000000000000    0.0000000000000000
  -4.2375245300000000    7.3396068600000000    0.0000000000000000
   0.0000000000000000    0.0000000000000000    5.1840035899999997
Zn Te As Pb O
3 1 2 3 14
direct
   0.2413246500000000    0.0000000000000000    0.5000000000000000 Zn
   0.7586753500000000    0.7586753500000000    0.5000000000000000 Zn
   0.0000000000000000    0.2413246500000000    0.5000000000000000 Zn
   0.0000000000000000    0.0000000000000000    0.0000000000000000 Te
   0.3333330000000000    0.6666670000000000    0.5436250300000000 As
   0.6666670000000000    0.3333330000000000    0.4563749700000000 As
   0.5964399900000000    0.0000000000000000    0.0000000000000000 Pb
   0.4035600100000000    0.4035600100000000    0.0000000000000000 Pb
   0.0000000000000000    0.5964399900000000    0.0000000000000000 Pb
   0.5405771500000000    0.7222523900000000    0.6783765800000000 O
   0.4594228500000000    0.1816752300000000    0.3216234200000000 O
   0.1253377000000000    0.2144480000000000    0.2169925800000000 O
   0.2777476100000000    0.8183247700000000    0.6783765800000000 O
   0.0891103100000000    0.8746623000000000    0.2169925800000000 O
   0.9108896900000000    0.7855520000000000    0.7830074200000000 O
   0.6666670000000000    0.3333330000000000    0.7839850000000000 O
   0.8746623000000000    0.0891103100000000    0.7830074200000000 O
   0.1816752300000000    0.4594228500000000    0.6783765800000000 O
   0.7855520000000000    0.9108896900000000    0.2169925800000000 O
   0.3333330000000000    0.6666670000000000    0.2160150000000000 O
   0.2144480000000000    0.1253377000000000    0.7830074200000000 O
   0.8183247700000000    0.2777476100000000    0.3216234200000000 O
   0.7222523900000000    0.5405771500000000    0.3216234200000000 O
