Tl12 Si4 O14
1.0
   9.6066007899999999    0.0000011600000000    0.0000000000000000
  -4.8033009399999997    8.3195591300000000    0.0000000000000000
   0.0000000000000000    0.0000000000000000    7.9469322399999998
Tl Si O
12 4 14
direct
   0.0358625800000000    0.3497261600000000    0.3678369000000000 Tl
   0.3138625800000000    0.9641374200000000    0.3678369000000000 Tl
   0.6502738400000000    0.6861374200000000    0.3678369000000000 Tl
   0.9641374200000000    0.6502738400000000    0.6321631000000000 Tl
   0.6861374200000000    0.0358625800000000    0.6321631000000000 Tl
   0.3497261600000000    0.3138625800000000    0.6321631000000000 Tl
   0.0507316200000000    0.3548013100000000    0.8800023200000000 Tl
   0.3040697000000000    0.9492683800000000    0.8800023200000000 Tl
   0.6451986900000000    0.6959303000000000    0.8800023200000000 Tl
   0.9492683800000000    0.6451986900000000    0.1199976800000000 Tl
   0.6959303000000000    0.0507316200000000    0.1199976800000000 Tl
   0.3548013100000000    0.3040697000000000    0.1199976800000000 Tl
   0.3333330000000000    0.6666670000000000    0.1661305700000000 Si
   0.6666670000000000    0.3333330000000000    0.4154982000000000 Si
   0.3333330000000000    0.6666670000000000    0.5845018000000000 Si
   0.6666670000000000    0.3333330000000000    0.8338694300000000 Si
   0.8543821900000000    0.4493744200000000    0.8892302500000000 O
   0.5506255799999999    0.4050077800000000    0.8892302500000000 O
   0.5949922200000000    0.1456178100000000    0.8892302500000000 O
   0.4050077800000000    0.8543821900000000    0.1107697500000000 O
   0.6666670000000000    0.3333330000000000    0.6245449600000000 O
   0.3333330000000000    0.6666670000000000    0.3754550400000000 O
   0.6007070500000000    0.1465264300000000    0.3596096200000000 O
   0.5458203800000000    0.3992929500000000    0.3596096200000000 O
   0.8534735700000000    0.4541796200000000    0.3596096200000000 O
   0.3992929500000000    0.8534735700000000    0.6403903800000000 O
   0.4541796200000000    0.6007070500000000    0.6403903800000000 O
   0.1465264300000000    0.5458203800000000    0.6403903800000000 O
   0.1456178100000000    0.5506255799999999    0.1107697500000000 O
   0.4493744200000000    0.5949922200000000    0.1107697500000000 O
