Ba2 Ga4 Se8
1.0
   3.1261241100000001   -5.6168237400000001    0.0000000000000000
   3.1261241100000001    5.6168237400000001    0.0000000000000000
   0.0000000000000000    0.0000000000000000   11.2830008300000006
Ba Ga Se
2 4 8
direct
   0.5000000000000000    0.5000000000000000    0.7500000000000000 Ba
   0.5000000000000000    0.5000000000000000    0.2500000000000000 Ba
   0.2428909300000000    0.7588713499999999    0.0000000000000000 Ga
   0.7571090700000001    0.2411286500000000    0.0000000000000000 Ga
   0.2411286500000000    0.7571090700000001    0.5000000000000000 Ga
   0.7588713499999999    0.2428909300000000    0.5000000000000000 Ga
   0.5000000000000000    0.0000000000000000    0.8352817600000000 Se
   0.0000000000000000    0.5000000000000000    0.6647182400000000 Se
   0.6528557400000000    0.8236583600000000    0.5000000000000000 Se
   0.3471442600000000    0.1763416400000000    0.5000000000000000 Se
   0.8236583600000000    0.6528557400000000    0.0000000000000000 Se
   0.1763416400000000    0.3471442600000000    0.0000000000000000 Se
   0.5000000000000000    0.0000000000000000    0.1647182400000000 Se
   0.0000000000000000    0.5000000000000000    0.3352817600000000 Se
