Sc2 Nb2 O8
1.0
   4.8116178999999999    0.0000000000000000    0.0068444300000000
   0.0000000000000000    5.7016780300000001    0.0000000000000000
  -0.0949653100000000    0.0000000000000000    5.1341538199999999
Sc Nb O
2 2 8
direct
   0.5000000000000000    0.6733750600000000    0.2500000000000000 Sc
   0.5000000000000000    0.3266249400000000    0.7500000000000000 Sc
   0.0000000000000000    0.8211485400000000    0.7500000000000000 Nb
   0.0000000000000000    0.1788514600000000    0.2500000000000000 Nb
   0.2206610200000000    0.8918546700000000    0.4306717600000000 O
   0.7793389800000000    0.8918546700000000    0.0693282400000000 O
   0.2206610200000000    0.1081453300000000    0.9306717600000000 O
   0.7323325100000000    0.3875334500000000    0.0899720600000000 O
   0.2676674900000000    0.6124665500000001    0.9100279400000000 O
   0.7793389800000000    0.1081453300000000    0.5693282400000000 O
   0.7323325100000000    0.6124665500000001    0.5899720600000000 O
   0.2676674900000000    0.3875334500000000    0.4100279400000000 O
