Sc1 Sb3 Pb4 O13
1.0
   3.7376139500000001    2.1579123400000002    6.0754218299999998
  -3.7376139500000001    2.1579123400000002    6.0754218299999998
   0.0000000000000000   -4.3158246800000004    6.0754218299999998
Sc Sb Pb O
1 3 4 13
direct
   0.4998103400000000    0.4998103400000000    0.4998103400000000 Sc
   0.0012383800000000    0.4998436000000000    0.4998436000000000 Sb
   0.4998436000000000    0.4998436000000000    0.0012383800000000 Sb
   0.4998436000000000    0.0012383800000000    0.4998436000000000 Sb
   0.9969217000000000    0.9969217000000000    0.9969217000000000 Pb
   0.5026624500000000    0.9993044700000000    0.9993044700000000 Pb
   0.9993044700000000    0.9993044700000000    0.5026624500000000 Pb
   0.9993044700000000    0.5026624500000000    0.9993044700000000 Pb
   0.8375075100000000    0.4228560900000000    0.4228560900000000 O
   0.4219748700000000    0.8224158300000000    0.8224158300000000 O
   0.4228560900000000    0.4228560900000000    0.8375075100000000 O
   0.8224158300000000    0.8224158300000000    0.4219748700000000 O
   0.8224158300000000    0.4219748700000000    0.8224158300000000 O
   0.4228560900000000    0.8375075100000000    0.4228560900000000 O
   0.1675643200000000    0.5742210300000000    0.5742210300000000 O
   0.5774913000000000    0.1800405700000000    0.1800405700000000 O
   0.5742210300000000    0.5742210300000000    0.1675643200000000 O
   0.1800405700000000    0.1800405700000000    0.5774913000000000 O
   0.1800405700000000    0.5774913000000000    0.1800405700000000 O
   0.5742210300000000    0.1675643200000000    0.5742210300000000 O
   0.1224669400000000    0.1224669400000000    0.1224669400000000 O
