Ba2 Ca1 Te1 O6
1.0
   0.0000000000000000    4.1948136600000003    4.1948136600000003
   4.1948136600000003    0.0000000000000000    4.1948136600000003
   4.1948136600000003    4.1948136600000003    0.0000000000000000
Ba Ca Te O
2 1 1 6
direct
   0.7500000000000000    0.7500000000000000    0.7500000000000000 Ba
   0.2500000000000000    0.2500000000000000    0.2500000000000000 Ba
   0.0000000000000000    0.0000000000000000    0.0000000000000000 Ca
   0.5000000000000000    0.5000000000000000    0.5000000000000000 Te
   0.7311755000000000    0.2688245000000000    0.7311755000000000 O
   0.7311755000000000    0.2688245000000000    0.2688245000000000 O
   0.7311755000000000    0.7311755000000000    0.2688245000000000 O
   0.2688245000000000    0.2688245000000000    0.7311755000000000 O
   0.2688245000000000    0.7311755000000000    0.7311755000000000 O
   0.2688245000000000    0.7311755000000000    0.2688245000000000 O
