Pb4 N8 O24
1.0
   7.7783060199999996   -0.0000000000000000    0.0000000000000000
   0.0000000000000000    7.7783060199999996    0.0000000000000000
   0.0000000000000000    0.0000000000000000    7.7783060199999996
Pb N O
4 8 24
direct
   0.0000000000000000    0.5000000000000000    0.5000000000000000 Pb
   0.5000000000000000    0.5000000000000000    0.0000000000000000 Pb
   0.5000000000000000    0.0000000000000000    0.5000000000000000 Pb
   0.0000000000000000    0.0000000000000000    0.0000000000000000 Pb
   0.3415512800000000    0.3415512800000000    0.3415512800000000 N
   0.3415512800000000    0.1584487200000000    0.8415512800000000 N
   0.1584487200000000    0.8415512800000000    0.3415512800000000 N
   0.8415512800000000    0.3415512800000000    0.1584487200000000 N
   0.6584487200000000    0.6584487200000000    0.6584487200000000 N
   0.1584487200000000    0.6584487200000000    0.8415512800000000 N
   0.8415512800000000    0.1584487200000000    0.6584487200000000 N
   0.6584487200000000    0.8415512800000000    0.1584487200000000 N
   0.7701322400000000    0.2804344600000000    0.0261463500000000 O
   0.2195655400000000    0.9738536500000000    0.2701322400000000 O
   0.2298677600000000    0.7804344600000001    0.4738536500000000 O
   0.2701322400000000    0.2195655400000000    0.9738536500000000 O
   0.2701322400000000    0.2804344600000000    0.4738536500000000 O
   0.4738536500000000    0.2701322400000000    0.2804344600000000 O
   0.2804344600000000    0.4738536500000000    0.2701322400000000 O
   0.2195655400000000    0.5261463500000000    0.7701322400000000 O
   0.9738536500000000    0.2298677600000000    0.7195655399999999 O
   0.7195655399999999    0.9738536500000000    0.2298677600000000 O
   0.0261463500000000    0.7298677600000000    0.7804344600000001 O
   0.5261463500000000    0.7701322400000000    0.2195655400000000 O
   0.7804344600000001    0.0261463500000000    0.7298677600000000 O
   0.7701322400000000    0.2195655400000000    0.5261463500000000 O
   0.7298677600000000    0.7804344600000001    0.0261463500000000 O
   0.2298677600000000    0.7195655399999999    0.9738536500000000 O
   0.7298677600000000    0.7195655399999999    0.5261463500000000 O
   0.5261463500000000    0.7298677600000000    0.7195655399999999 O
   0.7195655399999999    0.5261463500000000    0.7298677600000000 O
   0.7804344600000001    0.4738536500000000    0.2298677600000000 O
   0.0261463500000000    0.7701322400000000    0.2804344600000000 O
   0.2804344600000000    0.0261463500000000    0.7701322400000000 O
   0.9738536500000000    0.2701322400000000    0.2195655400000000 O
   0.4738536500000000    0.2298677600000000    0.7804344600000001 O
