Cd4 Si2 O8
1.0
   0.0000000000000000    4.9223240300000004    5.9384410499999998
   3.0056065599999999    0.0000000000000000    5.9384410499999998
   3.0056065599999999    4.9223240300000004    0.0000000000000000
Cd Si O
4 2 8
direct
   0.5650233300000000    0.9349766700000000    0.5650233300000000 Cd
   0.9349766700000000    0.5650233300000000    0.9349766700000000 Cd
   0.6849766700000000    0.3150233300000000    0.6849766700000000 Cd
   0.3150233300000000    0.6849766700000000    0.3150233300000000 Cd
   0.2500000000000000    0.2500000000000000    0.2500000000000000 Si
   0.0000000000000000    0.0000000000000000    0.0000000000000000 Si
   0.2732390300000000    0.3752719200000000    0.4367977100000000 O
   0.9146913500000000    0.4367977100000000    0.3752719200000000 O
   0.4367977100000000    0.9146913500000000    0.2732390300000000 O
   0.3752719200000000    0.2732390300000000    0.9146913500000000 O
   0.9767609700000000    0.8747280800000000    0.8132022900000000 O
   0.3353086500000000    0.8132022900000000    0.8747280800000000 O
   0.8747280800000000    0.9767609700000000    0.3353086500000000 O
   0.8132022900000000    0.3353086500000000    0.9767609700000000 O
