Rb1 Au3 Se2
1.0
   6.0089091100000003   -0.0000000000000000    0.0000000000000000
  -3.0044540600000000    5.2038678699999998    0.0000000000000000
   0.0000000000000000    0.0000000000000000    5.2734436100000002
Rb Au Se
1 3 2
direct
   0.0000000000000000    0.0000000000000000    0.5000000000000000 Rb
   0.0000000000000000    0.5000000000000000    0.0000000000000000 Au
   0.5000000000000000    0.0000000000000000    0.0000000000000000 Au
   0.5000000000000000    0.5000000000000000    0.0000000000000000 Au
   0.3333330000000000    0.6666670000000000    0.6716060700000001 Se
   0.6666670000000000    0.3333330000000000    0.3283939300000000 Se
