Rb12 Si4 O14
1.0
   6.7160811100000002    0.0000000000000000    0.0069078100000000
   0.0000000000000000    9.1734624399999998    0.0000000000000000
  -6.5292966999999997    0.0000000000000000    9.2022806399999997
Rb Si O
12 4 14
direct
   0.5232079700000000    0.3525338800000000    0.4095323000000000 Rb
   0.5232079700000000    0.1474661200000000    0.9095323000000000 Rb
   0.4767920300000000    0.6474661200000000    0.5904677000000000 Rb
   0.7077741800000000    0.9731195900000000    0.4558640400000000 Rb
   0.2922258200000000    0.4731195900000000    0.0441359600000000 Rb
   0.2922258200000000    0.0268804100000000    0.5441359600000000 Rb
   0.7077741800000000    0.5268804100000000    0.9558640400000000 Rb
   0.8924791500000000    0.2792499200000000    0.2760697300000000 Rb
   0.1075208500000000    0.7792499200000000    0.2239302700000000 Rb
   0.1075208500000000    0.7207500800000000    0.7239302700000000 Rb
   0.8924791500000000    0.2207500800000000    0.7760697300000000 Rb
   0.4767920300000000    0.8525338800000000    0.0904677000000000 Rb
   0.8314817200000000    0.6330795500000000    0.3767036700000000 Si
   0.8314817200000000    0.8669204500000000    0.8767036700000000 Si
   0.1685182800000000    0.3669204500000000    0.6232963300000000 Si
   0.1685182800000000    0.1330795500000000    0.1232963300000000 Si
   0.9944442900000000    0.2789786600000000    0.0646418300000000 O
   0.0000000000000000    0.0000000000000000    0.0000000000000000 O
   0.0000000000000000    0.5000000000000000    0.5000000000000000 O
   0.7660277100000000    0.9207963000000000    0.7193104100000000 O
   0.0055557100000000    0.7789786600000000    0.4353581700000000 O
   0.0055557100000000    0.7210213400000000    0.9353581700000000 O
   0.9944442900000000    0.2210213400000000    0.5646418300000000 O
   0.5860247100000000    0.6573245800000000    0.3739801900000000 O
   0.4139752900000000    0.1573245800000000    0.1260198100000000 O
   0.4139752900000000    0.3426754200000000    0.6260198100000000 O
   0.5860247100000000    0.8426754200000000    0.8739801900000000 O
   0.7660277100000000    0.5792037000000000    0.2193104100000000 O
   0.2339722900000000    0.0792037000000000    0.2806895900000000 O
   0.2339722900000000    0.4207963000000000    0.7806895900000000 O
