Sn2 P4 O14
1.0
   5.1018513600000004   -0.0002494800000000    0.0000397100000000
   0.1161530100000000    6.8073859900000002    0.0001622400000000
   0.1273872200000000    3.1509966399999998    7.8758919900000004
Sn P O
2 4 14
direct
   0.2428863400000000    0.2137791500000000    0.7327114700000000 Sn
   0.7571136600000000    0.7862208500000000    0.2672885300000000 Sn
   0.2495999700000000    0.1158853000000000    0.1619210900000000 P
   0.2748445900000000    0.4476660500000000    0.3157828400000000 P
   0.7251554099999999    0.5523339500000000    0.6842171600000000 P
   0.7504000300000000    0.8841147000000000    0.8380789100000000 P
   0.1692305800000000    0.2844709300000000    0.4812315500000000 O
   0.0380970400000000    0.9408049200000000    0.7945212100000000 O
   0.0967358300000000    0.6402568300000000    0.2376499000000000 O
   0.2836277500000000    0.3395966200000000    0.1784966000000000 O
   0.3250648800000000    0.1601206800000000    0.9788898500000000 O
   0.4354756900000000    0.9575566100000000    0.2875049100000000 O
   0.4424673300000000    0.4909621300000000    0.6693910600000000 O
   0.5575326700000000    0.5090378700000000    0.3306089400000000 O
   0.5645243100000000    0.0424433900000000    0.7124950900000000 O
   0.6749351200000000    0.8398793200000000    0.0211101500000000 O
   0.7163722500000000    0.6604033800000000    0.8215034000000000 O
   0.9032641700000000    0.3597431700000000    0.7623501000000000 O
   0.9619029600000000    0.0591950800000000    0.2054787900000000 O
   0.8307694200000000    0.7155290700000000    0.5187684500000000 O
