Hf4 O8
1.0
   5.1833661400000004    0.0000000000000000    0.0067335200000000
   0.0000000000000000    5.2108164400000003    0.0000000000000000
  -0.8843573300000001    0.0000000000000000    5.2521488800000000
Hf O
4 8
direct
   0.2758460900000000    0.5379404600000000    0.7041649100000000 Hf
   0.7241539100000000    0.0379404600000000    0.7958350900000000 Hf
   0.7241539100000000    0.4620595400000000    0.2958350900000000 Hf
   0.2758460900000000    0.9620595400000000    0.2041649100000000 Hf
   0.4477428600000000    0.2576948200000000    0.9841260300000000 O
   0.5522571400000000    0.7576948200000000    0.5158739700000000 O
   0.5522571400000000    0.7423051800000000    0.0158739700000000 O
   0.4477428600000000    0.2423051800000000    0.4841260300000000 O
   0.0712203100000000    0.6680386100000000    0.3456025900000000 O
   0.9287796900000000    0.1680386100000000    0.1543974100000000 O
   0.9287796900000000    0.3319613900000000    0.6543974100000000 O
   0.0712203100000000    0.8319613900000000    0.8456025900000000 O
