Ag4 P4 Pb2 O14
1.0
   5.3667210000000001    0.0000000000000000    0.0000000000000000
   2.6353830000000000    6.4343199999999996    0.0000000000000000
   0.0951690000000000    3.4810349999999999    9.4893660000000004
Ag P Pb O
4 4 2 14
direct
   0.2350810000000000    0.0941390000000000    0.2031010000000000 Ag
   0.2790200000000000    0.7720460000000000    0.9629180000000001 Ag
   0.7209800000000000    0.2279540000000000    0.0370820000000000 Ag
   0.7649190000000000    0.9058610000000000    0.7968990000000000 Ag
   0.8577850000000000    0.6358930000000000    0.1532960000000000 P
   0.1422150000000000    0.3641070000000000    0.8467040000000000 P
   0.1300050000000000    0.1590570000000000    0.6344890000000000 P
   0.8699950000000000    0.8409430000000000    0.3655110000000000 P
   0.5118480000000000    0.6154849999999999    0.6372750000000000 Pb
   0.4881520000000000    0.3845150000000000    0.3627250000000000 Pb
   0.3203780000000000    0.9183160000000000    0.7228420000000000 O
   0.1706540000000000    0.1488720000000000    0.9623390000000001 O
   0.1691500000000000    0.7913300000000000    0.3444560000000000 O
   0.3484660000000000    0.4588010000000000    0.8681280000000000 O
   0.6796219999999999    0.0816840000000000    0.2771580000000000 O
   0.8488150000000000    0.5399750000000000    0.8149030000000000 O
   0.1511850000000000    0.4600250000000000    0.1850970000000000 O
   0.2208020000000000    0.3103520000000000    0.7022550000000000 O
   0.7791979999999999    0.6896480000000000    0.2977450000000000 O
   0.1803080000000000    0.2242870000000000    0.4820270000000000 O
   0.8196920000000000    0.7757130000000000    0.5179730000000000 O
   0.8308500000000000    0.2086700000000000    0.6555440000000000 O
   0.6515339999999999    0.5411990000000000    0.1318720000000000 O
   0.8293460000000000    0.8511280000000000    0.0376610000000000 O
