Sc1 Tl1 Mo2 O8
1.0
   5.8231609600000001    0.0000000000000000    0.0000000000000000
  -2.9115809800000001    5.0430058300000002    0.0000000000000000
   0.0000000000000000    0.0000000000000000    7.3408068100000001
Sc Tl Mo O
1 1 2 8
direct
   0.0000000000000000    0.0000000000000000    0.0000000000000000 Sc
   0.0000000000000000    0.0000000000000000    0.5000000000000000 Tl
   0.6666670000000000    0.3333330000000000    0.2472562800000000 Mo
   0.3333330000000000    0.6666670000000000    0.7527437200000000 Mo
   0.8360896500000000    0.1639103500000000    0.1701330100000000 O
   0.8360896500000000    0.6721793000000000    0.1701330100000000 O
   0.3278207000000000    0.1639103500000000    0.1701330100000000 O
   0.6721793000000000    0.8360896500000000    0.8298669900000000 O
   0.3333330000000000    0.6666670000000000    0.5156400600000000 O
   0.6666670000000000    0.3333330000000000    0.4843599400000000 O
   0.1639103500000000    0.8360896500000000    0.8298669900000000 O
   0.1639103500000000    0.3278207000000000    0.8298669900000000 O
