Sr3 Zn3 Te1 P2 O14
1.0
   8.2423432099999996    0.0000000000000000    0.0000000000000000
  -4.1211720999999999    7.1380783399999999    0.0000000000000000
   0.0000000000000000    0.0000000000000000    5.1378288300000001
Sr Zn Te P O
3 3 1 2 14
direct
   0.4298853900000000    0.4298853900000000    0.0000000000000000 Sr
   1.0000000000000000    0.5701146100000000    0.0000000000000000 Sr
   0.5701146100000000    1.0000000000000000    0.0000000000000000 Sr
   0.7602299700000000    0.7602299700000000    0.5000000000000000 Zn
   1.0000000000000000    0.2397700300000000    0.5000000000000000 Zn
   0.2397700300000000    1.0000000000000000    0.5000000000000000 Zn
   0.0000000000000000    0.0000000000000000    0.0000000000000000 Te
   0.3333330000000000    0.6666670000000000    0.4509443600000000 P
   0.6666670000000000    0.3333330000000000    0.5490556400000000 P
   0.9066592999999999    0.7773765900000000    0.2148085000000000 O
   0.8707172900000000    0.0933407000000000    0.2148085000000000 O
   0.2226234100000000    0.1292827100000000    0.2148085000000000 O
   0.1292827100000000    0.2226234100000000    0.7851915000000000 O
   0.0933407000000000    0.8707172900000000    0.7851915000000000 O
   0.7773765900000000    0.9066592999999999    0.7851915000000000 O
   0.3333330000000000    0.6666670000000000    0.7502816800000000 O
   0.6666670000000000    0.3333330000000000    0.2497183200000000 O
   0.5179561600000000    0.6903213000000000    0.3326990400000000 O
   0.1723651400000000    0.4820438400000000    0.3326990400000000 O
   0.3096787000000000    0.8276348600000000    0.3326990400000000 O
   0.8276348600000000    0.3096787000000000    0.6673009600000001 O
   0.4820438400000000    0.1723651400000000    0.6673009600000001 O
   0.6903213000000000    0.5179561600000000    0.6673009600000001 O
