Ca6 Te2 O12
1.0
   5.5493778400000000    0.0000000000000000    0.0048266700000000
   0.0000000000000000    5.7992675800000004    0.0000000000000000
  -5.5083940800000004    0.0000000000000000    7.9998056999999996
Ca Te O
6 2 12
direct
   0.7276871800000000    0.5548717600000000    0.7442925100000000 Ca
   0.2723128200000000    0.0548717600000000    0.7557074900000000 Ca
   0.2723128200000000    0.4451282400000000    0.2557074900000000 Ca
   0.7276871800000000    0.9451282400000000    0.2442925100000000 Ca
   0.5000000000000000    0.5000000000000000    0.0000000000000000 Ca
   0.5000000000000000    0.0000000000000000    0.5000000000000000 Ca
   0.0000000000000000    0.5000000000000000    0.5000000000000000 Te
   0.0000000000000000    0.0000000000000000    0.0000000000000000 Te
   0.7564665100000000    0.2243696900000000    0.4279789900000000 O
   0.2435334900000000    0.7243696900000000    0.0720210100000000 O
   0.2435334900000000    0.7756303100000000    0.5720210100000001 O
   0.7564665100000000    0.2756303100000000    0.9279789899999999 O
   0.3339430100000000    0.3204031400000000    0.5500123099999999 O
   0.6660569900000000    0.8204031400000000    0.9499876900000001 O
   0.6660569900000000    0.6795968600000000    0.4499876900000000 O
   0.3339430100000000    0.1795968600000000    0.0500123100000000 O
   0.1103494800000000    0.0567293700000000    0.2260629000000000 O
   0.8896505200000000    0.5567293700000000    0.2739371000000000 O
   0.8896505200000000    0.9432706300000000    0.7739371000000000 O
   0.1103494800000000    0.4432706300000000    0.7260629000000000 O
