Na8 Te4 S12
1.0
   5.6908273200000004    0.0000000000000000    0.0001036600000000
   0.0000000000000000   12.0428737399999992    0.0000000000000000
  -0.3131466700000000    0.0000000000000000    8.1958930999999993
Na Te S
8 4 12
direct
   0.2561407400000000    0.7575594400000000    0.8707986599999999 Na
   0.7438592600000000    0.2575594400000000    0.6292013400000001 Na
   0.7438592600000000    0.2424405600000000    0.1292013400000000 Na
   0.2561407400000000    0.7424405600000000    0.3707986600000000 Na
   0.7524803000000000    0.9160550600000000    0.6340762900000000 Na
   0.2475197000000000    0.4160550600000000    0.8659237100000000 Na
   0.2475197000000000    0.0839449400000000    0.3659237100000000 Na
   0.7524803000000000    0.5839449400000000    0.1340762900000000 Na
   0.2898591500000000    0.0869879800000000    0.8226696400000000 Te
   0.7101408500000000    0.5869879800000000    0.6773303600000000 Te
   0.7101408500000000    0.9130120200000000    0.1773303600000000 Te
   0.2898591500000000    0.4130120200000000    0.3226696400000000 Te
   0.7063976199999999    0.0892453900000000    0.8705951700000000 S
   0.2936023800000000    0.5892453900000000    0.6294048300000000 S
   0.2936023800000000    0.9107546100000000    0.1294048300000000 S
   0.7063976199999999    0.4107546100000000    0.3705951700000000 S
   0.2431404200000000    0.2368192900000000    0.6308315799999999 S
   0.7568595800000000    0.7368192900000000    0.8691684200000001 S
   0.7568595800000000    0.7631807100000000    0.3691684200000000 S
   0.2431404200000000    0.2631807100000000    0.1308315800000000 S
   0.2504215800000000    0.9337929500000000    0.6432632200000000 S
   0.7495784200000000    0.4337929500000000    0.8567367800000000 S
   0.7495784200000000    0.0662070500000000    0.3567367800000000 S
   0.2504215800000000    0.5662070500000000    0.1432632200000000 S
