Na8 Ge4 Se10
1.0
   6.9800259599999999   -0.0170220000000000   -0.0104435000000000
   1.1329845100000000    8.0020037500000001   -0.0000205700000000
   3.4505763200000001    2.5341499600000001    9.6944759200000004
Na Ge Se
8 4 10
direct
   0.2042680900000000    0.0002221600000000    0.5913452800000000 Na
   0.7957319100000000    0.9997778400000000    0.4086547200000000 Na
   0.9086075900000000    0.5219300500000000    0.6855788000000000 Na
   0.0913924100000000    0.4780699500000000    0.3144212000000000 Na
   0.5000000000000000    0.5000000000000000    0.5000000000000000 Na
   0.0000000000000000    0.0000000000000000    0.0000000000000000 Na
   0.2732406700000000    0.4875300200000000    0.8967339500000000 Na
   0.7267593300000000    0.5124699800000000    0.1032660500000000 Na
   0.4266821200000000    0.8432017100000000    0.2301144600000000 Ge
   0.5733178799999999    0.1567982900000000    0.7698855400000000 Ge
   0.3824927600000000    0.1582393400000000    0.1671136800000000 Ge
   0.6175072400000000    0.8417606600000000    0.8328863200000000 Ge
   0.0529781200000000    0.2450120500000000    0.1553872500000000 Se
   0.9470218800000000    0.7549879500000000    0.8446127500000000 Se
   0.6478762800000000    0.2575569400000000    0.9475094100000000 Se
   0.3521237200000000    0.7424430600000000    0.0524905900000000 Se
   0.8403299100000000    0.2523789400000000    0.5691056900000000 Se
   0.1596700900000000    0.7476210599999999    0.4308943100000000 Se
   0.5335841099999999    0.7448336500000000    0.6699796200000000 Se
   0.4664158900000000    0.2551663500000000    0.3300203800000000 Se
   0.2521487900000000    0.2458920400000000    0.7432929600000000 Se
   0.7478512100000000    0.7541079600000000    0.2567070400000000 Se
