Cs8 In8 Se16
1.0
   5.8087317499999997   -5.8087728900000002   -0.0009431700000000
   5.8087317499999997    5.8087728900000002   -0.0009431700000000
  -2.8972934900000000    0.0000000000000000   16.7222841200000012
Cs In Se
8 8 16
direct
   0.2772741300000000    0.6515309300000000    0.6045636000000000 Cs
   0.3484690700000000    0.7227258700000000    0.8954364000000000 Cs
   0.7227258700000000    0.3484690700000000    0.3954364000000000 Cs
   0.6515309300000000    0.2772741300000000    0.1045636000000000 Cs
   0.1526123500000000    0.2783973400000000    0.1105738500000000 Cs
   0.7216026600000000    0.8473876500000000    0.3894261500000000 Cs
   0.8473876500000000    0.7216026600000000    0.8894261500000000 Cs
   0.2783973400000000    0.1526123500000000    0.6105738500000000 Cs
   0.2090732300000000    0.5846699400000001    0.3349152900000000 In
   0.4153300600000000    0.7909267700000000    0.1650847100000000 In
   0.7909267700000000    0.4153300600000000    0.6650847100000000 In
   0.5846699400000001    0.2090732300000000    0.8349152900000000 In
   0.2088664100000000    0.0828847500000000    0.3341629600000000 In
   0.9171152500000000    0.7911335900000001    0.1658370400000000 In
   0.7911335900000001    0.9171152500000000    0.6658370400000000 In
   0.0828847500000000    0.2088664100000000    0.8341629600000000 In
   0.4526883300000000    0.5473116700000000    0.2500000000000000 Se
   0.5473116700000000    0.4526883300000000    0.7500000000000000 Se
   0.9224208699999999    0.5473926700000000    0.2506422400000000 Se
   0.4526073300000000    0.0775791300000000    0.2493577600000000 Se
   0.0775791300000000    0.4526073300000000    0.7493577600000000 Se
   0.5473926700000000    0.9224208699999999    0.7506422400000000 Se
   0.9221432600000000    0.0778567400000000    0.2500000000000000 Se
   0.0778567400000000    0.9221432600000000    0.7500000000000000 Se
   0.2339677000000000    0.3570750900000000    0.4308689800000000 Se
   0.6429249100000000    0.7660323000000000    0.0691310200000000 Se
   0.7660323000000000    0.6429249100000000    0.5691310200000000 Se
   0.3570750900000000    0.2339677000000000    0.9308689800000000 Se
   0.2337012000000000    0.8585975800000000    0.4309699300000000 Se
   0.1414024200000000    0.7662987999999999    0.0690300700000000 Se
   0.7662987999999999    0.1414024200000000    0.5690300700000001 Se
   0.8585975800000000    0.2337012000000000    0.9309699299999999 Se
