Ca1 Se1
1.0
   0.0000000000000000    2.9357802099999999    2.9357802099999999
   2.9357802099999999    0.0000000000000000    2.9357802099999999
   2.9357802099999999    2.9357802099999999    0.0000000000000000
Ca Se
1 1
direct
   0.0000000000000000    0.0000000000000000    0.0000000000000000 Ca
   0.5000000000000000    0.5000000000000000    0.5000000000000000 Se
