Tl12 As4 S16
1.0
   8.7702450600000006    0.0000000000000000    0.0000000000000000
   0.0000000000000000   10.6107785299999993    0.0000000000000000
   0.0000000000000000    0.0000000000000000    8.9974943799999991
Tl As S
12 4 16
direct
   0.8869984500000000    0.2500000000000000    0.3901512400000000 Tl
   0.3869984500000000    0.2500000000000000    0.1098487600000000 Tl
   0.1130015500000000    0.7500000000000000    0.6098487600000000 Tl
   0.6130015500000000    0.7500000000000000    0.8901512400000000 Tl
   0.5664095400000000    0.4510569500000000    0.6931380600000000 Tl
   0.0664095400000000    0.0489430500000000    0.8068619400000000 Tl
   0.4335904600000000    0.9510569500000000    0.3068619400000000 Tl
   0.9335904600000000    0.5489430500000000    0.1931380600000000 Tl
   0.4335904600000000    0.5489430500000000    0.3068619400000000 Tl
   0.9335904600000000    0.9510569500000000    0.1931380600000000 Tl
   0.5664095400000000    0.0489430500000000    0.6931380600000000 Tl
   0.0664095400000000    0.4510569500000000    0.8068619400000000 Tl
   0.7803343800000000    0.2500000000000000    0.9722419500000000 As
   0.2803343800000000    0.2500000000000000    0.5277580500000000 As
   0.2196656200000000    0.7500000000000000    0.0277580500000000 As
   0.7196656200000000    0.7500000000000000    0.4722419500000000 As
   0.8103402100000000    0.2500000000000000    0.7285288700000000 S
   0.3103402100000000    0.2500000000000000    0.7714711300000000 S
   0.1896597900000000    0.7500000000000000    0.2714711300000000 S
   0.6896597900000000    0.7500000000000000    0.2285288700000000 S
   0.5086450800000000    0.2500000000000000    0.4294597000000000 S
   0.0086450800000000    0.2500000000000000    0.0705403000000000 S
   0.4913549200000000    0.7500000000000000    0.5705403000000000 S
   0.9913549200000000    0.7500000000000000    0.9294597000000000 S
   0.6513093100000000    0.4178310500000000    0.0336920400000000 S
   0.1513093100000000    0.0821689500000000    0.4663079600000000 S
   0.3486906900000000    0.9178310500000000    0.9663079600000000 S
   0.8486906900000000    0.5821689500000000    0.5336920400000000 S
   0.3486906900000000    0.5821689500000000    0.9663079600000000 S
   0.8486906900000000    0.9178310500000000    0.5336920400000000 S
   0.6513093100000000    0.0821689500000000    0.0336920400000000 S
   0.1513093100000000    0.4178310500000000    0.4663079600000000 S
