In4 Sb4 S12
1.0
   9.3145408700000001    0.0000000000000000    0.0000000000000000
   0.0000000000000000    3.8429399300000000    0.0000000000000000
   0.0000000000000000    0.0000000000000000   13.0401762100000003
In Sb S
4 4 12
direct
   0.1553166200000000    0.2500000000000000    0.0434103400000000 In
   0.8446833800000000    0.7500000000000000    0.9565896600000000 In
   0.3446833800000000    0.7500000000000000    0.5434103400000000 In
   0.6553166200000000    0.2500000000000000    0.4565896600000000 In
   0.0205307900000000    0.2500000000000000    0.6493391400000000 Sb
   0.9794692100000000    0.7500000000000000    0.3506608600000000 Sb
   0.4794692100000000    0.7500000000000000    0.1493391400000000 Sb
   0.5205307900000000    0.2500000000000000    0.8506608600000000 Sb
   0.4983979100000000    0.2500000000000000    0.6191887800000000 S
   0.5016020900000000    0.7500000000000000    0.3808112200000000 S
   0.0016020900000000    0.7500000000000000    0.1191887800000000 S
   0.9983979100000000    0.2500000000000000    0.8808112200000000 S
   0.3143466100000000    0.2500000000000000    0.2085141500000000 S
   0.6856533900000000    0.7500000000000000    0.7914858500000000 S
   0.1856533900000000    0.7500000000000000    0.7085141500000000 S
   0.8143466100000000    0.2500000000000000    0.2914858500000000 S
   0.1559199000000000    0.2500000000000000    0.4792627400000000 S
   0.8440801000000000    0.7500000000000000    0.5207372600000000 S
   0.3440801000000000    0.7500000000000000    0.9792627400000000 S
   0.6559199000000000    0.2500000000000000    0.0207372600000000 S
