Li2 Mg2 Al2 Mo6 O24
1.0
   6.6727315899999997    0.0494164700000000   -0.0300837700000000
   1.4375081999999999    6.6824200400000002   -0.0007754600000000
   0.7646752200000000    2.3361848799999998   11.1375623099999999
Li Mg Al Mo O
2 2 2 6 24
direct
   0.6743631300000000    0.4374763100000000    0.5838296900000000 Li
   0.3256368700000000    0.5625236900000000    0.4161703100000000 Li
   0.7036267600000000    0.8405029899999999    0.9769494900000000 Mg
   0.2963732400000000    0.1594970100000000    0.0230505100000000 Mg
   0.3100823300000000    0.7668908500000000    0.6285679400000000 Al
   0.6899176700000000    0.2331091500000000    0.3714320600000000 Al
   0.2067181500000000    0.2859318200000000    0.6849093400000000 Mo
   0.7932818500000000    0.7140681800000001    0.3150906600000000 Mo
   0.7507251500000000    0.9073887899999999    0.6448050400000001 Mo
   0.2492748500000000    0.0926112100000000    0.3551949600000000 Mo
   0.7280543600000000    0.3105422700000000    0.0533351900000000 Mo
   0.2719456400000000    0.6894577300000000    0.9466648100000000 Mo
   0.6667632999999999    0.3200480100000000    0.2081034400000000 O
   0.3332367000000000    0.6799519900000000    0.7918965600000000 O
   0.2975271500000000    0.0450974900000000    0.6370065200000000 O
   0.7024728500000000    0.9549025100000000    0.3629934800000000 O
   0.6831850800000000    0.5579685700000000    0.9566053200000000 O
   0.3168149200000000    0.4420314300000000    0.0433946800000000 O
   0.6126711100000000    0.1332594700000000    0.9977663300000000 O
   0.3873288900000000    0.8667405300000000    0.0022336700000000 O
   0.9913108400000000    0.2085110200000000    0.0483660800000000 O
   0.0086891600000000    0.7914889800000000    0.9516339200000000 O
   0.6868287199999999    0.9503379800000000    0.7888862200000000 O
   0.3131712800000000    0.0496620200000000    0.2111137800000000 O
   0.3421971500000000    0.4893025300000000    0.6053134600000000 O
   0.6578028500000001    0.5106974700000000    0.3946865400000000 O
   0.0186266900000000    0.8005514500000001    0.6372712100000000 O
   0.9813733100000001    0.1994485500000000    0.3627287900000000 O
   0.2390198700000000    0.2479303200000000    0.8395786100000000 O
   0.7609801300000000    0.7520696800000000    0.1604213900000000 O
   0.6056676500000000    0.7292779800000000    0.6125803300000000 O
   0.3943323500000000    0.2707220200000000    0.3874196700000000 O
   0.7015754300000000    0.1542697200000000    0.5417898799999999 O
   0.2984245700000000    0.8457302799999999    0.4582101200000000 O
   0.9451315300000001    0.3632110400000000    0.6564536300000000 O
   0.0548684700000000    0.6367889600000000    0.3435463700000000 O
