Sr4 Ca2 Te2 O12
1.0
   5.7738599600000002    0.0000000000000000    0.0006405900000000
   0.0000000000000000    5.8546932399999996    0.0000000000000000
  -5.7422004099999997    0.0000000000000000    8.1969010400000002
Sr Ca Te O
4 2 2 12
direct
   0.7411512900000000    0.5386022300000000    0.2504325400000000 Sr
   0.2588487100000000    0.0386022300000000    0.2495674600000000 Sr
   0.7411512900000000    0.9613977700000000    0.7504325400000000 Sr
   0.2588487100000000    0.4613977700000000    0.7495674600000000 Sr
   0.0000000000000000    0.0000000000000000    0.5000000000000000 Ca
   0.0000000000000000    0.5000000000000000    0.0000000000000000 Ca
   0.5000000000000000    0.0000000000000000    0.0000000000000000 Te
   0.5000000000000000    0.5000000000000000    0.5000000000000000 Te
   0.8086085300000000    0.5250906800000000    0.7290985200000000 O
   0.1913914700000000    0.0250906800000000    0.7709014800000000 O
   0.1913914700000000    0.4749093200000000    0.2709014800000000 O
   0.8086085300000000    0.9749093200000000    0.2290985200000000 O
   0.6432562400000000    0.7677555200000000    0.4542969100000000 O
   0.3567437600000000    0.2677555200000000    0.0457030900000000 O
   0.3567437600000000    0.2322444800000000    0.5457030899999999 O
   0.6432562400000000    0.7322444800000000    0.9542969100000001 O
   0.7283977700000001    0.1932200600000000    0.9608385000000000 O
   0.2716022300000000    0.6932200600000000    0.5391615000000000 O
   0.2716022300000000    0.8067799400000000    0.0391615000000000 O
   0.7283977700000001    0.3067799400000000    0.4608385000000000 O
