Mg2 Al4 O8
1.0
   0.0000000000000000    4.0527683999999997    4.0527683999999997
   4.0527683999999997    0.0000000000000000    4.0527683999999997
   4.0527683999999997    4.0527683999999997    0.0000000000000000
Mg Al O
2 4 8
direct
   0.2500000000000000    0.2500000000000000    0.2500000000000000 Mg
   0.0000000000000000    0.0000000000000000    0.0000000000000000 Mg
   0.6250000000000000    0.1250000000000000    0.6250000000000000 Al
   0.6250000000000000    0.6250000000000000    0.1250000000000000 Al
   0.1250000000000000    0.6250000000000000    0.6250000000000000 Al
   0.6250000000000000    0.6250000000000000    0.6250000000000000 Al
   0.3885044200000000    0.8344867400000000    0.3885044200000000 O
   0.8614955800000000    0.8614955800000000    0.4155132600000000 O
   0.8614955800000000    0.8614955800000000    0.8614955800000000 O
   0.4155132600000000    0.8614955800000000    0.8614955800000000 O
   0.3885044200000000    0.3885044200000000    0.3885044200000000 O
   0.8344867400000000    0.3885044200000000    0.3885044200000000 O
   0.8614955800000000    0.4155132600000000    0.8614955800000000 O
   0.3885044200000000    0.3885044200000000    0.8344867400000000 O
