Ba2 Na2 P2 O8
1.0
   5.5766049999999998    0.0000000000000000    0.0000000000000000
  -2.7883024999999999    4.8294817900000000    0.0000000000000000
   0.0000000000000000    0.0000000000000000    7.2587414900000002
Ba Na P O
2 2 2 8
direct
   0.0000000000000000    0.0000000000000000    0.5119020100000000 Ba
   0.6666670000000000    0.3333330000000000    0.1518734500000000 Ba
   0.0000000000000000    0.0000000000000000    0.9949455000000000 Na
   0.3333330000000000    0.6666670000000000    0.8017950900000000 Na
   0.3333330000000000    0.6666670000000000    0.2855466900000000 P
   0.6666670000000000    0.3333330000000000    0.7215011200000000 P
   0.1824021800000000    0.8175978200000000    0.2083423400000000 O
   0.1824021800000000    0.3648033500000000    0.2083423400000000 O
   0.6351966500000000    0.8175978200000000    0.2083423400000000 O
   0.8165666600000000    0.1834333400000000    0.8004392700000000 O
   0.8165666600000000    0.6331333300000000    0.8004392700000000 O
   0.3668666700000000    0.1834333400000000    0.8004392700000000 O
   0.3333330000000000    0.6666670000000000    0.4967098600000000 O
   0.6666670000000000    0.3333330000000000    0.5093524600000000 O
