Rb4 Sb8 O22
1.0
   9.8324065399999991   -3.8150647000000002    0.0144525200000000
   9.8324065399999991    3.8150647000000002    0.0144525200000000
  -0.6867169900000000    0.0000000000000000    7.2233564899999996
Rb Sb O
4 8 22
direct
   0.4900496900000000    0.4900496900000000    0.7434127100000000 Rb
   0.7366601000000000    0.7366601000000000    0.0082651800000000 Rb
   0.5099503100000000    0.5099503100000000    0.2565872900000000 Rb
   0.2633399000000000    0.2633399000000000    0.9917348200000000 Rb
   0.0716211000000000    0.0716211000000000    0.0983893400000000 Sb
   0.5684587200000000    0.0826909700000000    0.5633790900000000 Sb
   0.9173090300000000    0.4315412800000000    0.4366209100000000 Sb
   0.0826909700000000    0.5684587200000000    0.5633790900000000 Sb
   0.0758428600000000    0.0758428600000000    0.6170929000000001 Sb
   0.9283789000000000    0.9283789000000000    0.9016106600000000 Sb
   0.9241571400000000    0.9241571400000000    0.3829071000000000 Sb
   0.4315412800000000    0.9173090300000000    0.4366209100000000 Sb
   0.9485971500000000    0.5245813600000000    0.6679858200000000 O
   0.8818547100000000    0.8818547100000000    0.1314177600000000 O
   0.5245813600000000    0.9485971500000000    0.6679858200000000 O
   0.8332230600000000    0.3436823500000000    0.5703761100000000 O
   0.1670044100000000    0.1670044100000000    0.5105918200000000 O
   0.6598028600000000    0.6598028600000000    0.3559711800000000 O
   0.6723759900000000    0.0699611300000000    0.8111722500000000 O
   0.1718357600000000    0.8281642400000000    0.0000000000000000 O
   0.3436823500000000    0.8332230600000000    0.5703761100000000 O
   0.3276240100000000    0.9300388700000000    0.1888277500000000 O
   0.8329955900000000    0.8329955900000000    0.4894081800000000 O
   0.1667769400000000    0.6563176500000000    0.4296238900000000 O
   0.9300388700000000    0.3276240100000000    0.1888277500000000 O
   0.8281642400000000    0.1718357600000000    0.0000000000000000 O
   0.4754186400000000    0.0514028500000000    0.3320141800000000 O
   0.0699611300000000    0.6723759900000000    0.8111722500000000 O
   0.3401971400000000    0.3401971400000000    0.6440288199999999 O
   0.0236339100000000    0.0236339100000000    0.3457020900000000 O
   0.0514028500000000    0.4754186400000000    0.3320141800000000 O
   0.6563176500000000    0.1667769400000000    0.4296238900000000 O
   0.9763660900000000    0.9763660900000000    0.6542979100000000 O
   0.1181452900000000    0.1181452900000000    0.8685822399999999 O
