Na6 W2 N2 O6
1.0
   7.2576922200000000    0.0000000000000000    0.0000000000000000
   0.0000000000000000    6.1860820500000004    0.0000000000000000
   0.0000000000000000    0.0000000000000000    5.5027653200000000
Na W N O
6 2 2 6
direct
   0.2556636900000000    0.3291770500000000    0.5167596600000000 Na
   0.7443363100000000    0.3291770500000000    0.5167596600000000 Na
   0.2443363100000000    0.6708229500000000    0.0167596600000000 Na
   0.7556636900000000    0.6708229500000000    0.0167596600000000 Na
   0.0000000000000000    0.8312118900000000    0.5189895600000000 Na
   0.5000000000000000    0.1687881100000000    0.0189895600000000 Na
   0.5000000000000000    0.8288770900000000    0.5065420700000000 W
   0.0000000000000000    0.1711229100000000    0.0065420700000000 W
   0.0000000000000000    0.1744094000000000    0.6893978500000000 N
   0.5000000000000000    0.8255906000000000    0.1893978500000000 N
   0.5000000000000000    0.1149633000000000    0.6026893600000000 O
   0.0000000000000000    0.8850367000000000    0.1026893600000000 O
   0.2890971200000000    0.6857829200000000    0.6048819200000000 O
   0.7109028800000000    0.6857829200000000    0.6048819200000000 O
   0.2109028800000000    0.3142170800000000    0.1048819200000000 O
   0.7890971200000000    0.3142170800000000    0.1048819200000000 O
