Zn2 O2
1.0
   3.1757434700000000    0.0000000000000000    0.0000000000000000
  -1.5878717300000000    2.7502745599999998    0.0000000000000000
   0.0000000000000000    0.0000000000000000    5.1149806699999996
Zn O
2 2
direct
   0.6666670000000000    0.3333330000000000    0.4976809200000000 Zn
   0.3333330000000000    0.6666670000000000    0.9976809200000000 Zn
   0.6666670000000000    0.3333330000000000    0.8773190800000000 O
   0.3333330000000000    0.6666670000000000    0.3773190800000000 O
