Ba2 Nb1 In1 O6
1.0
   0.0000000000000000    4.1829559200000004    4.1829559200000004
   4.1829559200000004    0.0000000000000000    4.1829559200000004
   4.1829559200000004    4.1829559200000004    0.0000000000000000
Ba Nb In O
2 1 1 6
direct
   0.7500000000000000    0.7500000000000000    0.7500000000000000 Ba
   0.2500000000000000    0.2500000000000000    0.2500000000000000 Ba
   0.0000000000000000    0.0000000000000000    0.0000000000000000 Nb
   0.5000000000000000    0.5000000000000000    0.5000000000000000 In
   0.7595955800000000    0.2404044200000000    0.7595955800000000 O
   0.2404044200000000    0.2404044200000000    0.7595955800000000 O
   0.7595955800000000    0.7595955800000000    0.2404044200000000 O
   0.7595955800000000    0.2404044200000000    0.2404044200000000 O
   0.2404044200000000    0.7595955800000000    0.2404044200000000 O
   0.2404044200000000    0.7595955800000000    0.7595955800000000 O
