Li4 Mg4 As4 O16
1.0
  10.4450179900000002    0.0000000000000000    0.0000000000000000
   0.0000000000000000    5.9608679799999997    0.0000000000000000
   0.0000000000000000    0.0000000000000000    4.8885098800000000
Li Mg As O
4 4 4 16
direct
   0.0000000000000000    0.0000000000000000    0.0000000000000000 Li
   0.5000000000000000    0.0000000000000000    0.5000000000000000 Li
   0.0000000000000000    0.5000000000000000    0.0000000000000000 Li
   0.5000000000000000    0.5000000000000000    0.5000000000000000 Li
   0.7261202700000000    0.7500000000000000    0.0054689300000000 Mg
   0.2738797300000000    0.2500000000000000    0.9945310700000000 Mg
   0.2261202700000000    0.7500000000000000    0.4945310700000000 Mg
   0.7738797300000000    0.2500000000000000    0.5054689300000000 Mg
   0.5937714700000000    0.2500000000000000    0.0643849900000000 As
   0.0937714700000000    0.2500000000000000    0.4356150100000000 As
   0.4062285300000000    0.7500000000000000    0.9356150100000000 As
   0.9062285300000000    0.7500000000000000    0.5643849900000000 As
   0.3287768600000000    0.5294537600000000    0.7772329200000000 O
   0.6712231400000001    0.4705462400000000    0.2227670800000000 O
   0.8287768599999999    0.5294537600000000    0.7227670800000000 O
   0.3287768600000000    0.9705462400000000    0.7772329200000000 O
   0.1712231400000000    0.0294537600000000    0.2772329200000000 O
   0.0970319900000000    0.2500000000000000    0.7829041600000000 O
   0.1712231400000000    0.4705462400000000    0.2772329200000000 O
   0.6712231400000001    0.0294537600000000    0.2227670800000000 O
   0.9029680100000000    0.7500000000000000    0.2170958400000000 O
   0.5970319900000000    0.2500000000000000    0.7170958400000000 O
   0.5562742600000000    0.7500000000000000    0.7948703800000000 O
   0.4029680100000000    0.7500000000000000    0.2829041600000000 O
   0.0562742600000000    0.7500000000000000    0.7051296200000000 O
   0.9437257400000000    0.2500000000000000    0.2948703800000000 O
   0.4437257400000000    0.2500000000000000    0.2051296200000000 O
   0.8287768599999999    0.9705462400000000    0.7227670800000000 O
