Ba3 Mo2 N2 O6
1.0
   2.9842286699999998    1.7229452700000001    7.1439801899999997
  -2.9842286699999998    1.7229452700000001    7.1439801899999997
   0.0000000000000000   -3.4458905400000002    7.1439801899999997
Ba Mo N O
3 2 2 6
direct
   0.7980000300000000    0.7980000300000000    0.7980000300000000 Ba
   0.2019999700000000    0.2019999700000000    0.2019999700000000 Ba
   0.0000000000000000    0.0000000000000000    0.0000000000000000 Ba
   0.4072591000000000    0.4072591000000000    0.4072591000000000 Mo
   0.5927409000000000    0.5927409000000000    0.5927409000000000 Mo
   0.3261641100000000    0.3261641100000000    0.3261641100000000 N
   0.6738358900000000    0.6738358900000000    0.6738358900000000 N
   0.7332347600000000    0.7332347600000000    0.2268648700000000 O
   0.7332347600000000    0.2268648700000000    0.7332347600000000 O
   0.2268648700000000    0.7332347600000000    0.7332347600000000 O
   0.2667652400000000    0.2667652400000000    0.7731351300000000 O
   0.2667652400000000    0.7731351300000000    0.2667652400000000 O
   0.7731351300000000    0.2667652400000000    0.2667652400000000 O
