Ca4 Sn2 O8
1.0
   5.7299683200000002    0.0000000000000000    0.0000000000000000
   0.0000000000000000    9.6734364599999996    0.0000000000000000
   0.0000000000000000    0.0000000000000000    3.2633163900000000
Ca Sn O
4 2 8
direct
   0.4291583100000000    0.8181136700000000    0.5000000000000000 Ca
   0.5708416900000000    0.1818863300000000    0.5000000000000000 Ca
   0.9291583100000000    0.6818863300000000    0.5000000000000000 Ca
   0.0708416900000000    0.3181136700000000    0.5000000000000000 Ca
   0.5000000000000000    0.5000000000000000    0.0000000000000000 Sn
   0.0000000000000000    0.0000000000000000    0.0000000000000000 Sn
   0.2704066900000000    0.5485276000000000    0.5000000000000000 O
   0.7295933100000001    0.4514724000000000    0.5000000000000000 O
   0.7704066899999999    0.9514724000000000    0.5000000000000000 O
   0.2295933100000000    0.0485276000000000    0.5000000000000000 O
   0.1368798300000000    0.8051479600000000    0.0000000000000000 O
   0.8631201700000000    0.1948520400000000    0.0000000000000000 O
   0.6368798300000000    0.6948520400000000    0.0000000000000000 O
   0.3631201700000000    0.3051479600000000    0.0000000000000000 O
