Bi2 P2 Pb2 O10
1.0
   5.7914589400000001    0.0074426800000000    0.0117540700000000
  -1.3779542000000000    6.7641490600000003   -0.0104092000000000
  -2.2679163099999999   -2.5560403599999999    6.0975110900000002
Bi P Pb O
2 2 2 10
direct
   0.6127098500000000    0.2728748900000000    0.5536707500000000 Bi
   0.3872901500000000    0.7271251100000000    0.4463292500000000 Bi
   0.1837576400000000    0.6559670200000000    0.8601670500000000 P
   0.8162423599999999    0.3440329800000000    0.1398329500000000 P
   0.1684111200000000    0.1117215500000000    0.8223622300000000 Pb
   0.8315888800000000    0.8882784500000001    0.1776377700000000 Pb
   0.2579856600000000    0.9991440600000000    0.4699219000000000 O
   0.9315560100000000    0.5855580700000000    0.2966922300000000 O
   0.6542592500000000    0.3248323200000000    0.9057881500000000 O
   0.3750743000000000    0.7826186600000000    0.7909206900000000 O
   0.3457407500000000    0.6751676800000000    0.0942118500000000 O
   0.7420143400000000    0.0008559400000000    0.5300781000000000 O
   0.9640625900000001    0.7530682600000000    0.8512303100000000 O
   0.0684439900000000    0.4144419300000000    0.7033077700000000 O
   0.0359374100000000    0.2469317400000000    0.1487696900000000 O
   0.6249257000000000    0.2173813400000000    0.2090793100000000 O
