Rb2 Li2 Se2
1.0
   4.5617295300000000    0.0000000000000000    0.0000000000000000
   0.0000000000000000    4.5617295300000000    0.0000000000000000
   0.0000000000000000    0.0000000000000000    7.4416746500000004
Rb Li Se
2 2 2
direct
   0.0000000000000000    0.5000000000000000    0.3388912800000000 Rb
   0.5000000000000000    0.0000000000000000    0.6611087200000000 Rb
   0.0000000000000000    0.0000000000000000    0.0000000000000000 Li
   0.5000000000000000    0.5000000000000000    0.0000000000000000 Li
   0.5000000000000000    0.0000000000000000    0.1815893400000000 Se
   0.0000000000000000    0.5000000000000000    0.8184106600000000 Se
