Ba4 S4 O16
1.0
   8.8791381200000004    0.0000000000000000    0.0000000000000000
   0.0000000000000000    5.4354001399999996    0.0000000000000000
   0.0000000000000000    0.0000000000000000    7.1540093999999996
Ba S O
4 4 16
direct
   0.3148598200000000    0.7500000000000000    0.6567870300000000 Ba
   0.1851401800000000    0.2500000000000000    0.1567870300000000 Ba
   0.8148598200000000    0.7500000000000000    0.8432129700000000 Ba
   0.6851401800000000    0.2500000000000000    0.3432129700000000 Ba
   0.4373893200000000    0.7500000000000000    0.1907596500000000 S
   0.0626106800000000    0.2500000000000000    0.6907596499999999 S
   0.9373893200000000    0.7500000000000000    0.3092403500000000 S
   0.5626106800000000    0.2500000000000000    0.8092403500000001 S
   0.5889545200000000    0.7500000000000000    0.1071526400000000 O
   0.9110454800000000    0.2500000000000000    0.6071526400000000 O
   0.0889545200000000    0.7500000000000000    0.3928473600000000 O
   0.4110454800000000    0.2500000000000000    0.8928473600000000 O
   0.3156162400000000    0.7500000000000000    0.0485098500000000 O
   0.1843837600000000    0.2500000000000000    0.5485098500000000 O
   0.8156162400000000    0.7500000000000000    0.4514901500000000 O
   0.6843837600000000    0.2500000000000000    0.9514901500000000 O
   0.5806037300000000    0.4725375200000000    0.6875872400000000 O
   0.9193962700000000    0.5274624800000000    0.1875872400000000 O
   0.0806037300000000    0.0274624800000000    0.8124127600000000 O
   0.4193962700000000    0.9725375200000000    0.3124127600000000 O
   0.4193962700000000    0.5274624800000000    0.3124127600000000 O
   0.0806037300000000    0.4725375200000000    0.8124127600000000 O
   0.9193962700000000    0.9725375200000000    0.1875872400000000 O
   0.5806037300000000    0.0274624800000000    0.6875872400000000 O
