Ca8 Ge4 O16
1.0
  11.3701047299999995    0.0000000000000000    0.0000000000000000
   0.0000000000000000    6.7514218699999997    0.0000000000000000
   0.0000000000000000    0.0000000000000000    5.2508819400000002
Ca Ge O
8 4 16
direct
   0.0000000000000000    0.0000000000000000    0.0000000000000000 Ca
   0.5000000000000000    0.0000000000000000    0.5000000000000000 Ca
   0.0000000000000000    0.5000000000000000    0.0000000000000000 Ca
   0.5000000000000000    0.5000000000000000    0.5000000000000000 Ca
   0.7792584900000000    0.7500000000000000    0.4930459700000000 Ca
   0.7207415100000000    0.2500000000000000    0.9930459699999999 Ca
   0.2207415100000000    0.2500000000000000    0.5069540300000001 Ca
   0.2792584900000000    0.7500000000000000    0.0069540300000000 Ca
   0.5959170900000000    0.7500000000000000    0.9309740300000000 Ge
   0.9040829100000000    0.2500000000000000    0.4309740300000000 Ge
   0.4040829100000000    0.2500000000000000    0.0690259700000000 Ge
   0.0959170900000000    0.7500000000000000    0.5690259700000000 Ge
   0.4515106000000000    0.7500000000000000    0.7840901600000000 O
   0.0484894000000000    0.2500000000000000    0.2840901600000000 O
   0.5484894000000000    0.2500000000000000    0.2159098400000000 O
   0.9515106000000000    0.7500000000000000    0.7159098400000000 O
   0.5928294400000000    0.7500000000000000    0.2690672700000000 O
   0.9071705600000000    0.2500000000000000    0.7690672700000000 O
   0.4071705600000000    0.2500000000000000    0.7309327300000000 O
   0.0928294400000000    0.7500000000000000    0.2309327300000000 O
   0.6643620800000000    0.9598542300000000    0.7797800800000000 O
   0.8356379200000000    0.0401457700000000    0.2797800800000000 O
   0.3356379200000000    0.4598542300000000    0.2202199200000000 O
   0.1643620800000000    0.5401457700000000    0.7202199200000000 O
   0.3356379200000000    0.0401457700000000    0.2202199200000000 O
   0.1643620800000000    0.9598542300000000    0.7202199200000000 O
   0.6643620800000000    0.5401457700000000    0.7797800800000000 O
   0.8356379200000000    0.4598542300000000    0.2797800800000000 O
