Ba4 In2 Sb2 Se10
1.0
   2.1497636600000001   -9.4781672100000005    0.0000000000000000
   2.1497636600000001    9.4781672100000005    0.0000000000000000
   0.0000000000000000    0.0000000000000000   13.0188133599999993
Ba In Sb Se
4 2 2 10
direct
   0.8862108400000001    0.1137891600000000    0.8122381200000000 Ba
   0.1137891600000000    0.8862108400000001    0.3122381200000000 Ba
   0.8706402600000001    0.1293597400000000    0.1896815200000000 Ba
   0.1293597400000000    0.8706402600000001    0.6896815200000000 Ba
   0.5614180800000000    0.4385819200000000    0.0523468400000000 In
   0.4385819200000000    0.5614180800000000    0.5523468400000000 In
   0.7831153100000000    0.2168846900000000    0.4782727400000000 Sb
   0.2168846900000000    0.7831153100000000    0.9782727400000000 Sb
   0.9530818599999999    0.0469181400000000    0.4372059700000000 Se
   0.0469181400000000    0.9530818599999999    0.9372059700000001 Se
   0.7162893400000000    0.2837106600000000    0.8362590300000000 Se
   0.2837106600000000    0.7162893400000000    0.3362590300000000 Se
   0.6910047100000000    0.3089952900000000    0.1347050100000000 Se
   0.3089952900000000    0.6910047100000000    0.6347050100000000 Se
   0.6445717500000000    0.3554282500000000    0.4986717000000000 Se
   0.3554282500000000    0.6445717500000000    0.9986717000000001 Se
   0.4963235100000000    0.5036764900000000    0.2257790600000000 Se
   0.5036764900000000    0.4963235100000000    0.7257790600000000 Se
