Nb4 Ag1 Bi5 O18
1.0
   2.7494490800000002  -12.5407952700000003    0.0111750800000000
   2.7494490800000002   12.5407952700000003    0.0111750800000000
  -0.0180580300000000    0.0000000000000000    5.5427522199999997
Nb Ag Bi O
4 1 5 18
direct
   0.8267856700000000    0.6586991700000000    0.4489449200000000 Nb
   0.6586991700000000    0.8267856700000000    0.4489449200000000 Nb
   0.1645939500000000    0.3310231900000000    0.9406044000000000 Nb
   0.3310231900000000    0.1645939500000000    0.9406044000000000 Nb
   0.2434874400000000    0.2434874400000000    0.4617802200000000 Ag
   0.7445738100000000    0.7445738100000000    0.9978766200000000 Bi
   0.4295811700000000    0.0288052800000000    0.5252935700000000 Bi
   0.0288052800000000    0.4295811700000000    0.5252935700000000 Bi
   0.5853893500000000    0.9843351800000000    0.0268844800000000 Bi
   0.9843351800000000    0.5853893500000000    0.0268844800000000 Bi
   0.0940718200000000    0.9694826100000000    0.2109383600000000 O
   0.9694826100000000    0.0940718200000000    0.2109383600000000 O
   0.8837261700000000    0.0154070700000000    0.7259349200000000 O
   0.0154070700000000    0.8837261700000000    0.7259349200000000 O
   0.6722919400000000    0.6722919400000000    0.4079230600000000 O
   0.3331942500000000    0.3331942500000000    0.9003448900000000 O
   0.6440922100000001    0.4718049700000000    0.1242491000000000 O
   0.4718049700000000    0.6440922100000001    0.1242491000000000 O
   0.3510015700000000    0.5396003000000000    0.6311509800000000 O
   0.5396003000000000    0.3510015700000000    0.6311509800000000 O
   0.7606890600000000    0.2644615400000000    0.2540201600000000 O
   0.2644615400000000    0.7606890600000000    0.2540201600000000 O
   0.2447874300000000    0.7423139399999999    0.7519071400000000 O
   0.7423139399999999    0.2447874300000000    0.7519071400000000 O
   0.9912981100000000    0.6775424600000000    0.4223381900000000 O
   0.6775424600000000    0.9912981100000000    0.4223381900000000 O
   0.0160819800000000    0.3308793500000000    0.9447703700000000 O
   0.3308793500000000    0.0160819800000000    0.9447703700000000 O
