In4 Si2 Ag4 Se12
1.0
   6.3161996000000000   -3.7114897400000002   -0.0209225300000000
   6.3161996000000000    3.7114897400000002   -0.0209225300000000
  -4.2127187900000003    0.0000000000000000   11.8217587799999997
In Si Ag Se
4 2 4 12
direct
   0.6818524500000001    0.4814968400000000    0.9375579400000000 In
   0.4814968400000000    0.6818524500000001    0.4375579400000000 In
   0.8280956600000000    0.7019521200000000    0.7385374200000000 In
   0.7019521200000000    0.8280956600000000    0.2385374200000000 In
   0.0654224700000000    0.5970831200000000    0.4992785200000000 Si
   0.5970831200000000    0.0654224700000000    0.9992785199999999 Si
   0.6030909700000000    0.1929589400000000    0.5790303300000000 Ag
   0.0126297100000000    0.2029467000000000    0.2541932300000000 Ag
   0.1929589400000000    0.6030909700000000    0.0790303300000000 Ag
   0.2029467000000000    0.0126297100000000    0.7541932300000000 Ag
   0.3969679900000000    0.8871164900000000    0.9577806400000000 Se
   0.9175081600000000    0.9005260500000000    0.9456016000000000 Se
   0.8323404400000000    0.3460972400000000    0.7494878600000000 Se
   0.9005260500000000    0.9175081600000000    0.4456016000000000 Se
   0.9552078600000000    0.4696208600000000    0.1282085600000000 Se
   0.6405233100000000    0.1809096800000000    0.1892462300000000 Se
   0.8871164900000000    0.3969679900000000    0.4577806400000000 Se
   0.3460972400000000    0.8323404400000000    0.2494878600000000 Se
   0.4696208600000000    0.9552078600000000    0.6282085600000000 Se
   0.3918194200000000    0.3482325200000000    0.9081776600000000 Se
   0.3482325200000000    0.3918194200000000    0.4081776600000000 Se
   0.1809096800000000    0.6405233100000000    0.6892462300000000 Se
