Cs2 Ge1 Te3 O12
1.0
   3.6145874999999998    2.0868829299999998    5.7032462900000001
  -3.6145874999999998    2.0868829299999998    5.7032462900000001
   0.0000000000000000   -4.1737658700000004    5.7032462900000001
Cs Ge Te O
2 1 3 12
direct
   0.3708823500000000    0.3708823500000000    0.3708823500000000 Cs
   0.6291176500000000    0.6291176500000000    0.6291176500000000 Cs
   0.0000000000000000    0.0000000000000000    0.0000000000000000 Ge
   0.5000000000000000    0.0000000000000000    0.0000000000000000 Te
   0.0000000000000000    0.0000000000000000    0.5000000000000000 Te
   0.0000000000000000    0.5000000000000000    0.0000000000000000 Te
   0.9318276000000000    0.3255151200000000    0.3255151200000000 O
   0.3179289900000000    0.9300097100000000    0.9300097100000000 O
   0.3255151200000000    0.3255151200000000    0.9318276000000000 O
   0.9300097100000000    0.9300097100000000    0.3179289900000000 O
   0.9300097100000000    0.3179289900000000    0.9300097100000000 O
   0.3255151200000000    0.9318276000000000    0.3255151200000000 O
   0.0681724000000000    0.6744848800000000    0.6744848800000000 O
   0.6820710100000000    0.0699902900000000    0.0699902900000000 O
   0.6744848800000000    0.6744848800000000    0.0681724000000000 O
   0.0699902900000000    0.0699902900000000    0.6820710100000000 O
   0.0699902900000000    0.6820710100000000    0.0699902900000000 O
   0.6744848800000000    0.0681724000000000    0.6744848800000000 O
