Ba2 Al8 Sb4 O24
1.0
  -4.9450528699999996    4.9450529500000000    4.4109418500000004
   4.9450528699999996   -4.9450529500000000    4.4109418500000004
   4.9450529500000000    4.9450528699999996   -4.4109418500000004
Ba Al Sb O
2 8 4 24
direct
   0.2148511200000000    0.2148511200000000    0.0000000000000000 Ba
   0.7851488800000000    0.7851488800000000    0.0000000000000000 Ba
   0.9844751400000000    0.5006286900000000    0.8162972900000000 Al
   0.6843314000000000    0.1681778500000000    0.1837027100000000 Al
   0.1681778500000000    0.9844751400000000    0.4838464600000000 Al
   0.5006286900000000    0.6843314000000000    0.5161535400000000 Al
   0.0155248600000000    0.4993713100000000    0.1837027100000000 Al
   0.3156686000000000    0.8318221500000000    0.8162972900000000 Al
   0.8318221500000000    0.0155248600000000    0.5161535400000000 Al
   0.4993713100000000    0.3156686000000000    0.4838464600000000 Al
   0.6495728200000001    0.1624512400000000    0.8120240600000000 Sb
   0.3504271800000000    0.8375487600000000    0.1879759400000000 Sb
   0.8375487600000000    0.6495728200000001    0.4871215800000000 Sb
   0.1624512400000000    0.3504271800000000    0.5128784199999999 Sb
   0.8514507900000000    0.1990341400000000    0.0504849300000000 O
   0.1485492100000000    0.8009658600000000    0.9495150700000000 O
   0.8009658600000000    0.8514507900000000    0.6524166500000000 O
   0.1990341400000000    0.1485492100000000    0.3475833500000000 O
   0.1752389100000000    0.5330393800000000    0.0457159900000000 O
   0.4873233900000000    0.1295239200000000    0.9542840100000000 O
   0.1295239200000000    0.1752389100000000    0.6422005300000000 O
   0.5330393800000000    0.4873233900000000    0.3577994700000000 O
   0.8247610900000000    0.4669606200000000    0.9542840100000000 O
   0.5126766100000000    0.8704760800000000    0.0457159900000000 O
   0.8704760800000000    0.8247610900000000    0.3577994700000000 O
   0.4669606200000000    0.5126766100000000    0.6422005300000000 O
   0.4516067600000000    0.1575518400000000    0.6091586000000000 O
   0.5483932400000000    0.8424481600000000    0.3908414000000000 O
   0.8424481600000000    0.4516067600000000    0.2940549200000000 O
   0.1575518400000000    0.5483932400000000    0.7059450800000000 O
   0.7867863400000000    0.4944596100000000    0.6316715600000000 O
   0.8627880500000000    0.1551147900000000    0.3683284400000000 O
   0.1551147900000000    0.7867863400000000    0.2923267400000000 O
   0.4944596100000000    0.8627880500000000    0.7076732600000000 O
   0.2132136600000000    0.5055403900000000    0.3683284400000000 O
   0.1372119500000000    0.8448852100000001    0.6316715600000000 O
   0.8448852100000001    0.2132136600000000    0.7076732600000000 O
   0.5055403900000000    0.1372119500000000    0.2923267400000000 O
