Ba8 In4 Te4 S10
1.0
   8.3271091399999992    0.0000000000000000    0.0000000000000000
   0.0000000000000000    8.3271091399999992    0.0000000000000000
   0.0000000000000000    0.0000000000000000   11.0113807300000008
Ba In Te S
8 4 4 10
direct
   0.6569081800000000    0.1569081800000000    0.0000000000000000 Ba
   0.3430918200000000    0.8430918200000000    0.0000000000000000 Ba
   0.8430918200000000    0.6569081800000000    0.0000000000000000 Ba
   0.1569081800000000    0.3430918200000000    0.0000000000000000 Ba
   0.5000000000000000    0.5000000000000000    0.7195478100000000 Ba
   0.0000000000000000    0.0000000000000000    0.7195478100000000 Ba
   0.5000000000000000    0.5000000000000000    0.2804521900000000 Ba
   0.0000000000000000    0.0000000000000000    0.2804521900000000 Ba
   0.5000000000000000    0.0000000000000000    0.6584759100000001 In
   0.0000000000000000    0.5000000000000000    0.6584759100000001 In
   0.5000000000000000    0.0000000000000000    0.3415240900000000 In
   0.0000000000000000    0.5000000000000000    0.3415240900000000 In
   0.6887599000000000    0.1887599000000000    0.5000000000000000 Te
   0.3112401000000000    0.8112401000000000    0.5000000000000000 Te
   0.8112401000000000    0.6887599000000000    0.5000000000000000 Te
   0.1887599000000000    0.3112401000000000    0.5000000000000000 Te
   0.6578890400000000    0.8421109600000000    0.8057260200000000 S
   0.3421109600000000    0.1578890400000000    0.8057260200000000 S
   0.8421109600000000    0.3421109600000000    0.8057260200000000 S
   0.1578890400000000    0.6578890400000000    0.8057260200000000 S
   0.3421109600000000    0.1578890400000000    0.1942739800000000 S
   0.6578890400000000    0.8421109600000000    0.1942739800000000 S
   0.1578890400000000    0.6578890400000000    0.1942739800000000 S
   0.8421109600000000    0.3421109600000000    0.1942739800000000 S
   0.5000000000000000    0.5000000000000000    0.0000000000000000 S
   0.0000000000000000    0.0000000000000000    0.0000000000000000 S
