Mg1 V2 O6
1.0
   4.6146483600000003   -1.7719612899999999    0.0004502500000000
   4.6146483600000003    1.7719612899999999    0.0004502500000000
  -2.7589960200000001    0.0000000000000000    5.9966822300000002
Mg V O
1 2 6
direct
   0.0000000000000000    0.0000000000000000    0.5000000000000000 Mg
   0.8164854900000000    0.8164854900000000    0.8605887400000000 V
   0.1835145100000000    0.1835145100000000    0.1394112600000000 V
   0.3076411800000000    0.3076411800000000    0.9360348800000000 O
   0.6923588200000000    0.6923588200000000    0.0639651200000000 O
   0.0249920200000000    0.0249920200000000    0.2087298800000000 O
   0.6547233099999999    0.6547233099999999    0.6125718100000000 O
   0.9750079800000000    0.9750079800000000    0.7912701200000000 O
   0.3452766900000000    0.3452766900000000    0.3874281900000000 O
