Sr2 Te6 O16
1.0
   6.8406992799999999   -0.0000006600000000    0.0000000000000000
   0.0000006600000000    6.8406992799999999    0.0000000000000000
   0.0000000000000000    0.0000000000000000    6.7885596300000000
Sr Te O
2 6 16
direct
   0.0000000000000000    0.0000000000000000    0.2500000000000000 Sr
   0.0000000000000000    0.0000000000000000    0.7500000000000000 Sr
   0.7804223200000000    0.5627719500000000    0.0000000000000000 Te
   0.5627719500000000    0.2195776800000000    0.5000000000000000 Te
   0.4372280500000000    0.7804223200000000    0.5000000000000000 Te
   0.2195776800000000    0.4372280500000000    0.0000000000000000 Te
   0.5000000000000000    0.0000000000000000    0.0000000000000000 Te
   0.0000000000000000    0.5000000000000000    0.5000000000000000 Te
   0.9542224900000000    0.3212275900000000    0.0000000000000000 O
   0.3212275900000000    0.0457775100000000    0.5000000000000000 O
   0.6787724100000000    0.9542224900000000    0.5000000000000000 O
   0.0457775100000000    0.6787724100000000    0.0000000000000000 O
   0.7577824800000000    0.8820097800000000    0.0000000000000000 O
   0.8820097800000000    0.2422175200000000    0.5000000000000000 O
   0.1179902200000000    0.7577824800000000    0.5000000000000000 O
   0.2422175200000000    0.1179902200000000    0.0000000000000000 O
   0.1904053300000000    0.4107509600000000    0.3060431900000000 O
   0.4107509600000000    0.8095946700000000    0.8060431900000000 O
   0.5892490400000000    0.1904053300000000    0.8060431900000000 O
   0.8095946700000000    0.5892490400000000    0.3060431900000000 O
   0.8095946700000000    0.5892490400000000    0.6939568100000000 O
   0.5892490400000000    0.1904053300000000    0.1939568100000000 O
   0.4107509600000000    0.8095946700000000    0.1939568100000000 O
   0.1904053300000000    0.4107509600000000    0.6939568100000000 O
