Te8 O18
1.0
   4.6708601099999996    2.6967238999999998    4.8517787500000003
  -4.6708609699999997    2.6967224200000000    4.8517787500000003
   0.0000008600000000   -5.3934453700000002    4.8517787800000001
Te O
8 18
direct
   0.6008161400000001    0.2998336000000000    0.8415512100000000 Te
   0.8415512100000000    0.6008161400000001    0.2998336000000000 Te
   0.2998336000000000    0.8415512100000000    0.6008161400000001 Te
   0.3991838600000000    0.7001664000000000    0.1584487900000000 Te
   0.1584487900000000    0.3991838600000000    0.7001664000000000 Te
   0.7001664000000000    0.1584487900000000    0.3991838600000000 Te
   0.1810467200000000    0.1810467200000000    0.1810467200000000 Te
   0.8189532800000000    0.8189532800000000    0.8189532800000000 Te
   0.5737598100000000    0.7753297099999999    0.2938167900000000 O
   0.2938167900000000    0.5737598100000000    0.7753297099999999 O
   0.7753297099999999    0.2938167900000000    0.5737598100000000 O
   0.4262401900000000    0.2246702900000000    0.7061832100000000 O
   0.7061832100000000    0.4262401900000000    0.2246702900000000 O
   0.2246702900000000    0.7061832100000000    0.4262401900000000 O
   0.7198447500000000    0.9148532600000000    0.5855347200000000 O
   0.5855347200000000    0.7198447500000000    0.9148532600000000 O
   0.0491328100000000    0.9328677300000000    0.7206723700000000 O
   0.9328677300000000    0.7206723700000000    0.0491328100000000 O
   0.7206723700000000    0.0491328100000000    0.9328677300000000 O
   0.9508671900000000    0.0671322700000000    0.2793276300000000 O
   0.0671322700000000    0.2793276300000000    0.9508671900000000 O
   0.2793276300000000    0.9508671900000000    0.0671322700000000 O
   0.0851467400000000    0.4144652800000000    0.2801552500000000 O
   0.4144652800000000    0.2801552500000000    0.0851467400000000 O
   0.2801552500000000    0.0851467400000000    0.4144652800000000 O
   0.9148532600000000    0.5855347200000000    0.7198447500000000 O
