Li4 P2 N2 O4
1.0
   4.5198818000000003   -2.7018023699999998    0.0000000000000000
   4.5198818000000003    2.7018023699999998    0.0000000000000000
   0.0000000000000000    0.0000000000000000    4.7057983500000002
Li P N O
4 2 2 4
direct
   0.3246834700000000    0.0075129600000000    0.4989217700000000 Li
   0.9924870400000000    0.6753165300000000    0.4989217700000000 Li
   0.6753165300000000    0.9924870400000000    0.9989217700000000 Li
   0.0075129600000000    0.3246834700000000    0.9989217700000000 Li
   0.6551110600000000    0.3448889400000000    0.5004511400000000 P
   0.3448889400000000    0.6551110600000000    0.0004511400000000 P
   0.3848107600000000    0.6151892400000000    0.6555453200000000 N
   0.6151892400000000    0.3848107600000000    0.1555453200000000 N
   0.9472945100000000    0.3328445100000000    0.5825790000000000 O
   0.6671554900000000    0.0527054900000000    0.5825790000000000 O
   0.0527054900000000    0.6671554900000000    0.0825790000000000 O
   0.3328445100000000    0.9472945100000000    0.0825790000000000 O
