Rb2 Zn2 B2 P4 O16
1.0
   7.4775274500000002    0.0271444800000000    0.0263577800000000
  -1.7895154799999999    7.4101509999999999   -0.0246331800000000
  -1.6005066900000000   -4.2772750500000001    6.3566441500000002
Rb Zn B P O
2 2 2 4 16
direct
   0.2726471400000000    0.6629567100000000    0.4128902200000000 Rb
   0.7273528600000000    0.3370432900000000    0.5871097800000000 Rb
   0.1962256800000000    0.2931163900000000    0.7417109300000000 Zn
   0.8037743200000000    0.7068836100000000    0.2582890700000000 Zn
   0.2987215900000000    0.0742037000000000    0.0718317400000000 B
   0.7012784100000000    0.9257963000000000    0.9281682600000000 B
   0.0322259900000000    0.1094769300000000    0.2770870600000000 P
   0.4536757300000000    0.7771622000000000    0.0833662900000000 P
   0.5463242699999999    0.2228378000000000    0.9166337100000000 P
   0.9677740100000000    0.8905230700000000    0.7229129399999999 P
   0.1979013600000000    0.1869990900000000    0.2054452000000000 O
   0.2668598200000000    0.5753027300000000    0.9787824000000001 O
   0.0828413300000000    0.2967642800000000    0.5030697000000000 O
   0.9862545700000001    0.1077464400000000    0.7542373200000000 O
   0.8020986400000000    0.8130009100000000    0.7945548000000000 O
   0.4478514100000000    0.2489211300000000    0.0820243800000000 O
   0.5943766400000000    0.0141305300000000    0.8321011100000000 O
   0.1646800100000000    0.9016265900000000    0.8544984799999999 O
   0.8353199900000000    0.0983734100000000    0.1455015200000000 O
   0.4001721300000000    0.1824193900000000    0.7199508400000000 O
   0.9171586700000000    0.7032357200000000    0.4969303000000000 O
   0.0137454300000000    0.8922535600000000    0.2457626800000000 O
   0.5521485900000001    0.7510788700000000    0.9179756200000000 O
   0.5998278700000000    0.8175806100000000    0.2800491600000000 O
   0.4056233600000000    0.9858694700000000    0.1678988900000000 O
   0.7331401800000000    0.4246972700000000    0.0212176000000000 O
