Cd8 Si2 S12
1.0
   6.1374453700000000   -3.5092047800000001   -0.0096574700000000
   6.1374453700000000    3.5092047800000001   -0.0096574700000000
  -4.2691399900000002    0.0000000000000000   11.5126482600000006
Cd Si S
8 2 12
direct
   0.6710194700000000    0.2783003400000000    0.6917440700000000 Cd
   0.2783003400000000    0.6710194700000000    0.1917440700000000 Cd
   0.9223933800000000    0.7677980200000000    0.8487496800000000 Cd
   0.7677980200000000    0.9223933800000000    0.3487496800000000 Cd
   0.7692111300000000    0.5481595400000000    0.0407625100000000 Cd
   0.5481595400000000    0.7692111300000000    0.5407625100000000 Cd
   0.2930196500000000    0.0810816900000000    0.8544912099999999 Cd
   0.0810816900000000    0.2930196500000000    0.3544912100000000 Cd
   0.1412777900000000    0.6787665100000000    0.6034662200000001 Si
   0.6787665100000000    0.1412777900000000    0.1034662200000000 Si
   0.0209818700000000    0.5617074200000000    0.2346254800000000 S
   0.5617074200000000    0.0209818700000000    0.7346254800000001 S
   0.9703650100000000    0.9967775100000000    0.5559758000000000 S
   0.9967775100000000    0.9703650100000000    0.0559758000000000 S
   0.4854319600000000    0.9682225500000000    0.0550325800000000 S
   0.9682225500000000    0.4854319600000000    0.5550325800000000 S
   0.2632268400000000    0.7077863700000000    0.7860741900000000 S
   0.7077863700000000    0.2632268400000000    0.2860741900000000 S
   0.9163339800000000    0.4150847600000000    0.8548516000000000 S
   0.4150847600000000    0.9163339800000000    0.3548516000000000 S
   0.4256190400000000    0.4770321700000000    0.5200266600000000 S
   0.4770321700000000    0.4256190400000000    0.0200266600000000 S
