Li8 Ge2 O8
1.0
   3.9136020700000000   -3.6726157300000000    0.0000000000000000
   3.9136020700000000    3.6726157300000000    0.0000000000000000
   0.0000000000000000    0.0000000000000000    6.0793509300000004
Li Ge O
8 2 8
direct
   0.8751438700000000    0.4203875200000000    0.7500000000000000 Li
   0.1248561300000000    0.5796124800000000    0.2500000000000000 Li
   0.8391310400000001    0.8391310400000001    0.0000000000000000 Li
   0.1608689600000000    0.1608689600000000    0.5000000000000000 Li
   0.1608689600000000    0.1608689600000000    0.0000000000000000 Li
   0.8391310400000001    0.8391310400000001    0.5000000000000000 Li
   0.4203875200000000    0.8751438700000000    0.2500000000000000 Li
   0.5796124800000000    0.1248561300000000    0.7500000000000000 Li
   0.3403433900000000    0.6596566100000000    0.7500000000000000 Ge
   0.6596566100000000    0.3403433900000000    0.2500000000000000 Ge
   0.7330795800000000    0.6613493000000000    0.2500000000000000 O
   0.2669204200000000    0.3386507000000000    0.7500000000000000 O
   0.7964957600000000    0.2035042400000000    0.0039991600000000 O
   0.2035042400000000    0.7964957600000000    0.5039991600000000 O
   0.7964957600000000    0.2035042400000000    0.4960008400000000 O
   0.2035042400000000    0.7964957600000000    0.9960008400000000 O
   0.3386507000000000    0.2669204200000000    0.2500000000000000 O
   0.6613493000000000    0.7330795800000000    0.7500000000000000 O
