In2 Ag2 Sn2 S8
1.0
  -3.7997549799999999    3.8090987599999999    5.3741636699999997
   3.7997549799999999   -3.8090987599999999    5.3741636699999997
   3.7997549799999999    3.8090987599999999   -5.3741636699999997
In Ag Sn S
2 2 2 8
direct
   0.0000000000000000    0.5000000000000000    0.5000000000000000 In
   0.5000000000000000    0.5000000000000000    0.0000000000000000 In
   0.1316002200000000    0.8816002200000000    0.2500000000000000 Ag
   0.8683997800000000    0.1183997800000000    0.7500000000000000 Ag
   0.5000000000000000    0.0000000000000000    0.0000000000000000 Sn
   0.5000000000000000    0.5000000000000000    0.5000000000000000 Sn
   0.2706954900000000    0.2532275000000000    0.0174680000000000 S
   0.7357605000000000    0.2532275000000000    0.4825320000000000 S
   0.7368250200000001    0.7218050400000000    0.4849800300000000 S
   0.7368250200000001    0.2518449900000000    0.0150199700000000 S
   0.7293045100000000    0.7467725000000000    0.9825320000000000 S
   0.2642395000000000    0.7467725000000000    0.5174680000000000 S
   0.2631749800000000    0.2781949600000000    0.5150199700000000 S
   0.2631749800000000    0.7481550100000000    0.9849800300000000 S
