Sr2 Ga8 O14
1.0
   6.7527376700000001   -4.6064500300000004   -0.0246295700000000
   6.7527376700000001    4.6064500300000004   -0.0246295700000000
  -1.5472652200000001    0.0000000000000000    5.4971000200000004
Sr Ga O
2 8 14
direct
   0.6853939400000000    0.3146060600000000    0.2500000000000000 Sr
   0.3146060600000000    0.6853939400000000    0.7500000000000000 Sr
   0.2434512000000000    0.4199140100000000    0.2015252600000000 Ga
   0.5800859900000001    0.7565488000000000    0.2984747400000000 Ga
   0.7565488000000000    0.5800859900000001    0.7984747400000000 Ga
   0.4199140100000000    0.2434512000000000    0.7015252600000000 Ga
   0.9416839500000000    0.8206116800000000    0.2443343900000000 Ga
   0.1793883200000000    0.0583160500000000    0.2556656100000000 Ga
   0.8206116800000000    0.9416839500000000    0.7443343900000000 Ga
   0.0583160500000000    0.1793883200000000    0.7556656100000000 Ga
   0.9631781300000000    0.0368218700000000    0.2500000000000000 O
   0.0368218700000000    0.9631781300000000    0.7500000000000000 O
   0.1233781600000000    0.6371144500000000    0.3569235700000000 O
   0.3628855500000000    0.8766218400000000    0.1430764300000000 O
   0.8766218400000000    0.3628855500000000    0.6430764300000000 O
   0.6371144500000000    0.1233781600000000    0.8569235700000000 O
   0.6619051600000000    0.5690404900000000    0.0542433700000000 O
   0.4309595100000000    0.3380948400000000    0.4457566300000000 O
   0.2519465800000000    0.1250386000000000    0.5922553900000000 O
   0.8749614000000000    0.7480534200000000    0.9077446100000000 O
   0.7480534200000000    0.8749614000000000    0.4077446100000000 O
   0.1250386000000000    0.2519465800000000    0.0922553900000000 O
   0.5690404900000000    0.6619051600000000    0.5542433700000000 O
   0.3380948400000000    0.4309595100000000    0.9457566300000000 O
