Na4 Y4 Se8 O24
1.0
  12.5718654000000001    0.0000000000000000    0.0000000000000000
   0.0000000000000000    8.5134917399999992    0.0000000000000000
   0.0000000000000000    0.0000000000000000    5.3687045500000004
Na Y Se O
4 4 8 24
direct
   0.3811122300000000    0.9904789300000000    0.7943772200000000 Na
   0.8811122300000001    0.5095210700000000    0.7943772200000000 Na
   0.6188877699999999    0.0095210700000000    0.2943772200000000 Na
   0.1188877700000000    0.4904789300000000    0.2943772200000000 Na
   0.9164470000000000    0.1774836100000000    0.2406325100000000 Y
   0.0835530000000000    0.8225163900000000    0.7406325100000000 Y
   0.5835530000000000    0.6774836100000000    0.7406325100000000 Y
   0.4164470000000000    0.3225163900000000    0.2406325100000000 Y
   0.8009109300000000    0.9698723299999999    0.7479638600000000 Se
   0.6990890700000000    0.4698723300000000    0.2479638600000000 Se
   0.5861011800000000    0.2668396900000000    0.7968756500000000 Se
   0.4138988200000000    0.7331603100000000    0.2968756500000000 Se
   0.3009109300000000    0.5301276700000001    0.7479638600000000 Se
   0.9138988200000000    0.7668396900000000    0.2968756500000000 Se
   0.1990890700000000    0.0301276700000000    0.2479638600000000 Se
   0.0861011800000000    0.2331603100000000    0.7968756500000000 Se
   0.5166470300000000    0.1463803200000000    0.9936718500000000 O
   0.1986611200000000    0.8648796500000000    0.0644751500000000 O
   0.3251398800000000    0.0973433000000000    0.1880302700000000 O
   0.4847997100000000    0.5631903400000000    0.3830386700000000 O
   0.4660654300000000    0.7789138300000000    0.0129880500000000 O
   0.4833529700000000    0.8536196800000000    0.4936718500000000 O
   0.7149461800000000    0.5429821500000001    0.5462477800000000 O
   0.6986611200000000    0.6351203500000000    0.0644751500000000 O
   0.9660654300000000    0.7210861700000000    0.0129880500000000 O
   0.6748601200000000    0.9026567000000000    0.6880302700000001 O
   0.7850538200000000    0.0429821500000000    0.0462477800000000 O
   0.5339345700000000    0.2210861700000000    0.5129880500000000 O
   0.1748601200000000    0.5973433000000000    0.6880302700000001 O
   0.8251398800000000    0.4026567000000000    0.1880302700000000 O
   0.0166470300000000    0.3536196800000000    0.9936718500000000 O
   0.9847997100000000    0.9368096600000000    0.3830386700000000 O
   0.3013388800000000    0.3648796500000000    0.5644751500000000 O
   0.5152002900000000    0.4368096600000000    0.8830386700000000 O
   0.9833529700000000    0.6463803200000000    0.4936718500000000 O
   0.2850538200000000    0.4570178500000000    0.0462477800000000 O
   0.8013388800000000    0.1351203500000000    0.5644751500000000 O
   0.2149461800000000    0.9570178499999999    0.5462477800000000 O
   0.0339345700000000    0.2789138300000000    0.5129880500000000 O
   0.0152002900000000    0.0631903400000000    0.8830386700000000 O
