Li2 Y2 P8 O24
1.0
   8.1338214400000002   -3.5149582300000000   -0.0063655500000000
   8.1338214400000002    3.5149582300000000   -0.0063655500000000
  -5.6509470400000001    0.0000000000000000    7.7487143700000001
Li Y P O
2 2 8 24
direct
   0.2075095600000000    0.7924904400000000    0.2500000000000000 Li
   0.7924904400000000    0.2075095600000000    0.7500000000000000 Li
   0.7046919400000000    0.2953080600000000    0.2500000000000000 Y
   0.2953080600000000    0.7046919400000000    0.7500000000000000 Y
   0.2065621000000000    0.5028694700000000    0.3059631700000000 P
   0.9147522200000000    0.8123670600000000    0.8846591400000000 P
   0.0852477800000000    0.1876329400000000    0.1153408600000000 P
   0.7934379000000000    0.4971305300000000    0.6940368300000000 P
   0.1876329400000000    0.0852477800000000    0.6153408600000000 P
   0.5028694700000000    0.2065621000000000    0.8059631700000000 P
   0.4971305300000000    0.7934379000000000    0.1940368300000000 P
   0.8123670600000000    0.9147522200000000    0.3846591400000000 P
   0.9337825100000000    0.9378767700000000    0.5736994500000000 O
   0.6785559600000000    0.8316544100000000    0.3507309900000000 O
   0.4891168300000000    0.6505979200000001    0.2248138100000000 O
   0.1683455900000000    0.3214440400000000    0.1492690100000000 O
   0.5108831700000001    0.3494020800000000    0.7751861900000000 O
   0.0662174900000000    0.0621232300000000    0.4263005500000000 O
   0.7177514400000000    0.9713842800000000    0.7654506700000000 O
   0.0621232300000000    0.0662174900000000    0.9263005500000000 O
   0.7425532500000001    0.5103123500000000    0.5233920000000000 O
   0.4896876500000000    0.2574467500000000    0.9766080000000000 O
   0.1043890000000000    0.6715265700000000    0.8166209300000000 O
   0.2822485600000000    0.0286157200000000    0.2345493300000000 O
   0.3284734300000000    0.8956110000000000    0.6833790700000000 O
   0.9713842800000000    0.7177514400000000    0.2654506700000000 O
   0.5103123500000000    0.7425532500000001    0.0233920000000000 O
   0.3214440400000000    0.1683455900000000    0.6492690100000000 O
   0.9378767700000000    0.9337825100000000    0.0736994500000000 O
   0.0286157200000000    0.2822485600000000    0.7345493300000000 O
   0.3494020800000000    0.5108831700000001    0.2751861900000000 O
   0.6715265700000000    0.1043890000000000    0.3166209300000000 O
   0.2574467500000000    0.4896876500000000    0.4766080000000000 O
   0.8956110000000000    0.3284734300000000    0.1833790700000000 O
   0.8316544100000000    0.6785559600000000    0.8507309900000000 O
   0.6505979200000001    0.4891168300000000    0.7248138100000000 O
