Al4 Pb2 S8
1.0
   2.9596276700000002   -5.1324075200000001    0.0000000000000000
   2.9596276700000002    5.1324075200000001    0.0000000000000000
   0.0000000000000000    0.0000000000000000   10.3135338399999998
Al Pb S
4 2 8
direct
   0.2366913700000000    0.7605816800000000    0.5000000000000000 Al
   0.2394183200000000    0.7633086300000000    0.0000000000000000 Al
   0.7605816800000000    0.2366913700000000    0.0000000000000000 Al
   0.7633086300000000    0.2394183200000000    0.5000000000000000 Al
   0.5000000000000000    0.5000000000000000    0.7500000000000000 Pb
   0.5000000000000000    0.5000000000000000    0.2500000000000000 Pb
   0.0000000000000000    0.5000000000000000    0.6670629700000000 S
   0.1842898700000000    0.3515192100000000    0.0000000000000000 S
   0.5000000000000000    0.0000000000000000    0.8329370300000000 S
   0.3515192100000000    0.1842898700000000    0.5000000000000000 S
   0.6484807900000000    0.8157101300000000    0.5000000000000000 S
   0.5000000000000000    0.0000000000000000    0.1670629700000000 S
   0.8157101300000000    0.6484807900000000    0.0000000000000000 S
   0.0000000000000000    0.5000000000000000    0.3329370300000000 S
