La4 Cu4 Te4 S4
1.0
   6.3987479100000000    0.0000000000000000   -0.0200309600000000
   0.0000000000000000    7.6955796400000001    0.0000000000000000
  -0.6194484600000000    0.0000000000000000    7.3353297199999998
La Cu Te S
4 4 4 4
direct
   0.3564581400000000    0.5304417500000000    0.7220087400000000 La
   0.6435418600000000    0.0304417500000000    0.7779912600000000 La
   0.6435418600000000    0.4695582500000000    0.2779912600000000 La
   0.3564581400000000    0.9695582500000000    0.2220087400000000 La
   0.0684966700000000    0.3400784100000000    0.0433694100000000 Cu
   0.0684966700000000    0.1599215900000000    0.5433694100000001 Cu
   0.9315033300000000    0.6599215899999999    0.9566305899999999 Cu
   0.9315033300000000    0.8400784100000001    0.4566305900000000 Cu
   0.1251112100000000    0.8970449700000001    0.7791631700000000 Te
   0.8748887900000000    0.3970449700000000    0.7208368300000000 Te
   0.1251112100000000    0.6029550299999999    0.2791631700000000 Te
   0.8748887900000000    0.1029550300000000    0.2208368300000000 Te
   0.5947092800000000    0.7279548300000001    0.0014336900000000 S
   0.4052907200000000    0.2279548300000000    0.4985663100000000 S
   0.5947092800000000    0.7720451699999999    0.5014336900000000 S
   0.4052907200000000    0.2720451700000000    0.9985663100000000 S
