Ba2 Mo4 P4 O24
1.0
   6.4132643099999997    0.0000000000000000    0.0056000700000000
   0.0000000000000000    7.1864499300000002    0.0000000000000000
  -0.8783113200000000    0.0000000000000000    9.9910262799999998
Ba Mo P O
2 4 4 24
direct
   0.0000000000000000    0.0000000000000000    0.0000000000000000 Ba
   0.0000000000000000    0.5000000000000000    0.5000000000000000 Ba
   0.2691494900000000    0.9661313000000000    0.6729262400000000 Mo
   0.7308505100000000    0.4661313000000000    0.8270737600000000 Mo
   0.7308505100000000    0.0338687000000000    0.3270737600000000 Mo
   0.2691494900000000    0.5338687000000000    0.1729262400000000 Mo
   0.2367801900000000    0.5558536200000000    0.8440381500000000 P
   0.2367801900000000    0.9441463800000000    0.3440381500000000 P
   0.7632198100000001    0.0558536200000000    0.6559618500000000 P
   0.7632198100000001    0.4441463800000000    0.1559618500000000 P
   0.7803870100000000    0.3332815300000000    0.0265078300000000 O
   0.7513103800000001    0.1782001800000000    0.7813938000000000 O
   0.4346851400000000    0.4298173100000000    0.8575662200000000 O
   0.2196129900000000    0.8332815300000000    0.4734921700000000 O
   0.5653148600000000    0.9298173100000000    0.6424337800000000 O
   0.2267900000000000    0.1821253700000000    0.5989832700000000 O
   0.5653148600000000    0.5701826900000000    0.1424337800000000 O
   0.2267900000000000    0.3178746300000000    0.0989832700000000 O
   0.2196129900000000    0.6667184700000000    0.9734921700000000 O
   0.6866148100000000    0.5229304900000000    0.6596909500000000 O
   0.7732100000000000    0.6821253700000000    0.9010167300000000 O
   0.7732100000000000    0.8178746300000000    0.4010167300000000 O
   0.3133851900000000    0.4770695100000000    0.3403090500000000 O
   0.0454490700000000    0.4238565700000000    0.8157776900000000 O
   0.9545509300000000    0.9238565700000000    0.6842223100000000 O
   0.4346851400000000    0.0701826900000000    0.3575662200000000 O
   0.2486896200000000    0.8217998200000000    0.2186062000000000 O
   0.9545509300000000    0.5761434300000000    0.1842223100000000 O
   0.6866148100000000    0.9770695100000000    0.1596909500000000 O
   0.0454490700000000    0.0761434300000000    0.3157776900000000 O
   0.3133851900000000    0.0229304900000000    0.8403090500000000 O
   0.7513103800000001    0.3217998200000000    0.2813938000000000 O
   0.7803870100000000    0.1667184700000000    0.5265078300000000 O
   0.2486896200000000    0.6782001800000000    0.7186062000000000 O
