Cd4 S8 O28
1.0
   5.2247222600000001    0.0000000000000000   -0.0007340000000000
   0.0000000000000000   13.0530528500000003    0.0000000000000000
  -5.0552980200000004    0.0000000000000000    8.3388921600000003
Cd S O
4 8 28
direct
   0.8717987900000000    0.3480700700000000    0.6709780600000000 Cd
   0.1282012100000000    0.8480700700000000    0.8290219400000000 Cd
   0.1282012100000000    0.6519299300000000    0.3290219400000000 Cd
   0.8717987900000000    0.1519299300000000    0.1709780600000000 Cd
   0.3685276700000000    0.5239858900000000    0.6914150200000000 S
   0.6314723300000000    0.0239858900000000    0.8085849800000000 S
   0.6314723300000000    0.4760141100000000    0.3085849800000000 S
   0.3685276700000000    0.9760141100000000    0.1914150200000000 S
   0.2835444100000000    0.1851862600000000    0.5870150200000001 S
   0.7164555900000000    0.6851862600000000    0.9129849799999999 S
   0.7164555900000000    0.8148137400000000    0.4129849800000000 S
   0.2835444100000000    0.3148137400000000    0.0870150200000000 S
   0.4814093800000000    0.4430355700000000    0.6349730700000000 O
   0.5185906200000000    0.9430355700000000    0.8650269300000000 O
   0.5185906200000000    0.5569644300000000    0.3650269300000000 O
   0.4814093800000000    0.0569644300000000    0.1349730700000000 O
   0.2397693300000000    0.6105967600000000    0.5823839900000000 O
   0.7602306700000000    0.1105967600000000    0.9176160100000000 O
   0.7602306700000000    0.3894032400000000    0.4176160100000000 O
   0.2397693300000000    0.8894032400000000    0.0823839900000000 O
   0.9860539800000000    0.8245607300000000    0.5695610000000000 O
   0.0139460200000000    0.3245607300000000    0.9304390000000000 O
   0.0139460200000000    0.1754392700000000    0.4304390000000000 O
   0.9860539800000000    0.6754392700000000    0.0695610000000000 O
   0.3260397100000000    0.4339420400000000    0.1500551800000000 O
   0.6739602900000000    0.9339420400000000    0.3499448200000000 O
   0.6739602900000000    0.5660579600000000    0.8499448200000000 O
   0.3260397100000000    0.0660579600000000    0.6500551800000000 O
   0.8172228499999999    0.5119218700000000    0.2474218200000000 O
   0.1827771500000000    0.0119218700000000    0.2525781800000000 O
   0.1827771500000000    0.4880781300000000    0.7525781800000000 O
   0.8172228499999999    0.9880781300000000    0.7474218200000000 O
   0.5543438900000000    0.2893911600000000    0.0866958800000000 O
   0.4456561100000000    0.7893911600000000    0.4133041200000000 O
   0.4456561100000000    0.7106088400000000    0.9133041200000001 O
   0.5543438900000000    0.2106088400000000    0.5866958799999999 O
   0.2416203600000000    0.2556348600000000    0.2004165500000000 O
   0.7583796400000000    0.7556348600000000    0.2995834500000000 O
   0.7583796400000000    0.7443651400000000    0.7995834500000000 O
   0.2416203600000000    0.2443651400000000    0.7004165500000000 O
