Rb4 Ag4 Se16
1.0
   5.6343016600000002    0.0000000000000000    0.0000000000000000
   0.0000000000000000    8.7778958599999992    0.0000000000000000
   0.0000000000000000    0.0000000000000000   13.2201914400000007
Rb Ag Se
4 4 16
direct
   0.1638882200000000    0.4495142600000000    0.1653587200000000 Rb
   0.6638882200000000    0.0504857400000000    0.8346412800000000 Rb
   0.8361117800000000    0.9495142600000001    0.3346412800000000 Rb
   0.3361117800000000    0.5504857399999999    0.6653587200000000 Rb
   0.9580400600000000    0.8711373000000000    0.0639037500000000 Ag
   0.4580400600000000    0.6288627000000000    0.9360962500000000 Ag
   0.0419599400000000    0.3711373000000000    0.4360962500000000 Ag
   0.5419599400000000    0.1288627000000000    0.5639037500000000 Ag
   0.8739977300000000    0.3149215100000000    0.6151903300000000 Se
   0.3739977300000000    0.1850784900000000    0.3848096700000000 Se
   0.1260022700000000    0.8149215100000000    0.8848096700000000 Se
   0.6260022700000000    0.6850784900000000    0.1151903300000000 Se
   0.1423257000000000    0.1309981300000000    0.6827249300000000 Se
   0.6423257000000000    0.3690018700000000    0.3172750700000000 Se
   0.8576743000000000    0.6309981300000000    0.8172750700000000 Se
   0.3576743000000000    0.8690018700000000    0.1827249300000000 Se
   0.8017971000000000    0.1473254200000000    0.0983270800000000 Se
   0.3017971000000000    0.3526745800000000    0.9016729200000000 Se
   0.1982029000000000    0.6473254200000000    0.4016729200000000 Se
   0.6982029000000000    0.8526745800000000    0.5983270800000000 Se
   0.3930287200000000    0.0862598900000000    0.0705294000000000 Se
   0.8930287200000000    0.4137401100000000    0.9294706000000000 Se
   0.6069712800000000    0.5862598900000000    0.4294706000000000 Se
   0.1069712800000000    0.9137401100000000    0.5705294000000000 Se
