In4 Ga2 Bi2 S12
1.0
  11.1734975199999997    0.0000000000000000   -0.0455404500000000
   0.0000000000000000    3.8024030400000002    0.0000000000000000
  -5.5505265200000000    0.0000000000000000   10.9859451600000000
In Ga Bi S
4 2 2 12
direct
   0.2641489700000000    0.2500000000000000    0.2236469500000000 In
   0.7358510300000000    0.7500000000000000    0.7763530500000000 In
   0.9495690600000000    0.7500000000000000    0.3551355500000000 In
   0.0504309400000000    0.2500000000000000    0.6448644500000000 In
   0.8382868400000000    0.2500000000000000    0.0941404000000000 Ga
   0.1617131600000000    0.7500000000000000    0.9058596000000000 Ga
   0.5999097200000000    0.7500000000000000    0.3961357000000000 Bi
   0.4000902800000000    0.2500000000000000    0.6038643000000000 Bi
   0.9549175700000000    0.7500000000000000    0.7320626600000000 S
   0.8422138100000000    0.2500000000000000    0.4308204000000000 S
   0.3609359600000000    0.7500000000000000    0.3980498300000000 S
   0.2590860000000000    0.2500000000000000    0.8709721400000000 S
   0.7409140000000000    0.7500000000000000    0.1290278600000000 S
   0.0450824300000000    0.2500000000000000    0.2679373400000000 S
   0.6390640400000001    0.2500000000000000    0.6019501700000000 S
   0.1372556100000000    0.7500000000000000    0.0772247700000000 S
   0.8627443900000000    0.2500000000000000    0.9227752299999999 S
   0.1577861900000000    0.7500000000000000    0.5691796000000000 S
   0.4954232000000000    0.2500000000000000    0.2256992900000000 S
   0.5045768000000000    0.7500000000000000    0.7743007100000000 S
