Na8 Si6 Sn1 O18
1.0
   5.1079148400000003    2.9490557300000000    4.3902496299999996
  -5.1079148400000003    2.9490557300000000    4.3902496299999996
   0.0000000000000000   -5.8981114500000000    4.3902496299999996
Na Si Sn O
8 6 1 18
direct
   0.5000000000000000    0.5000000000000000    0.0000000000000000 Na
   0.7565441899999999    0.7565441899999999    0.7565441899999999 Na
   0.2434558100000000    0.2434558100000000    0.2434558100000000 Na
   0.5000000000000000    0.0000000000000000    0.5000000000000000 Na
   0.0000000000000000    0.5000000000000000    0.0000000000000000 Na
   0.5000000000000000    0.0000000000000000    0.0000000000000000 Na
   0.0000000000000000    0.0000000000000000    0.5000000000000000 Na
   0.0000000000000000    0.5000000000000000    0.5000000000000000 Na
   0.7347480500000000    0.2778294200000000    0.2778294200000000 Si
   0.2778294200000000    0.2778294200000000    0.7347480500000000 Si
   0.7221705800000000    0.7221705800000000    0.2652519500000000 Si
   0.2652519500000000    0.7221705800000000    0.7221705800000000 Si
   0.7221705800000000    0.2652519500000000    0.7221705800000000 Si
   0.2778294200000000    0.7347480500000000    0.2778294200000000 Si
   0.0000000000000000    0.0000000000000000    0.0000000000000000 Sn
   0.1892805900000000    0.9223916200000000    0.1892805900000000 O
   0.7585077500000000    0.2414922500000000    0.5000000000000000 O
   0.2099759700000000    0.5468888100000000    0.2099759700000000 O
   0.2414922500000000    0.7585077500000000    0.5000000000000000 O
   0.4531111900000000    0.7900240300000000    0.7900240300000000 O
   0.5000000000000000    0.2414922500000000    0.7585077500000000 O
   0.7585077500000000    0.5000000000000000    0.2414922500000000 O
   0.1892805900000000    0.1892805900000000    0.9223916200000000 O
   0.8107194100000000    0.0776083800000000    0.8107194100000000 O
   0.8107194100000000    0.8107194100000000    0.0776083800000000 O
   0.7900240300000000    0.7900240300000000    0.4531111900000000 O
   0.0776083800000000    0.8107194100000000    0.8107194100000000 O
   0.5000000000000000    0.7585077500000000    0.2414922500000000 O
   0.7900240300000000    0.4531111900000000    0.7900240300000000 O
   0.2099759700000000    0.2099759700000000    0.5468888100000000 O
   0.9223916200000000    0.1892805900000000    0.1892805900000000 O
   0.2414922500000000    0.5000000000000000    0.7585077500000000 O
   0.5468888100000000    0.2099759700000000    0.2099759700000000 O
