Na6 Li2 P4 O14
1.0
   2.7242443500000002   -4.5646971000000001    0.0000000000000000
   2.7242443500000002    4.5646971000000001    0.0000000000000000
   0.0000000000000000    0.0000000000000000   12.1657676899999991
Na Li P O
6 2 4 14
direct
   0.3450600900000000    0.3450600900000000    0.5000000000000000 Na
   0.6549399100000000    0.6549399100000000    0.0000000000000000 Na
   0.0472601100000000    0.6981019900000000    0.6192846500000000 Na
   0.6981019900000000    0.0472601100000000    0.3807153500000000 Na
   0.9527398900000000    0.3018980100000000    0.1192846500000000 Na
   0.3018980100000000    0.9527398900000000    0.8807153500000000 Na
   0.5423908500000000    0.4576091500000000    0.7500000000000000 Li
   0.4576091500000000    0.5423908500000000    0.2500000000000000 Li
   0.6932440200000000    0.0227473200000000    0.6475455400000000 P
   0.0227473200000000    0.6932440200000000    0.3524544600000000 P
   0.3067559800000000    0.9772526800000000    0.1475455400000000 P
   0.9772526800000000    0.3067559800000000    0.8524544600000000 P
   0.5877550700000000    0.7044043600000000    0.6257887700000000 O
   0.7044043600000000    0.5877550700000000    0.3742112300000000 O
   0.4122449300000000    0.2955956400000000    0.1257887700000000 O
   0.2955956400000000    0.4122449300000000    0.8742112300000000 O
   0.8729667900000000    0.2201196300000000    0.5550255600000000 O
   0.2201196300000000    0.8729667900000000    0.4449744400000000 O
   0.1270332100000000    0.7798803700000000    0.0550255600000000 O
   0.7798803700000000    0.1270332100000000    0.9449744400000000 O
   0.4551557000000000    0.0850031100000000    0.6877830300000000 O
   0.0850031100000000    0.4551557000000000    0.3122169700000000 O
   0.5448442999999999    0.9149968900000000    0.1877830300000000 O
   0.9149968900000000    0.5448442999999999    0.8122169700000000 O
   0.9138426600000000    0.0861573400000000    0.7500000000000000 O
   0.0861573400000000    0.9138426600000000    0.2500000000000000 O
