Ca4 Ta4 O14
1.0
   0.0000000000000000    5.2189842200000003    5.2189842200000003
   5.2189842200000003    0.0000000000000000    5.2189842200000003
   5.2189842200000003    5.2189842200000003    0.0000000000000000
Ca Ta O
4 4 14
direct
   0.1250000000000000    0.1250000000000000    0.6250000000000000 Ca
   0.1250000000000000    0.6250000000000000    0.1250000000000000 Ca
   0.6250000000000000    0.1250000000000000    0.1250000000000000 Ca
   0.1250000000000000    0.1250000000000000    0.1250000000000000 Ca
   0.6250000000000000    0.6250000000000000    0.1250000000000000 Ta
   0.6250000000000000    0.1250000000000000    0.6250000000000000 Ta
   0.1250000000000000    0.6250000000000000    0.6250000000000000 Ta
   0.6250000000000000    0.6250000000000000    0.6250000000000000 Ta
   0.3060898100000000    0.6939101900000000    0.3060898100000000 O
   0.5560898100000000    0.9439101900000000    0.5560898100000000 O
   0.3060898100000000    0.3060898100000000    0.6939101900000000 O
   0.6939101900000000    0.3060898100000000    0.3060898100000000 O
   0.3060898100000000    0.6939101900000000    0.6939101900000000 O
   0.6939101900000000    0.6939101900000000    0.3060898100000000 O
   0.9439101900000000    0.9439101900000000    0.5560898100000000 O
   0.5560898100000000    0.5560898100000000    0.9439101900000000 O
   0.0000000000000000    0.0000000000000000    0.0000000000000000 O
   0.2500000000000000    0.2500000000000000    0.2500000000000000 O
   0.6939101900000000    0.3060898100000000    0.6939101900000000 O
   0.9439101900000000    0.5560898100000000    0.5560898100000000 O
   0.5560898100000000    0.9439101900000000    0.9439101900000000 O
   0.9439101900000000    0.5560898100000000    0.9439101900000000 O
