Na2 Ga2 Si4 O12
1.0
   4.7991830200000001   -4.3493424899999997   -0.0014470600000000
   4.7991830200000001    4.3493424899999997   -0.0014470600000000
  -1.6290426000000000    0.0000000000000000    5.0351605499999996
Na Ga Si O
2 2 4 12
direct
   0.2988751400000000    0.7011248600000000    0.7500000000000000 Na
   0.7011248600000000    0.2988751400000000    0.2500000000000000 Na
   0.9025407200000000    0.0974592800000000    0.7500000000000000 Ga
   0.0974592800000000    0.9025407200000000    0.2500000000000000 Ga
   0.1995165800000000    0.3830594500000000    0.2338031000000000 Si
   0.8004834199999999    0.6169405500000000    0.7661969000000000 Si
   0.6169405500000000    0.8004834199999999    0.2661969000000000 Si
   0.3830594500000000    0.1995165800000000    0.7338031000000000 Si
   0.6372190900000000    0.6548334800000000    0.4885988200000000 O
   0.3451665200000000    0.3627809100000000    0.0114011800000000 O
   0.3627809100000000    0.3451665200000000    0.5114011800000000 O
   0.6548334800000000    0.6372190900000000    0.9885988200000000 O
   0.3801300800000000    0.9019194500000000    0.1948947600000000 O
   0.0980805500000000    0.6198699200000000    0.3051052400000000 O
   0.6198699200000000    0.0980805500000000    0.8051052400000001 O
   0.9019194500000000    0.3801300800000000    0.6948947599999999 O
   0.9683931300000000    0.8090407600000000    0.8649581500000000 O
   0.1909592400000000    0.0316068700000000    0.6350418500000000 O
   0.0316068700000000    0.1909592400000000    0.1350418500000000 O
   0.8090407600000000    0.9683931300000000    0.3649581500000000 O
