Sr4 Ta4 N4 O8
1.0
   3.9823500699999999   -4.0871427999999996    0.0000000000000000
   3.9823500699999999    4.0871427999999996    0.0000000000000000
   0.0000000000000000    0.0000000000000000    8.0203465699999992
Sr Ta N O
4 4 4 8
direct
   0.2546008700000000    0.7453991300000000    0.5000000000000000 Sr
   0.7453991300000000    0.2546008700000000    0.5000000000000000 Sr
   0.7446735200000000    0.2553264800000000    0.0000000000000000 Sr
   0.2553264800000000    0.7446735200000000    0.0000000000000000 Sr
   0.2553527600000000    0.2392702300000000    0.7549563800000000 Ta
   0.2392702300000000    0.2553527600000000    0.2450436200000000 Ta
   0.7607297700000000    0.7446472400000000    0.2450436200000000 Ta
   0.7446472400000000    0.7607297700000000    0.7549563800000000 Ta
   0.0000000000000000    0.5000000000000000    0.2553868400000000 N
   0.2088816900000000    0.2088816900000000    0.0000000000000000 N
   0.7911183100000000    0.7911183100000000    0.0000000000000000 N
   0.5000000000000000    0.0000000000000000    0.7446131600000000 N
   0.0000000000000000    0.5000000000000000    0.7396158800000000 O
   0.7048535100000000    0.7048535100000000    0.5000000000000000 O
   0.0000000000000000    0.0000000000000000    0.3017532700000000 O
   0.5000000000000000    0.5000000000000000    0.7868626500000000 O
   0.0000000000000000    0.0000000000000000    0.6982467300000000 O
   0.5000000000000000    0.5000000000000000    0.2131373500000000 O
   0.2951464900000000    0.2951464900000000    0.5000000000000000 O
   0.5000000000000000    0.0000000000000000    0.2603841200000000 O
