Ba4 Ti5 Pb1 O15
1.0
   4.0036306599999998    0.0000000000000000    0.0000000000000000
   0.0000000000000000    4.0036306599999998    0.0000000000000000
   0.0000000000000000    0.0000000000000000   20.0100738800000002
Ba Ti Pb O
4 5 1 15
direct
   0.0000000000000000    0.0000000000000000    0.1978884400000000 Ba
   0.0000000000000000    0.0000000000000000    0.3993718300000000 Ba
   0.0000000000000000    0.0000000000000000    0.6006281700000000 Ba
   0.0000000000000000    0.0000000000000000    0.8021115599999999 Ba
   0.5000000000000000    0.5000000000000000    0.0976621700000000 Ti
   0.5000000000000000    0.5000000000000000    0.2987790100000000 Ti
   0.5000000000000000    0.5000000000000000    0.5000000000000000 Ti
   0.5000000000000000    0.5000000000000000    0.7012209900000000 Ti
   0.5000000000000000    0.5000000000000000    0.9023378300000000 Ti
   0.0000000000000000    0.0000000000000000    0.0000000000000000 Pb
   0.0000000000000000    0.5000000000000000    0.0970869000000000 O
   0.0000000000000000    0.5000000000000000    0.2987098200000000 O
   0.0000000000000000    0.5000000000000000    0.5000000000000000 O
   0.0000000000000000    0.5000000000000000    0.7012901800000000 O
   0.0000000000000000    0.5000000000000000    0.9029131000000000 O
   0.5000000000000000    0.0000000000000000    0.0970869000000000 O
   0.5000000000000000    0.0000000000000000    0.2987098200000000 O
   0.5000000000000000    0.0000000000000000    0.5000000000000000 O
   0.5000000000000000    0.0000000000000000    0.7012901800000000 O
   0.5000000000000000    0.0000000000000000    0.9029131000000000 O
   0.5000000000000000    0.5000000000000000    0.0000000000000000 O
   0.5000000000000000    0.5000000000000000    0.1982533600000000 O
   0.5000000000000000    0.5000000000000000    0.3993824700000000 O
   0.5000000000000000    0.5000000000000000    0.6006175300000000 O
   0.5000000000000000    0.5000000000000000    0.8017466400000000 O
