Mg4 Ga4 B4 O16
1.0
   9.2481222400000007    0.0000000000000000    0.0000000000000000
   0.0000000000000000    3.0680332899999998    0.0000000000000000
   0.0000000000000000    0.0000000000000000    9.3118325100000003
Mg Ga B O
4 4 4 16
direct
   0.6036305000000000    0.2500000000000000    0.8153525400000000 Mg
   0.3963695000000000    0.7500000000000000    0.1846474600000000 Mg
   0.8963695000000000    0.7500000000000000    0.3153525400000000 Mg
   0.1036305000000000    0.2500000000000000    0.6846474600000000 Mg
   0.6151370400000000    0.2500000000000000    0.4317455400000000 Ga
   0.3848629600000000    0.7500000000000000    0.5682544600000000 Ga
   0.8848629600000000    0.7500000000000000    0.9317455400000000 Ga
   0.1151370400000000    0.2500000000000000    0.0682544600000000 Ga
   0.6659657900000000    0.2500000000000000    0.1295554900000000 B
   0.3340342100000000    0.7500000000000000    0.8704445100000000 B
   0.8340342100000000    0.7500000000000000    0.6295554900000000 B
   0.1659657900000000    0.2500000000000000    0.3704445100000000 B
   0.0085467400000000    0.2500000000000000    0.8842934400000000 O
   0.9914532600000000    0.7500000000000000    0.1157065600000000 O
   0.4914532600000000    0.7500000000000000    0.3842934400000000 O
   0.5085467400000000    0.2500000000000000    0.6157065600000000 O
   0.5213226300000000    0.2500000000000000    0.1293044200000000 O
   0.4786773700000000    0.7500000000000000    0.8706955800000000 O
   0.9786773700000000    0.7500000000000000    0.6293044200000000 O
   0.0213226300000000    0.2500000000000000    0.3706955800000000 O
   0.7437696600000000    0.2500000000000000    0.9992206600000000 O
   0.2562303400000000    0.7500000000000000    0.0007793400000000 O
   0.7562303400000000    0.7500000000000000    0.4992206600000000 O
   0.2437696600000000    0.2500000000000000    0.5007793400000000 O
   0.7427608800000000    0.2500000000000000    0.2598167200000000 O
   0.2572391200000000    0.7500000000000000    0.7401832800000000 O
   0.7572391200000000    0.7500000000000000    0.7598167200000000 O
   0.2427608800000000    0.2500000000000000    0.2401832800000000 O
