In4 Sb4 O16
1.0
   7.5334180100000001    0.0000000000000000    0.0101318500000000
   0.0000000000000000    5.2768540499999999    0.0000000000000000
  -1.3773420400000000    0.0000000000000000    7.3431940899999999
In Sb O
4 4 16
direct
   0.8414687000000000    0.7395120100000000    0.6383330000000000 In
   0.1585313000000000    0.2604879900000000    0.3616670000000000 In
   0.1585313000000000    0.2395120100000000    0.8616670000000000 In
   0.8414687000000000    0.7604879900000000    0.1383330000000000 In
   0.6680615900000000    0.2447206500000000    0.8142244100000000 Sb
   0.3319384100000000    0.7552793500000000    0.1857755900000000 Sb
   0.3319384100000000    0.7447206500000000    0.6857755900000000 Sb
   0.6680615900000000    0.2552793500000000    0.3142244100000000 Sb
   0.8109920400000000    0.5480625900000000    0.8942223200000000 O
   0.1890079600000000    0.4519374100000000    0.1057776800000000 O
   0.1890079600000000    0.0480625900000000    0.6057776800000000 O
   0.8109920400000000    0.9519374100000000    0.3942223200000000 O
   0.8984017800000000    0.0607382500000000    0.8188954400000000 O
   0.1015982200000000    0.9392617500000000    0.1811045600000000 O
   0.1015982200000000    0.5607382500000000    0.6811045600000000 O
   0.8984017800000000    0.4392617500000000    0.3188954400000000 O
   0.6746340100000000    0.3952452800000000    0.5640747900000000 O
   0.3253659900000000    0.6047547200000000    0.4359252100000000 O
   0.3253659900000000    0.8952452800000000    0.9359252100000000 O
   0.6746340100000000    0.1047547200000000    0.0640747900000000 O
   0.4316864500000000    0.4186859400000000    0.8080992100000000 O
   0.5683135499999999    0.5813140600000000    0.1919007900000000 O
   0.5683135499999999    0.9186859400000000    0.6919007900000000 O
   0.4316864500000000    0.0813140600000000    0.3080992100000000 O
