Ca2 Ti3 O8
1.0
   5.5567572399999996   -3.0491344400000000   -0.0058987100000000
   5.5567572399999996    3.0491344400000000   -0.0058987100000000
  -1.7743230100000000    0.0000000000000000    4.7877108000000002
Ca Ti O
2 3 8
direct
   0.7246126500000000    0.7246126500000000    0.6598320900000000 Ca
   0.2753873500000000    0.2753873500000000    0.3401679100000000 Ca
   0.0000000000000000    0.0000000000000000    0.5000000000000000 Ti
   0.2632514200000000    0.7367485800000000    0.0000000000000000 Ti
   0.7367485800000000    0.2632514200000000    0.0000000000000000 Ti
   0.3943901000000000    0.3943901000000000    0.0511091400000000 O
   0.6056099000000000    0.6056099000000000    0.9488908600000000 O
   0.8996735800000000    0.8996735800000000    0.0914799900000000 O
   0.1003264200000000    0.1003264200000000    0.9085200100000000 O
   0.8850781200000000    0.3272878300000000    0.3960084200000000 O
   0.3272878300000000    0.8850781200000000    0.3960084200000000 O
   0.6727121700000001    0.1149218800000000    0.6039915800000000 O
   0.1149218800000000    0.6727121700000001    0.6039915800000000 O
