Sn3 Te1 Pb4 O13
1.0
   3.7324099700000000    2.1549073399999998    6.1917958500000001
  -3.7324099700000000    2.1549073399999998    6.1917958500000001
   0.0000000000000000   -4.3098156699999999    6.1917958500000001
Sn Te Pb O
3 1 4 13
direct
   0.5005212500000000    0.5005212500000000    0.9997248000000000 Sn
   0.5005212500000000    0.9997248000000000    0.5005212500000000 Sn
   0.9997248000000000    0.5005212500000000    0.5005212500000000 Sn
   0.5008517500000000    0.5008517500000000    0.5008517500000000 Te
   0.0016965200000000    0.0016965200000000    0.4945539300000000 Pb
   0.0016965200000000    0.4945539300000000    0.0016965200000000 Pb
   0.4945539300000000    0.0016965200000000    0.0016965200000000 Pb
   0.9988199400000000    0.9988199400000000    0.9988199400000000 Pb
   0.5748105700000000    0.1684027600000000    0.1684027600000000 O
   0.1909645500000000    0.5714789500000000    0.5714789500000000 O
   0.1684027600000000    0.5748105700000000    0.1684027600000000 O
   0.5714789500000000    0.1909645500000000    0.5714789500000000 O
   0.1684027600000000    0.1684027600000000    0.5748105700000000 O
   0.5714789500000000    0.5714789500000000    0.1909645500000000 O
   0.4291801400000000    0.8298751300000000    0.8298751300000000 O
   0.8082699000000000    0.4313387100000000    0.4313387100000000 O
   0.8298751300000000    0.4291801400000000    0.8298751300000000 O
   0.4313387100000000    0.8082699000000000    0.4313387100000000 O
   0.8298751300000000    0.8298751300000000    0.4291801400000000 O
   0.4313387100000000    0.4313387100000000    0.8082699000000000 O
   0.8711967500000000    0.8711967500000000    0.8711967500000000 O
