Li8 Si2 O8
1.0
   5.0072712700000004    0.0014895300000000   -0.0020521300000000
   1.8517594200000000    4.6577487199999998    0.0029831800000000
   2.4433800500000000    0.0535623800000000    7.0912190300000004
Li Si O
8 2 8
direct
   0.7615287100000000    0.7361772400000000    0.0066074200000000 Li
   0.2384712900000000    0.2638227600000000    0.9933925800000000 Li
   0.5116662700000000    0.7632212700000000    0.4430134300000000 Li
   0.4883337300000000    0.2367787300000000    0.5569865700000000 Li
   0.0759213600000000    0.2498461500000000    0.4077419500000000 Li
   0.9240786400000000    0.7501538500000000    0.5922580500000000 Li
   0.6114915500000000    0.2140585800000000    0.1934521700000000 Li
   0.3885084500000000    0.7859414200000000    0.8065478300000000 Li
   0.8408103700000000    0.2183335300000000    0.7631034000000000 Si
   0.1591896300000000    0.7816664700000000    0.2368966000000000 Si
   0.6347136500000000    0.0133614300000000    0.8062335300000000 O
   0.3652863500000000    0.9866385700000000    0.1937664700000000 O
   0.3005452800000000    0.5174658300000000    0.3749003100000000 O
   0.6994547200000000    0.4825341700000000    0.6250996900000000 O
   0.8193899300000000    0.9715488200000000    0.3693720600000000 O
   0.1806100700000000    0.0284511800000000    0.6306279400000000 O
   0.1501582500000000    0.6645254700000000    0.0468715500000000 O
   0.8498417500000000    0.3354745300000000    0.9531284500000000 O
