Cs4 V2 Ag2 S8
1.0
   0.0000000000000000    6.9284180700000002   11.9497135100000005
   2.8917329299999999    0.0000000000000000   11.9497135100000005
   2.8917329299999999    6.9284180700000002    0.0000000000000000
Cs V Ag S
4 2 2 8
direct
   0.6796642899999999    0.6796642899999999    0.3203357100000000 Cs
   0.3203357100000000    0.3203357100000000    0.6796642899999999 Cs
   0.9296642899999999    0.9296642899999999    0.5703357100000001 Cs
   0.5703357100000001    0.5703357100000001    0.9296642899999999 Cs
   0.7500000000000000    0.7500000000000000    0.7500000000000000 V
   0.5000000000000000    0.5000000000000000    0.5000000000000000 V
   0.0000000000000000    0.0000000000000000    0.0000000000000000 Ag
   0.2500000000000000    0.2500000000000000    0.2500000000000000 Ag
   0.3960121200000000    0.9973084800000001    0.9176285400000000 S
   0.6890508600000000    0.9176285400000000    0.9973084800000001 S
   0.9176285400000000    0.6890508600000000    0.3960121200000000 S
   0.9973084800000001    0.3960121200000000    0.6890508600000000 S
   0.2526915200000000    0.8539878800000000    0.5609491400000000 S
   0.5609491400000000    0.3323714600000000    0.2526915200000000 S
   0.3323714600000000    0.5609491400000000    0.8539878800000000 S
   0.8539878800000000    0.2526915200000000    0.3323714600000000 S
