Rb2 Sr1 P4 O12
1.0
  -3.8015276800000000    3.8015279000000000    5.1355346500000003
   3.8015276800000000   -3.8015279000000000    5.1355346500000003
   3.8015279000000000    3.8015276800000000   -5.1355346500000003
Rb Sr P O
2 1 4 12
direct
   0.4246543400000000    0.9246543400000000    0.5000000000000000 Rb
   0.0753456600000000    0.5753456600000000    0.5000000000000000 Rb
   0.0000000000000000    0.0000000000000000    0.0000000000000000 Sr
   0.5602840800000000    0.0071931000000000    0.1270660900000000 P
   0.8801270100000000    0.4332179900000000    0.8729339100000000 P
   0.5667820099999999    0.4397159200000000    0.4469090200000000 P
   0.9928069000000000    0.1198729900000000    0.5530909800000000 P
   0.6264776500000000    0.2701350000000000    0.2620507900000000 O
   0.0080842100000000    0.3644268600000000    0.7379492100000000 O
   0.6355731400000000    0.3735223500000000    0.6436563500000000 O
   0.7298650000000000    0.9919157900000000    0.3563436500000000 O
   0.6107498400000000    0.9230627000000000    0.9364070700000000 O
   0.9866556300000000    0.6743437700000000    0.0635929300000000 O
   0.3256562300000000    0.3892501600000000    0.3123128600000000 O
   0.0769373000000000    0.0133443700000000    0.6876871400000000 O
   0.3388080900000000    0.9087763599999999    0.0591475500000000 O
   0.8496288100000000    0.2796605500000000    0.9408524500000000 O
   0.7203394500000000    0.6611919100000000    0.5699682700000001 O
   0.0912236400000000    0.1503711900000000    0.4300317300000000 O
