Mg2 S4 O14
1.0
   4.9216322699999999    0.0280810500000000   -0.0029050700000000
  -1.9073232000000000    6.6997144500000001    0.0175389000000000
  -0.6749017700000000   -0.5553474400000000    8.2358996700000002
Mg S O
2 4 14
direct
   0.0000000000000000    0.5000000000000000    0.0000000000000000 Mg
   0.5000000000000000    0.0000000000000000    0.5000000000000000 Mg
   0.4983402600000000    0.6420849300000000    0.7661852900000000 S
   0.5016597400000000    0.3579150700000000    0.2338147100000000 S
   0.1290743800000000    0.2481113700000000    0.6898944000000000 S
   0.8709256200000000    0.7518886299999999    0.3101056000000000 S
   0.7242681500000000    0.5552578900000000    0.8190670799999999 O
   0.2757318500000000    0.4447421100000000    0.1809329200000000 O
   0.3311165300000000    0.6810786800000000    0.8937002800000000 O
   0.6688834700000000    0.3189213200000000    0.1062997200000000 O
   0.5866338400000000    0.8055667100000000    0.6634628200000000 O
   0.4133661600000000    0.1944332900000000    0.3365371800000000 O
   0.2807383400000000    0.4742061100000000    0.6370196700000000 O
   0.7192616600000000    0.5257938900000000    0.3629803300000000 O
   0.8925579400000000    0.1895988900000000    0.5661072300000000 O
   0.1074420600000000    0.8104011100000000    0.4338927700000000 O
   0.3371906400000000    0.1365577600000000    0.6794131700000000 O
   0.6628093600000000    0.8634422400000000    0.3205868300000000 O
   0.0559286700000000    0.2707546500000000    0.8545210600000001 O
   0.9440713300000000    0.7292453500000000    0.1454789400000000 O
