Ba2 S6
1.0
   6.8284381700000001    0.0000000000000000    0.0000000000000000
   0.0000000000000000    6.8284381700000001    0.0000000000000000
   0.0000000000000000    0.0000000000000000    4.1184029799999999
Ba S
2 6
direct
   0.5000000000000000    0.5000000000000000    0.0000000000000000 Ba
   0.0000000000000000    0.0000000000000000    0.0000000000000000 Ba
   0.8193915000000001    0.6806084999999999    0.4836742400000000 S
   0.3193915000000000    0.8193915000000001    0.5163257600000000 S
   0.0000000000000000    0.5000000000000000    0.2096836400000000 S
   0.5000000000000000    0.0000000000000000    0.7903163600000001 S
   0.1806085000000000    0.3193915000000000    0.4836742400000000 S
   0.6806084999999999    0.1806085000000000    0.5163257600000000 S
