Na4 Te8 O18
1.0
   6.8644965800000000    0.0003426900000000    0.0000485600000000
   2.6206087700000000    6.8015288600000003    0.0004630000000000
   2.6025031699999999    2.8874591999999999    9.7093369599999999
Na Te O
4 8 18
direct
   0.9777582100000000    0.4564968000000000    0.3652787300000000 Na
   0.0222417900000000    0.5435032000000000    0.6347212700000000 Na
   0.4783191000000000    0.2643631900000000    0.5119695399999999 Na
   0.5216809000000000    0.7356368100000000    0.4880304600000000 Na
   0.0249620000000000    0.0027508600000000    0.6710452800000000 Te
   0.9750380000000000    0.9972491400000000    0.3289547200000000 Te
   0.5106696700000000    0.5999662900000000    0.1995068000000000 Te
   0.4893303300000000    0.4000337100000000    0.8004932000000000 Te
   0.4623296400000000    0.1514875800000000    0.2081600000000000 Te
   0.5376703600000000    0.8485124200000000    0.7918400000000000 Te
   0.0096547400000000    0.7075986900000000    0.0134400000000000 Te
   0.9903452600000000    0.2924013100000000    0.9865600000000000 Te
   0.9630262200000000    0.9884203200000000    0.8647943400000000 O
   0.0369737800000000    0.0115796800000000    0.1352056600000000 O
   0.0443425600000000    0.7173135600000000    0.4034594300000000 O
   0.9556574400000000    0.2826864400000000    0.5965405700000000 O
   0.7075344500000000    0.7733282900000000    0.0960414800000000 O
   0.2924655500000000    0.2266717100000000    0.9039585200000000 O
   0.3363867400000000    0.0041749300000000    0.6656305300000001 O
   0.6636132600000000    0.9958250700000000    0.3343694700000000 O
   0.0625436400000000    0.3827123200000000    0.1176931100000000 O
   0.9374563600000000    0.6172876800000000    0.8823068900000000 O
   0.6359073400000000    0.5002544100000000    0.3571818300000000 O
   0.3640926600000000    0.4997455900000000    0.6428181700000000 O
   0.6665535600000000    0.3839422700000000    0.1101939000000000 O
   0.3334464400000000    0.6160577300000000    0.8898061000000000 O
   0.6648011800000000    0.6371190100000000    0.7022691200000000 O
   0.3351988200000000    0.3628809900000000    0.2977308800000000 O
   0.2907226400000000    0.9761901100000000    0.3286530200000000 O
   0.7092773600000000    0.0238098900000000    0.6713469800000000 O
