Na6 Si2 Sn2 B2 O14
1.0
   5.2712026999999999    0.0000000000000000    0.0067696800000000
   0.0000000000000000    6.6868046400000001    0.0000000000000000
  -0.2985509600000000    0.0000000000000000    8.9573512799999992
Na Si Sn B O
6 2 2 2 14
direct
   0.7658011000000000    0.7500000000000000    0.9178211800000000 Na
   0.2527305100000000    0.9946020300000000    0.7525915900000000 Na
   0.2527305100000000    0.5053979700000000    0.7525915900000000 Na
   0.7472694900000000    0.4946020300000000    0.2474084100000000 Na
   0.7472694900000000    0.0053979700000000    0.2474084100000000 Na
   0.2341989000000000    0.2500000000000000    0.0821788200000000 Na
   0.7169994200000001    0.7500000000000000    0.5759317300000000 Si
   0.2830005800000000    0.2500000000000000    0.4240682700000000 Si
   0.7834712600000000    0.2500000000000000    0.6608659600000000 Sn
   0.2165287400000000    0.7500000000000000    0.3391340400000000 Sn
   0.7200572700000000    0.2500000000000000    0.9410770500000000 B
   0.2799427300000000    0.7500000000000000    0.0589229500000000 B
   0.3228064800000000    0.7500000000000000    0.9124801500000000 O
   0.9612324799999999    0.2500000000000000    0.8776327300000000 O
   0.5216225900000000    0.2500000000000000    0.8296789300000000 O
   0.7965951600000000    0.9415486700000000    0.6810351900000000 O
   0.7965951600000000    0.5584513300000000    0.6810351900000000 O
   0.4060654900000000    0.7500000000000000    0.5416553700000000 O
   0.1441632900000000    0.2500000000000000    0.5840720900000000 O
   0.8558367099999999    0.7500000000000000    0.4159279100000000 O
   0.5939345100000000    0.2500000000000000    0.4583446300000000 O
   0.2034048400000000    0.4415486700000000    0.3189648100000000 O
   0.2034048400000000    0.0584513300000000    0.3189648100000000 O
   0.4783774100000000    0.7500000000000000    0.1703210700000000 O
   0.0387675200000000    0.7500000000000000    0.1223672700000000 O
   0.6771935200000000    0.2500000000000000    0.0875198500000000 O
