Mo4 O12
1.0
   5.5418544000000001    0.0000000000000000    0.0000000000000000
   0.0000000000000000    5.3573793099999998    0.0000000000000000
   0.0000000000000000    0.0000000000000000    7.2779245699999997
Mo O
4 12
direct
   0.9293746300000000    0.9967897100000001    0.4986033700000000 Mo
   0.4293746300000000    0.5032102899999999    0.4986033700000000 Mo
   0.5706253700000000    0.4967897100000000    0.9986033700000000 Mo
   0.0706253700000000    0.0032102900000000    0.9986033700000000 Mo
   0.7516065300000000    0.7279550800000000    0.4627917000000000 O
   0.2516065300000000    0.7720449200000000    0.4627917000000000 O
   0.7938568499999999    0.7222405100000000    0.0454968700000000 O
   0.2938568500000000    0.7777594900000000    0.0454968700000000 O
   0.5093484100000000    0.5776357600000001    0.7534570600000000 O
   0.0093484100000000    0.9223642399999999    0.7534570600000000 O
   0.2061431500000000    0.2777594900000000    0.5454968700000000 O
   0.7061431500000001    0.2222405100000000    0.5454968700000000 O
   0.4906515900000000    0.4223642400000000    0.2534570600000000 O
   0.9906515900000000    0.0776357600000000    0.2534570600000000 O
   0.7483934700000000    0.2279550800000000    0.9627917000000000 O
   0.2483934700000000    0.2720449200000000    0.9627917000000000 O
