Ba1 Nb2 V2 O11
1.0
   2.8032858100000002    1.6184772900000000    9.4698793499999994
  -2.8032858100000002    1.6184772900000000    9.4698793499999994
   0.0000000000000000   -3.2369555600000002    9.4698793499999994
Ba Nb V O
1 2 2 11
direct
   0.0000000000000000    0.0000000000000000    0.0000000000000000 Ba
   0.8702488500000000    0.8702488500000000    0.8702488500000000 Nb
   0.1297511500000000    0.1297511500000000    0.1297511500000000 Nb
   0.6026662200000000    0.6026662200000000    0.6026662200000000 V
   0.3973337800000000    0.3973337800000000    0.3973337800000000 V
   0.5000000000000000    0.0000000000000000    0.0000000000000000 O
   0.0000000000000000    0.5000000000000000    0.0000000000000000 O
   0.0000000000000000    0.0000000000000000    0.5000000000000000 O
   0.7568926300000000    0.7568926300000000    0.2405466500000000 O
   0.2405466500000000    0.7568926300000000    0.7568926300000000 O
   0.7568926300000000    0.2405466500000000    0.7568926300000000 O
   0.2431073700000000    0.2431073700000000    0.7594533500000000 O
   0.7594533500000000    0.2431073700000000    0.2431073700000000 O
   0.2431073700000000    0.7594533500000000    0.2431073700000000 O
   0.6610703000000000    0.6610703000000000    0.6610703000000000 O
   0.3389297000000000    0.3389297000000000    0.3389297000000000 O
