Li4 Cd2 Ge2 S8
1.0
   7.7234395300000003    0.0000000000000000    0.0000000000000000
   0.0000000000000000    6.8251255200000003    0.0000000000000000
   0.0000000000000000    0.0000000000000000    6.3737600399999996
Li Cd Ge S
4 2 2 8
direct
   0.7455848300000000    0.6704257300000001    0.6248180500000000 Li
   0.2544151700000000    0.6704257300000001    0.6248180500000000 Li
   0.7544151700000000    0.3295742700000000    0.1248180500000000 Li
   0.2455848300000000    0.3295742700000000    0.1248180500000000 Li
   0.5000000000000000    0.8523273400000000    0.1270410500000000 Cd
   0.0000000000000000    0.1476726600000000    0.6270410500000000 Cd
   0.0000000000000000    0.8267464900000000    0.1246739400000000 Ge
   0.5000000000000000    0.1732535100000000    0.6246739400000000 Ge
   0.5000000000000000    0.8619134800000000    0.7292971000000000 S
   0.0000000000000000    0.1380865200000000    0.2292971000000000 S
   0.7685292800000000    0.6663211000000000    0.2466519500000000 S
   0.2314707200000000    0.6663211000000000    0.2466519500000000 S
   0.7314707200000000    0.3336789000000000    0.7466519500000000 S
   0.2685292800000000    0.3336789000000000    0.7466519500000000 S
   0.0000000000000000    0.8067316200000000    0.7749189000000000 S
   0.5000000000000000    0.1932683800000000    0.2749189000000000 S
