Tl4 In4 Hg4 S12
1.0
   6.8755616399999999   -1.9646977000000001    0.0164201300000000
   6.8755616399999999    1.9646977000000001    0.0164201300000000
  -5.0810536900000001    0.0000000000000000   20.7312904899999992
Tl In Hg S
4 4 4 12
direct
   0.8892925400000000    0.1222284800000000    0.4230224500000000 Tl
   0.8777715200000000    0.1107074600000000    0.0769775500000000 Tl
   0.1107074600000000    0.8777715200000000    0.5769775500000000 Tl
   0.1222284800000000    0.8892925400000000    0.9230224500000000 Tl
   0.1752866100000000    0.3123599700000000    0.3252518300000000 In
   0.6876400300000000    0.8247133900000000    0.1747481700000000 In
   0.8247133900000000    0.6876400300000000    0.6747481700000000 In
   0.3123599700000000    0.1752866100000000    0.8252518300000000 In
   0.4229597300000000    0.5770402700000000    0.2500000000000000 Hg
   0.5770402700000000    0.4229597300000000    0.7500000000000000 Hg
   0.5000000000000000    0.0000000000000000    0.5000000000000000 Hg
   0.0000000000000000    0.5000000000000000    0.0000000000000000 Hg
   0.5539947200000001    0.6927066800000000    0.3496036000000000 S
   0.3072933200000000    0.4460052800000000    0.1503964000000000 S
   0.4460052800000000    0.3072933200000000    0.6503964000000000 S
   0.6927066800000000    0.5539947200000001    0.8496036000000000 S
   0.7889433200000000    0.9216291200000000    0.2963433200000000 S
   0.0783708800000000    0.2110566800000000    0.2036566800000000 S
   0.2110566800000000    0.0783708800000000    0.7036566800000000 S
   0.9216291200000000    0.7889433200000000    0.7963433200000000 S
   0.2430956100000000    0.4419227200000000    0.4451214000000000 S
   0.5580772800000000    0.7569043900000000    0.0548786000000000 S
   0.7569043900000000    0.5580772800000000    0.5548786000000000 S
   0.4419227200000000    0.2430956100000000    0.9451214000000000 S
