Re6 Pb3 O24
1.0
  11.3363257999999991   -0.0000000000000000    0.0000000000000000
  -5.6681624099999999    9.8175461300000002    0.0000000000000000
   0.0000000000000000    0.0000000000000000    4.6183849500000003
Re Pb O
6 3 24
direct
   0.3763145100000000    1.0000000000000000    0.9881445100000000 Re
   1.0000000000000000    0.3763145100000000    0.9881445100000000 Re
   0.6236854900000000    0.6236854900000000    0.9881445100000000 Re
   0.2898857500000000    0.2898857500000000    0.4925816200000000 Re
   1.0000000000000000    0.7101142499999999    0.4925816200000000 Re
   0.7101142499999999    1.0000000000000000    0.4925816200000000 Re
   0.0000000000000000    0.0000000000000000    0.0049503600000000 Pb
   0.3333330000000000    0.6666670000000000    0.4480323400000000 Pb
   0.6666670000000000    0.3333330000000000    0.4480323400000000 Pb
   0.6192990500000000    0.6192990500000000    0.6138417400000000 O
   0.0000000000000000    0.3807009500000000    0.6138417400000000 O
   0.3807009500000000    0.0000000000000000    0.6138417400000000 O
   0.1421582400000000    0.1421582400000000    0.6076767400000000 O
   0.0000000000000000    0.8578417600000000    0.6076767400000000 O
   0.8578417600000000    0.0000000000000000    0.6076767400000000 O
   0.2910546400000000    0.4376672700000000    0.6070416199999999 O
   0.5623327299999999    0.8533873700000000    0.6070416199999999 O
   0.1466126300000000    0.7089453600000000    0.6070416199999999 O
   0.2280962600000000    1.0000000000000000    0.0930195400000000 O
   1.0000000000000000    0.2280962600000000    0.0930195400000000 O
   0.7719037399999999    0.7719037399999999    0.0930195400000000 O
   0.5231228700000000    0.1493004000000000    0.1027344400000000 O
   0.8506996000000000    0.3738224700000000    0.1027344400000000 O
   0.6261775300000000    0.4768771300000000    0.1027344400000000 O
   0.1493004000000000    0.5231228700000000    0.1027344400000000 O
   0.3738224700000000    0.8506996000000000    0.1027344400000000 O
   0.4768771300000000    0.6261775300000000    0.1027344400000000 O
   0.7118669200000000    1.0000000000000000    0.1182107100000000 O
   1.0000000000000000    0.7118669200000000    0.1182107100000000 O
   0.2881330800000000    0.2881330800000000    0.1182107100000000 O
   0.7089453600000000    0.1466126300000000    0.6070416199999999 O
   0.8533873700000000    0.5623327299999999    0.6070416199999999 O
   0.4376672700000000    0.2910546400000000    0.6070416199999999 O
