Ta4 Bi4 O16
1.0
   5.5665370000000003    0.0000000000000000    0.0000000000000000
   0.4772010000000000    7.6867780000000003    0.0000000000000000
   0.0192570000000000    1.6241730000000001    7.5657420000000002
Ta Bi O
4 4 16
direct
   0.2536640000000000    0.8271460000000000    0.8001360000000000 Ta
   0.7220960000000000    0.1619430000000000    0.6996540000000000 Ta
   0.2779040000000000    0.8380570000000001    0.3003460000000000 Ta
   0.7463360000000000    0.1728540000000000    0.1998640000000000 Ta
   0.7355420000000000    0.6215430000000000    0.6156960000000000 Bi
   0.7927590000000000    0.6705250000000000    0.1070260000000000 Bi
   0.2644580000000000    0.3784570000000000    0.3843040000000000 Bi
   0.2072410000000000    0.3294750000000000    0.8929740000000000 Bi
   0.4174970000000000    0.0517620000000000    0.7820560000000000 O
   0.5083569999999999    0.6074480000000000    0.3208790000000000 O
   0.9619070000000000    0.3462460000000000    0.6355780000000000 O
   0.3521950000000000    0.8195040000000000    0.5528350000000000 O
   0.6478050000000000    0.1804960000000000    0.4471650000000000 O
   0.1872540000000000    0.8287740000000000    0.0507890000000000 O
   0.9445040000000000    0.3914130000000000    0.1722320000000000 O
   0.4580530000000000    0.3301160000000000    0.1324910000000000 O
   0.5825030000000000    0.9482380000000000    0.2179440000000000 O
   0.0648910000000000    0.0474240000000000    0.2872510000000000 O
   0.4916430000000000    0.3925520000000000    0.6791210000000000 O
   0.8127460000000000    0.1712260000000000    0.9492110000000000 O
   0.0554960000000000    0.6085870000000000    0.8277679999999999 O
   0.9351090000000000    0.9525760000000000    0.7127490000000000 O
   0.0380930000000000    0.6537539999999999    0.3644220000000000 O
   0.5419470000000000    0.6698840000000000    0.8675090000000000 O
