Zn2 In4 Se8 O24
1.0
   8.5775389999999998    0.0000000000000000    0.0000000000000000
   0.0000000000000000    4.8478370000000002    0.0000000000000000
  -5.8798670000000000    0.0000000000000000   14.0662090000000006
Zn In Se O
2 4 8 24
direct
   0.0000000000000000    0.0000000000000000    0.0000000000000000 Zn
   0.0000000000000000    0.5000000000000000    0.5000000000000000 Zn
   0.8441010000000000    0.5335040000000000    0.7844760000000000 In
   0.8441010000000000    0.9664960000000000    0.2844760000000000 In
   0.1558990000000000    0.4664960000000000    0.2155240000000000 In
   0.1558990000000000    0.0335040000000000    0.7155240000000000 In
   0.2275470000000000    0.5703240000000001    0.8974080000000000 Se
   0.2275470000000000    0.9296759999999999    0.3974080000000000 Se
   0.7724529999999999    0.4296760000000000    0.1025920000000000 Se
   0.7724529999999999    0.0703240000000000    0.6025920000000000 Se
   0.6537570000000000    0.9982720000000000    0.8700860000000000 Se
   0.6537570000000000    0.5017280000000000    0.3700860000000000 Se
   0.3462430000000000    0.0017280000000000    0.1299140000000000 Se
   0.3462430000000000    0.4982720000000000    0.6299140000000000 Se
   0.6304160000000000    0.7685530000000000    0.7799520000000000 O
   0.6304160000000000    0.7314470000000000    0.2799520000000000 O
   0.3695840000000000    0.2314470000000000    0.2200480000000000 O
   0.3695840000000000    0.2685530000000000    0.7200480000000000 O
   0.3021230000000000    0.8215630000000000    0.8451860000000000 O
   0.3021230000000000    0.6784370000000000    0.3451860000000000 O
   0.6978770000000000    0.1784370000000000    0.1548140000000000 O
   0.6978770000000000    0.3215630000000000    0.6548140000000000 O
   0.8284859999999999    0.1999380000000000    0.8757730000000000 O
   0.8284859999999999    0.3000620000000000    0.3757730000000000 O
   0.1715140000000000    0.8000620000000001    0.1242270000000000 O
   0.1715140000000000    0.6999379999999999    0.6242270000000000 O
   0.0505960000000000    0.7157910000000000    0.9076710000000000 O
   0.0505960000000000    0.7842090000000000    0.4076710000000000 O
   0.9494040000000000    0.2842090000000000    0.0923290000000000 O
   0.9494040000000000    0.2157910000000000    0.5923290000000000 O
   0.0991130000000000    0.3675080000000000    0.8012560000000000 O
   0.0991130000000000    0.1324920000000000    0.3012560000000000 O
   0.9008870000000000    0.6324920000000001    0.1987440000000000 O
   0.9008870000000000    0.8675079999999999    0.6987440000000000 O
   0.7753970000000000    0.8217830000000000    0.9702590000000000 O
   0.7753970000000000    0.6782170000000000    0.4702590000000000 O
   0.2246030000000000    0.1782170000000000    0.0297410000000000 O
   0.2246030000000000    0.3217830000000000    0.5297410000000000 O
