Cs4 Li4 Cr4 O16
1.0
   5.5774482599999997    0.0000000000000000   -0.0446091900000000
   0.0000000000000000    9.0519574400000007    0.0000000000000000
  -5.5469923699999999    0.0000000000000000    9.6450813199999992
Cs Li Cr O
4 4 4 16
direct
   0.4553215100000000    0.0032446700000000    0.2297235600000000 Cs
   0.4553215100000000    0.4967553300000000    0.7297235600000000 Cs
   0.5446784900000000    0.9967553300000001    0.7702764400000000 Cs
   0.5446784900000000    0.5032446699999999    0.2702764400000000 Cs
   0.8539908300000000    0.3119965900000000    0.0909096700000000 Li
   0.1460091700000000    0.6880034100000000    0.9090903299999999 Li
   0.1460091700000000    0.8119965900000000    0.4090903300000000 Li
   0.8539908300000000    0.1880034100000000    0.5909096700000001 Li
   0.1870421000000000    0.2925591300000000    0.9284949500000000 Cr
   0.8129579000000000    0.7074408700000000    0.0715050500000000 Cr
   0.1870421000000000    0.2074408700000000    0.4284949500000000 Cr
   0.8129579000000000    0.7925591300000000    0.5715050500000000 Cr
   0.8553809300000000    0.7715021100000000    0.2202351700000000 O
   0.5027013400000000    0.7565892000000000    0.9423651000000000 O
   0.1664836800000000    0.4740668400000000    0.9211938500000000 O
   0.5027013400000000    0.7434108000000000    0.4423651000000000 O
   0.1446190700000000    0.2715021100000000    0.2797648300000000 O
   0.8335163200000000    0.9740668400000000    0.5788061500000000 O
   0.1446190700000000    0.2284978900000000    0.7797648300000000 O
   0.1664836800000000    0.0259331600000000    0.4211938500000000 O
   0.9462619100000000    0.2253060700000000    0.9587352400000000 O
   0.4972986600000000    0.2434108000000000    0.0576349000000000 O
   0.8553809300000000    0.7284978900000000    0.7202351700000000 O
   0.4972986600000000    0.2565892000000000    0.5576349000000000 O
   0.0537380900000000    0.7253060700000000    0.5412647600000000 O
   0.8335163200000000    0.5259331600000000    0.0788061500000000 O
   0.0537380900000000    0.7746939300000000    0.0412647600000000 O
   0.9462619100000000    0.2746939300000000    0.4587352400000000 O
