Ba2 Al4 O8
1.0
   5.2003522000000002    0.0000000000000000    0.0000000000000000
  -2.6001761000000001    4.5036365900000002    0.0000000000000000
   0.0000000000000000    0.0000000000000000    8.9023780400000003
Ba Al O
2 4 8
direct
   0.0000000000000000    0.0000000000000000    0.2500000000000000 Ba
   0.0000000000000000    0.0000000000000000    0.7500000000000000 Ba
   0.3333330000000000    0.6666670000000000    0.4463762900000000 Al
   0.6666670000000000    0.3333330000000000    0.5536237100000000 Al
   0.6666670000000000    0.3333330000000000    0.9463762900000000 Al
   0.3333330000000000    0.6666670000000000    0.0536237100000000 Al
   0.3333330000000000    0.6666670000000000    0.2500000000000000 O
   0.6666670000000000    0.3333330000000000    0.7500000000000000 O
   0.6503547100000000    0.6503547100000000    0.5000000000000000 O
   0.0000000000000000    0.3496452900000000    0.5000000000000000 O
   0.3496452900000000    0.0000000000000000    0.5000000000000000 O
   0.3496452900000000    0.3496452900000000    0.0000000000000000 O
   0.0000000000000000    0.6503547100000000    0.0000000000000000 O
   0.6503547100000000    0.0000000000000000    0.0000000000000000 O
