Rb4 Ag4 O4
1.0
  -4.9726655299999996    4.9726655299999996    2.8795551599999998
   4.9726655299999996   -4.9726655299999996    2.8795551599999998
   4.9726655299999996    4.9726655299999996   -2.8795551599999998
Rb Ag O
4 4 4
direct
   0.8145833800000000    0.5000000000000000    0.3145833800000000 Rb
   0.5000000000000000    0.1854166200000000    0.6854166200000000 Rb
   0.5000000000000000    0.8145833800000000    0.3145833800000000 Rb
   0.1854166200000000    0.5000000000000000    0.6854166200000000 Rb
   0.8566649000000000    0.8566649000000000    0.7133287900000000 Ag
   0.8566649000000000    0.1433351000000000    0.0000000000000000 Ag
   0.1433351000000000    0.8566649000000000    0.0000000000000000 Ag
   0.1433351000000000    0.1433351000000000    0.2866712100000000 Ag
   0.2886524300000000    0.0000000000000000    0.2886524300000000 O
   0.0000000000000000    0.7113475700000000    0.7113475700000000 O
   0.0000000000000000    0.2886524300000000    0.2886524300000000 O
   0.7113475700000000    0.0000000000000000    0.7113475700000000 O
