La2 Ti2 N2 O4
1.0
  -2.8056357799999998    2.8212379799999998    3.9040278900000001
   2.8056357799999998   -2.8212379799999998    3.9040278900000001
   2.8056357799999998    2.8212379799999998   -3.9040278900000001
La Ti N O
2 2 2 4
direct
   0.9899165300000000    0.7500000000000000    0.7399165300000000 La
   0.5100834700000000    0.2500000000000000    0.7600834700000000 La
   0.2500000000000000    0.5158062000000000    0.2658062000000000 Ti
   0.7500000000000000    0.9841938000000000    0.2341938000000000 Ti
   0.9575796600000001    0.7075796600000001    0.2500000000000000 N
   0.5424203399999999    0.7924203399999999    0.7500000000000000 N
   0.4161897500000000    0.7500000000000000    0.1661897500000000 O
   0.0838102500000000    0.2500000000000000    0.3338102500000000 O
   0.9508524200000000    0.2008524200000000    0.7500000000000000 O
   0.5491475800000000    0.2991475800000000    0.2500000000000000 O
