Ca4 Tl4 O10
1.0
   1.6752186899999999   -5.5961882000000003    0.0000000000000000
   1.6752186899999999    5.5961882000000003    0.0000000000000000
   0.0000000000000000    0.0000000000000000   13.3965828200000008
Ca Tl O
4 4 10
direct
   0.9703625500000000    0.0296374500000000    0.2606139000000000 Ca
   0.0296374500000000    0.9703625500000000    0.7606139000000000 Ca
   0.2163988700000000    0.7836011300000000    0.1124344200000000 Ca
   0.7836011300000000    0.2163988700000000    0.6124344200000000 Ca
   0.4882642500000000    0.5117357500000000    0.0045120900000000 Tl
   0.5117357500000000    0.4882642500000000    0.5045120900000000 Tl
   0.7614153700000000    0.2385846300000000    0.8857924800000000 Tl
   0.2385846300000000    0.7614153700000000    0.3857924800000000 Tl
   0.3306518500000000    0.6693481500000000    0.2492374300000000 O
   0.6693481500000000    0.3306518500000000    0.7492374300000000 O
   0.5908680600000000    0.4091319400000000    0.3570408200000000 O
   0.4273920800000000    0.5726079200000000    0.6468071399999999 O
   0.5726079200000000    0.4273920800000000    0.1468071400000000 O
   0.4091319400000000    0.5908680600000000    0.8570408200000000 O
   0.8753316500000000    0.1246683500000000    0.4449337700000000 O
   0.1613947800000000    0.8386052200000000    0.5386299600000000 O
   0.8386052200000000    0.1613947800000000    0.0386299600000000 O
   0.1246683500000000    0.8753316500000000    0.9449337700000000 O
