Pb4 Se4 O16
1.0
   6.9131176200000004    0.0000000000000000   -0.0094106800000000
   0.0000000000000000    7.3861352699999996    0.0000000000000000
  -5.2404724299999996    0.0000000000000000    6.9518982800000000
Pb Se O
4 4 16
direct
   0.1895582500000000    0.6476153900000000    0.2832449700000000 Pb
   0.8104417500000000    0.1476153900000000    0.2167550300000000 Pb
   0.8104417500000000    0.3523846100000000    0.7167550300000000 Pb
   0.1895582500000000    0.8523846100000000    0.7832449700000000 Pb
   0.6875059600000000    0.6640510600000000    0.3051277700000000 Se
   0.3124940400000000    0.1640510600000000    0.1948722300000000 Se
   0.3124940400000000    0.3359489400000000    0.6948722300000000 Se
   0.6875059600000000    0.8359489400000000    0.8051277700000000 Se
   0.4029375700000000    0.7078011600000000    0.1163995200000000 O
   0.5970624300000000    0.2078011600000000    0.3836004800000000 O
   0.5970624300000000    0.2921988400000000    0.8836004800000000 O
   0.4029375700000000    0.7921988400000000    0.6163995200000000 O
   0.6527416300000000    0.6082567400000000    0.4746620000000000 O
   0.3472583700000000    0.1082567400000000    0.0253380000000000 O
   0.3472583700000000    0.3917432600000000    0.5253380000000000 O
   0.6527416300000000    0.8917432600000000    0.9746620000000000 O
   0.8173579000000000    0.9978870300000000    0.7634586300000000 O
   0.1826421000000000    0.4978870300000000    0.7365413700000000 O
   0.1826421000000000    0.0021129700000000    0.2365413700000000 O
   0.8173579000000000    0.5021129700000000    0.2634586300000000 O
   0.8704692200000000    0.6553121200000001    0.8845343800000000 O
   0.1295307800000000    0.1553121200000000    0.6154656200000000 O
   0.1295307800000000    0.3446878800000000    0.1154656200000000 O
   0.8704692200000000    0.8446878799999999    0.3845343800000000 O
