Sr2 Cu4 Ge2 Se8
1.0
  10.7261989599999996    0.0000000000000000    0.0000000000000000
   0.0000000000000000    5.3174402100000000    3.2445906299999998
   0.0000000000000000   -5.3174402100000000    3.2445906299999998
Sr Cu Ge Se
2 4 2 8
direct
   0.5000000000000000    0.0118678600000000    0.0118678600000000 Sr
   0.0000000000000000    0.0118678600000000    0.0118678600000000 Sr
   0.6304664400000000    0.6296740100000000    0.1919351100000000 Cu
   0.3695335600000000    0.1919351100000000    0.6296740100000000 Cu
   0.1304664400000000    0.1919351100000000    0.6296740100000000 Cu
   0.8695335600000000    0.6296740100000000    0.1919351100000000 Cu
   0.7500000000000000    0.2652171700000000    0.5608672300000000 Ge
   0.2500000000000000    0.5608672300000000    0.2652171700000000 Ge
   0.7500000000000000    0.2995147800000000    0.1934781100000000 Se
   0.2500000000000000    0.1934781100000000    0.2995147800000000 Se
   0.5753218500000000    0.0103195600000000    0.5204877200000000 Se
   0.4246781500000000    0.5204877200000000    0.0103195600000000 Se
   0.9246781500000000    0.0103195600000000    0.5204877200000000 Se
   0.0753218500000000    0.5204877200000000    0.0103195600000000 Se
   0.2500000000000000    0.8750925400000000    0.6706656600000001 Se
   0.7500000000000000    0.6706656600000001    0.8750925400000000 Se
