Rb4 Nb2 Cu2 S8
1.0
   0.0000000000000000    6.7213352600000000   11.7975888900000001
   2.7836291300000000    0.0000000000000000   11.7975888900000001
   2.7836291300000000    6.7213352600000000    0.0000000000000000
Rb Nb Cu S
4 2 2 8
direct
   0.8215789000000000    0.8215789000000000    0.1784211000000000 Rb
   0.1784211000000000    0.1784211000000000    0.8215789000000000 Rb
   0.0715789000000000    0.0715789000000000    0.4284211000000000 Rb
   0.4284211000000000    0.4284211000000000    0.0715789000000000 Rb
   0.2500000000000000    0.2500000000000000    0.2500000000000000 Nb
   0.0000000000000000    0.0000000000000000    0.0000000000000000 Nb
   0.7500000000000000    0.7500000000000000    0.7500000000000000 Cu
   0.5000000000000000    0.5000000000000000    0.5000000000000000 Cu
   0.7092245400000000    0.4004208100000000    0.0947626700000000 S
   0.7955909799999999    0.0947626700000000    0.4004208100000000 S
   0.0947626700000000    0.7955909799999999    0.7092245400000000 S
   0.4004208100000000    0.7092245400000000    0.7955909799999999 S
   0.1552373300000000    0.4544090200000000    0.5407754600000000 S
   0.8495791900000000    0.5407754600000000    0.4544090200000000 S
   0.4544090200000000    0.1552373300000000    0.8495791900000000 S
   0.5407754600000000    0.8495791900000000    0.1552373300000000 S
