Sr2 Nb4 Bi4 O18
1.0
  12.5559682000000006   -2.7907080700000000    0.0000000000000000
  12.5559682000000006    2.7907080700000000    0.0000000000000000
   0.0000000000000000    0.0000000000000000    5.5871869900000002
Sr Nb Bi O
2 4 4 18
direct
   0.7483023300000000    0.2516976700000000    0.9807020100000000 Sr
   0.2516976700000000    0.7483023300000000    0.4807020100000000 Sr
   0.1667692200000000    0.6654886300000000    0.9643152600000000 Nb
   0.6654886300000000    0.1667692200000000    0.4643152600000000 Nb
   0.3345113700000000    0.8332307799999999    0.9643152600000000 Nb
   0.8332307799999999    0.3345113700000000    0.4643152600000000 Nb
   0.5160165700000000    0.0829158100000000    0.0546106700000000 Bi
   0.4839834300000000    0.9170841900000000    0.5546106700000000 Bi
   0.0829158100000000    0.5160165700000000    0.5546106700000000 Bi
   0.9170841900000000    0.4839834300000000    0.0546106700000000 Bi
   0.4570247300000000    0.4112944500000000    0.7238744499999999 O
   0.5429752700000000    0.5887055500000000    0.2238744500000000 O
   0.4112944500000000    0.4570247300000000    0.2238744500000000 O
   0.5887055500000000    0.5429752700000000    0.7238744499999999 O
   0.9490755500000000    0.8769553600000000    0.6682457200000000 O
   0.0509244500000000    0.1230446400000000    0.1682457200000000 O
   0.8769553600000000    0.9490755500000000    0.1682457200000000 O
   0.1230446400000000    0.0509244500000000    0.6682457200000000 O
   0.7654458900000000    0.7382671900000000    0.7747919300000000 O
   0.2345541100000000    0.2617328100000000    0.2747919300000000 O
   0.8064840100000000    0.1935159900000000    0.4445576500000000 O
   0.1935159900000000    0.8064840100000000    0.9445576500000000 O
   0.5126675600000000    0.1715254200000000    0.4485321400000000 O
   0.4873324400000000    0.8284745800000000    0.9485321400000000 O
   0.1715254200000000    0.5126675600000000    0.9485321400000000 O
   0.8284745800000000    0.4873324400000000    0.4485321400000000 O
   0.2617328100000000    0.2345541100000000    0.7747919300000000 O
   0.7382671900000000    0.7654458900000000    0.2747919300000000 O
