Na1 Tl1 O2
1.0
   1.6797515000000001    0.9698050400000000    5.4351505099999997
  -1.6797515000000001    0.9698050400000000    5.4351505099999997
   0.0000000000000000   -1.9396100700000001    5.4351505099999997
Na Tl O
1 1 2
direct
   0.5000000000000000    0.5000000000000000    0.5000000000000000 Na
   0.0000000000000000    0.0000000000000000    0.0000000000000000 Tl
   0.7430348700000000    0.7430348700000000    0.7430348700000000 O
   0.2569651300000000    0.2569651300000000    0.2569651300000000 O
