Ba4 La8 Be4 O20
1.0
   7.4673603399999999    0.0000000000000000    0.0055608400000000
   0.0000000000000000    6.7629639399999997    0.0000000000000000
  -0.1281634700000000    0.0000000000000000    9.8397690499999992
Ba La Be O
4 8 4 20
direct
   0.0197008300000000    0.5822926400000000    0.3274374000000000 Ba
   0.0197008300000000    0.9177073600000000    0.8274374000000000 Ba
   0.9802991700000000    0.0822926400000000    0.1725626000000000 Ba
   0.9802991700000000    0.4177073600000000    0.6725626000000000 Ba
   0.2544133000000000    0.4082630500000000    0.9775833200000000 La
   0.5232882599999999    0.4169686000000000    0.6756544400000000 La
   0.4767117400000000    0.9169686000000000    0.8243455600000000 La
   0.4767117400000000    0.5830314000000000    0.3243455600000000 La
   0.5232882599999999    0.0830314000000000    0.1756544400000000 La
   0.2544133000000000    0.0917369500000000    0.4775833200000000 La
   0.7455867000000000    0.5917369500000000    0.0224166800000000 La
   0.7455867000000000    0.9082630500000000    0.5224166800000000 La
   0.2594625700000000    0.8076340300000000    0.0972913400000000 Be
   0.7405374300000001    0.3076340300000000    0.4027086600000000 Be
   0.7405374300000001    0.1923659700000000    0.9027086600000001 Be
   0.2594625700000000    0.6923659700000000    0.5972913399999999 Be
   0.7239384200000000    0.3690612900000000    0.2326361300000000 O
   0.2762582300000000    0.0179584400000000    0.0106208900000000 O
   0.7237417700000000    0.5179584400000000    0.4893791100000000 O
   0.7237417700000000    0.9820415600000000    0.9893791100000000 O
   0.2762582300000000    0.4820415600000000    0.5106208900000000 O
   0.2760615800000000    0.6309387100000000    0.7673638699999999 O
   0.7239384200000000    0.1309387100000000    0.7326361300000001 O
   0.0686560400000000    0.8063064900000000    0.5627175500000000 O
   0.2760615800000000    0.8690612900000000    0.2673638700000000 O
   0.2827877200000000    0.1652734100000000    0.7164115200000000 O
   0.7172122800000000    0.6652734100000000    0.7835884800000000 O
   0.7172122800000000    0.8347265900000000    0.2835884800000000 O
   0.9313439600000000    0.1936935100000000    0.4372824500000000 O
   0.0686560400000000    0.6936935100000000    0.0627175500000000 O
   0.4402642900000000    0.8185936300000000    0.5649056800000000 O
   0.9313439600000000    0.3063064900000000    0.9372824500000000 O
   0.4402642900000000    0.6814063700000000    0.0649056800000000 O
   0.5597357100000000    0.3185936300000000    0.9350943200000000 O
   0.5597357100000000    0.1814063700000000    0.4350943200000000 O
   0.2827877200000000    0.3347265900000000    0.2164115200000000 O
