Cr2 Cd2 O8
1.0
   2.8384471200000001   -4.3780917300000004    0.0000000000000000
   2.8384471200000001    4.3780917300000004    0.0000000000000000
   0.0000000000000000    0.0000000000000000    6.9613660199999998
Cr Cd O
2 2 8
direct
   0.6403578900000000    0.3596421100000000    0.2500000000000000 Cr
   0.3596421100000000    0.6403578900000000    0.7500000000000000 Cr
   0.0000000000000000    0.0000000000000000    0.5000000000000000 Cd
   0.0000000000000000    0.0000000000000000    0.0000000000000000 Cd
   0.7140004100000000    0.7749565700000000    0.7500000000000000 O
   0.2859995900000000    0.2250434300000000    0.2500000000000000 O
   0.7749565700000000    0.7140004100000000    0.2500000000000000 O
   0.2250434300000000    0.2859995900000000    0.7500000000000000 O
   0.2534811300000000    0.7465188699999999    0.9417545200000000 O
   0.7465188699999999    0.2534811300000000    0.4417545200000000 O
   0.7465188699999999    0.2534811300000000    0.0582454800000000 O
   0.2534811300000000    0.7465188699999999    0.5582454800000000 O
