Tl4 Ge2 Se6
1.0
   6.7962210399999998   -0.0215128300000000    0.0318646900000000
  -2.7460250300000002    6.2415875099999996    0.0136879700000000
  -3.1705014299999998   -1.5719391899999999    7.9027108100000003
Tl Ge Se
4 2 6
direct
   0.7514401400000000    0.3271088500000000    0.1058769800000000 Tl
   0.2485598600000000    0.6728911500000000    0.8941230200000000 Tl
   0.8888022600000000    0.0574518100000000    0.6658422200000000 Tl
   0.1111977400000000    0.9425481900000000    0.3341577800000000 Tl
   0.4323020100000000    0.5487562499999999    0.3113686300000000 Ge
   0.5676979900000000    0.4512437500000000    0.6886313700000000 Ge
   0.7681812800000000    0.7331450500000000    0.9244283500000000 Se
   0.2318187200000000    0.2668549500000000    0.0755716500000000 Se
   0.5150292000000000    0.9044662200000000    0.2617157500000000 Se
   0.4849708000000000    0.0955337800000000    0.7382842500000000 Se
   0.2135912800000000    0.4597850400000000    0.4893788500000000 Se
   0.7864087200000000    0.5402149600000000    0.5106211500000000 Se
