Cs12 Al4 O12
1.0
   7.8172483200000000    0.0000000000000000    0.0065177100000000
   0.0000000000000000   12.7721365299999992    0.0000000000000000
  -2.8976878300000002    0.0000000000000000    6.4775798499999997
Cs Al O
12 4 12
direct
   0.0756468400000000    0.3028589900000000    0.8697796300000000 Cs
   0.4775317900000000    0.6530908900000000    0.5589448500000000 Cs
   0.9243531600000000    0.6971410099999999    0.1302203700000000 Cs
   0.5224682100000000    0.1530908900000000    0.9410551500000000 Cs
   0.9243531600000000    0.8028589900000001    0.6302203700000000 Cs
   0.7273823100000000    0.4396959300000000    0.0152674800000000 Cs
   0.0756468400000000    0.1971410100000000    0.3697796300000000 Cs
   0.5224682100000000    0.3469091100000000    0.4410551500000000 Cs
   0.2726176900000000    0.9396959300000000    0.4847325200000000 Cs
   0.7273823100000000    0.0603040700000000    0.5152674800000000 Cs
   0.2726176900000000    0.5603040700000000    0.9847325200000000 Cs
   0.4775317900000000    0.8469091100000000    0.0589448500000000 Cs
   0.8578083800000000    0.5461338900000000    0.5142064300000000 Al
   0.1421916200000000    0.4538661100000000    0.4857935700000000 Al
   0.8578083800000000    0.9538661100000000    0.0142064300000000 Al
   0.1421916200000000    0.0461338900000000    0.9857935700000000 Al
   0.3304194100000000    0.0999796400000000    0.2011556300000000 O
   0.0877590700000000    0.5891645000000000    0.5282947200000000 O
   0.0877590700000000    0.9108355000000000    0.0282947200000000 O
   0.8331974400000000    0.9325866000000000    0.2467454700000000 O
   0.6695805900000000    0.9000203600000000    0.7988443700000000 O
   0.6695805900000000    0.5999796400000000    0.2988443700000000 O
   0.3304194100000000    0.4000203600000000    0.7011556300000000 O
   0.9122409299999999    0.0891645000000000    0.9717052800000000 O
   0.1668025600000000    0.4325866000000000    0.2532545300000000 O
   0.8331974400000000    0.5674134000000000    0.7467454700000000 O
   0.9122409299999999    0.4108355000000000    0.4717052800000000 O
   0.1668025600000000    0.0674134000000000    0.7532545300000000 O
