Cs6 Al2 Ge4 O14
1.0
   4.8240853499999998   -8.5992208800000007   -0.0145341200000000
   4.8240853499999998    8.5992208800000007   -0.0145341200000000
  -4.5907523499999998    0.0000000000000000    6.1589483899999999
Cs Al Ge O
6 2 4 14
direct
   0.4099282100000000    0.0186584400000000    0.2359884800000000 Cs
   0.9883093200000000    0.0116906800000000    0.2500000000000000 Cs
   0.0186584400000000    0.4099282100000000    0.7359884799999999 Cs
   0.0116906800000000    0.9883093200000000    0.7500000000000000 Cs
   0.9813415599999999    0.5900717900000000    0.2640115200000000 Cs
   0.5900717900000000    0.9813415599999999    0.7640115200000001 Cs
   0.5597328200000000    0.4402671800000000    0.2500000000000000 Al
   0.4402671800000000    0.5597328200000000    0.7500000000000000 Al
   0.2355909400000000    0.4348405900000000    0.2595816900000000 Ge
   0.5651594100000000    0.7644090600000000    0.2404183100000000 Ge
   0.4348405900000000    0.2355909400000000    0.7595816900000000 Ge
   0.7644090600000000    0.5651594100000000    0.7404183100000000 Ge
   0.3437528500000000    0.3359034300000000    0.2348854100000000 O
   0.3359034300000000    0.3437528500000000    0.7348854100000000 O
   0.4797118500000000    0.7273676400000000    0.9753000100000000 O
   0.6640965700000000    0.6562471500000000    0.2651145900000000 O
   0.0040600800000000    0.7311934200000000    0.9475475799999999 O
   0.5202881499999999    0.2726323600000000    0.0246999900000000 O
   0.7311934200000000    0.0040600800000000    0.4475475800000000 O
   0.7273676400000000    0.4797118500000000    0.4753000100000000 O
   0.6472978000000000    0.3527022000000000    0.7500000000000000 O
   0.6562471500000000    0.6640965700000000    0.7651145900000000 O
   0.2688065800000000    0.9959399200000000    0.5524524200000001 O
   0.3527022000000000    0.6472978000000000    0.2500000000000000 O
   0.9959399200000000    0.2688065800000000    0.0524524200000000 O
   0.2726323600000000    0.5202881499999999    0.5246999900000000 O
