Ag6 As6 S12
1.0
   6.8548102200000001    3.9576259899999999    3.0045880299999999
  -6.8548101399999997    3.9576261499999998    3.0045880299999999
  -0.0000000900000000   -7.9152530800000003    3.0045879599999998
Ag As S
6 6 12
direct
   0.7387529600000000    0.9102983900000000    0.3207001000000000 Ag
   0.9102983900000000    0.3207001000000000    0.7387529600000000 Ag
   0.3207001000000000    0.7387529600000000    0.9102983900000000 Ag
   0.2612470400000000    0.0897016100000000    0.6792999000000000 Ag
   0.0897016100000000    0.6792999000000000    0.2612470400000000 Ag
   0.6792999000000000    0.2612470400000000    0.0897016100000000 Ag
   0.3613420900000000    0.4325425600000000    0.1477081800000000 As
   0.8522918200000000    0.6386579100000001    0.5674574400000000 As
   0.6386579100000001    0.5674574400000000    0.8522918200000000 As
   0.4325425600000000    0.1477081800000000    0.3613420900000000 As
   0.1477081800000000    0.3613420900000000    0.4325425600000000 As
   0.5674574400000000    0.8522918200000000    0.6386579100000001 As
   0.0687656900000000    0.3483184100000000    0.1417859200000000 S
   0.3483184100000000    0.1417859200000000    0.0687656900000000 S
   0.1417859200000000    0.0687656900000000    0.3483184100000000 S
   0.9312343100000000    0.6516815900000000    0.8582140800000000 S
   0.6516815900000000    0.8582140800000000    0.9312343100000000 S
   0.8582140800000000    0.9312343100000000    0.6516815900000000 S
   0.2525465300000000    0.3910433800000000    0.8526766600000000 S
   0.3910433800000000    0.8526766600000000    0.2525465300000000 S
   0.1473233400000000    0.7474534700000000    0.6089566199999999 S
   0.7474534700000000    0.6089566199999999    0.1473233400000000 S
   0.6089566199999999    0.1473233400000000    0.7474534700000000 S
   0.8526766600000000    0.2525465300000000    0.3910433800000000 S
