Ba2 Ga11 Bi1 O20
1.0
   7.8052054200000001   -5.8623594299999997    0.0347373000000000
   7.8052054200000001    5.8623594299999997    0.0347373000000000
  -1.5651840299999999    0.0000000000000000    4.8699568800000002
Ba Ga Bi O
2 11 1 20
direct
   0.9998558200000000    0.9998558200000000    0.0024461500000000 Ba
   0.2845903600000000    0.2845903600000000    0.2467845600000000 Ba
   0.6354527599999999    0.3646684700000000    0.4954095500000000 Ga
   0.3646684700000000    0.6354527599999999    0.4954095500000000 Ga
   0.4225420600000000    0.8477164200000000    0.1577542700000000 Ga
   0.1493017400000000    0.5737537200000000    0.8402770800000000 Ga
   0.5737537200000000    0.1493017400000000    0.8402770800000000 Ga
   0.8477164200000000    0.4225420600000000    0.1577542700000000 Ga
   0.7145973500000000    0.9886499000000000    0.3455569100000000 Ga
   0.0077305200000000    0.2825582900000000    0.6545573300000000 Ga
   0.2825582900000000    0.0077305200000000    0.6545573300000000 Ga
   0.9886499000000000    0.7145973500000000    0.3455569100000000 Ga
   0.5052226200000000    0.5052226200000000    0.9868723800000000 Ga
   0.7095587900000000    0.7095587900000000    0.6627451700000000 Bi
   0.6028051000000000    0.8678369400000000    0.3784571700000000 O
   0.1305948700000000    0.3934551300000000    0.6587148300000000 O
   0.3934551300000000    0.1305948700000000    0.6587148300000000 O
   0.8678369400000000    0.6028051000000000    0.3784571700000000 O
   0.4408744000000000    0.4408744000000000    0.6026699500000000 O
   0.5752200900000000    0.5752200900000000    0.3821493200000000 O
   0.9932153500000001    0.7005800000000000    0.9842482100000000 O
   0.2918694100000000    0.9990546100000000    0.0160355000000000 O
   0.9990546100000000    0.2918694100000000    0.0160355000000000 O
   0.7005800000000000    0.9932153500000001    0.9842482100000000 O
   0.3148877000000000    0.5518913500000000    0.1070244000000000 O
   0.4667835400000000    0.6994024100000000    0.8733485300000000 O
   0.6994024100000000    0.4667835400000000    0.8733485300000000 O
   0.5518913500000000    0.3148877000000000    0.1070244000000000 O
   0.8985180900000000    0.8985180900000000    0.4867584400000000 O
   0.0918313300000000    0.0918313300000000    0.5311304100000001 O
   0.6656266600000000    0.1683634900000000    0.5726547700000000 O
   0.8302146300000000    0.3247760600000000    0.4147342600000000 O
   0.3247760600000000    0.8302146300000000    0.4147342600000000 O
   0.1683634900000000    0.6656266600000000    0.5726547700000000 O
