Tl8 P8 O24
1.0
   7.5778909199999998    0.0000000000000000    0.0000000000000000
   0.0000000000000000    7.5778909199999998    0.0000000000000000
   0.0000000000000000    0.0000000000000000   11.0799515700000004
Tl P O
8 8 24
direct
   0.5000000000000000    0.5000000000000000    0.3343284000000000 Tl
   0.5000000000000000    0.5000000000000000    0.6656716000000000 Tl
   0.0000000000000000    0.0000000000000000    0.1656716000000000 Tl
   0.0000000000000000    0.0000000000000000    0.8343284000000000 Tl
   0.0000000000000000    0.5000000000000000    0.2758269000000000 Tl
   0.5000000000000000    0.0000000000000000    0.7241731000000000 Tl
   0.5000000000000000    0.0000000000000000    0.2241731000000000 Tl
   0.0000000000000000    0.5000000000000000    0.7758269000000000 Tl
   0.7776867400000000    0.8462847200000000    0.4663184800000000 P
   0.2223132600000000    0.1537152800000000    0.4663184800000000 P
   0.6537152800000000    0.7223132600000000    0.9663184800000000 P
   0.1537152800000000    0.7776867400000000    0.5336815200000000 P
   0.8462847200000000    0.2223132600000000    0.5336815200000000 P
   0.7223132600000000    0.3462847200000000    0.0336815200000000 P
   0.2776867400000000    0.6537152800000000    0.0336815200000000 P
   0.3462847200000000    0.2776867400000000    0.9663184800000000 P
   0.6135744200000000    0.8055536200000000    0.5362208800000000 O
   0.3864255800000000    0.1944463800000000    0.5362208800000000 O
   0.6944463800000000    0.8864255800000000    0.0362208800000000 O
   0.1944463800000000    0.6135744200000000    0.4637791200000000 O
   0.8055536200000000    0.3864255800000000    0.4637791200000000 O
   0.8864255800000000    0.3055536200000000    0.9637791200000000 O
   0.1135744200000000    0.6944463800000000    0.9637791200000000 O
   0.3055536200000000    0.1135744200000000    0.0362208800000000 O
   0.8000490500000000    0.7705116800000000    0.3418348300000000 O
   0.1999509500000000    0.2294883200000000    0.3418348300000000 O
   0.7294883200000000    0.6999509500000000    0.8418348300000000 O
   0.2294883200000000    0.8000490500000000    0.6581651700000000 O
   0.7705116800000000    0.1999509500000000    0.6581651700000000 O
   0.6999509500000000    0.2705116800000000    0.1581651700000000 O
   0.3000490500000000    0.7294883200000000    0.1581651700000000 O
   0.2705116800000000    0.3000490500000000    0.8418348300000000 O
   0.3001714600000000    0.4423166900000000    0.0533432500000000 O
   0.4423166900000000    0.6998285400000001    0.9466567500000000 O
   0.5576833100000000    0.3001714600000000    0.9466567500000000 O
   0.8001714599999999    0.0576833100000000    0.4466567500000000 O
   0.1998285400000000    0.9423166900000000    0.4466567500000000 O
   0.6998285400000001    0.5576833100000000    0.0533432500000000 O
   0.0576833100000000    0.1998285400000000    0.5533432500000000 O
   0.9423166900000000    0.8001714599999999    0.5533432500000000 O
