La6 Be2 Al2 S14
1.0
   9.8913516799999996   -0.0000010300000000    0.0000000000000000
  -4.9456753999999998    8.5661630500000001    0.0000000000000000
   0.0000000000000000    0.0000000000000000    6.2573882200000002
La Be Al S
6 2 2 14
direct
   0.1525343300000000    0.7775434400000000    0.2331191600000000 La
   0.2224565600000000    0.3749908900000000    0.2331191600000000 La
   0.8474656699999999    0.2224565600000000    0.7331191600000000 La
   0.6250091100000000    0.8474656699999999    0.2331191600000000 La
   0.7775434400000000    0.6250091100000000    0.7331191600000000 La
   0.3749908900000000    0.1525343300000000    0.7331191600000000 La
   0.0000000000000000    0.0000000000000000    0.8280399000000001 Be
   0.0000000000000000    0.0000000000000000    0.3280399000000000 Be
   0.6666670000000000    0.3333330000000000    0.1545628100000000 Al
   0.3333330000000000    0.6666670000000000    0.6545628100000001 Al
   0.6666670000000000    0.3333330000000000    0.5123643700000000 S
   0.3333330000000000    0.6666670000000000    0.0123643700000000 S
   0.5235921600000000    0.4306998400000000    0.0116266000000000 S
   0.5693001600000001    0.0928923200000000    0.0116266000000000 S
   0.4764078400000000    0.5693001600000001    0.5116266000000000 S
   0.9071076800000000    0.4764078400000000    0.0116266000000000 S
   0.4306998400000000    0.9071076800000000    0.5116266000000000 S
   0.0928923200000000    0.5235921600000000    0.5116266000000000 S
   0.2343497300000000    0.0967732900000000    0.3005972000000000 S
   0.9032267100000000    0.1375764400000000    0.3005972000000000 S
   0.7656502700000000    0.9032267100000000    0.8005972000000000 S
   0.8624235600000000    0.7656502700000000    0.3005972000000000 S
   0.0967732900000000    0.8624235600000000    0.8005972000000000 S
   0.1375764400000000    0.2343497300000000    0.8005972000000000 S
