Cs4 Ge2 Se8
1.0
   7.6295322099999998   -3.7960626400000002    0.0292913100000000
   7.6295322099999998    3.7960626400000002    0.0292913100000000
  -5.2888169899999999    0.0000000000000000    8.5526520200000000
Cs Ge Se
4 2 8
direct
   0.1576661000000000    0.1576661000000000    0.2865187900000000 Cs
   0.8423339000000000    0.8423339000000000    0.7134812100000000 Cs
   0.4065018500000000    0.4065018500000000    0.1389967100000000 Cs
   0.5934981499999999    0.5934981499999999    0.8610032900000000 Cs
   0.1572787700000000    0.1572787700000000    0.7029856700000000 Ge
   0.8427212300000000    0.8427212300000000    0.2970143300000000 Ge
   0.3409981900000000    0.8328364100000000    0.5325439199999999 Se
   0.8328364100000000    0.3409981900000000    0.5325439199999999 Se
   0.6590018100000000    0.1671635900000000    0.4674560800000000 Se
   0.1671635900000000    0.6590018100000000    0.4674560800000000 Se
   0.1249668100000000    0.1249668100000000    0.9022701000000000 Se
   0.8750331900000000    0.8750331900000000    0.0977299000000000 Se
   0.3169896700000000    0.3169896700000000    0.7262020100000000 Se
   0.6830103300000000    0.6830103300000000    0.2737979900000000 Se
