Cs4 Ag4 P4 Se12
1.0
   6.7468792700000000    0.0000000000000000   -0.0740133900000000
   0.0000000000000000   12.1968300999999997    0.0000000000000000
  -5.8750652900000002    0.0000000000000000    8.4587933100000008
Cs Ag P Se
4 4 4 12
direct
   0.7350833300000000    0.1658485100000000    0.4883162800000000 Cs
   0.2649166700000000    0.6658485100000000    0.0116837200000000 Cs
   0.2649166700000000    0.8341514900000000    0.5116837200000000 Cs
   0.7350833300000000    0.3341514900000000    0.9883162800000000 Cs
   0.3156670400000000    0.0587199500000000    0.8621248400000000 Ag
   0.6843329600000000    0.5587199500000000    0.6378751600000000 Ag
   0.6843329600000000    0.9412800500000000    0.1378751600000000 Ag
   0.3156670400000000    0.4412800500000000    0.3621248400000000 Ag
   0.1557608300000000    0.4589400000000000    0.6154773500000000 P
   0.8442391700000000    0.9589400000000000    0.8845226500000000 P
   0.8442391700000000    0.5410600000000000    0.3845226500000000 P
   0.1557608300000000    0.0410600000000000    0.1154773500000000 P
   0.2629369200000000    0.3151465000000000    0.5410552600000000 Se
   0.7370630800000000    0.8151465000000000    0.9589447400000000 Se
   0.7370630800000000    0.6848535000000000    0.4589447400000000 Se
   0.2629369200000000    0.1848535000000000    0.0410552600000000 Se
   0.0121218900000000    0.4057981600000000    0.7492170300000000 Se
   0.9878781100000000    0.9057981600000000    0.7507829700000000 Se
   0.9878781100000000    0.5942018400000000    0.2507829700000000 Se
   0.0121218900000000    0.0942018400000000    0.2492170300000000 Se
   0.4363467100000000    0.5870552800000000    0.7495270500000000 Se
   0.5636532900000000    0.0870552800000000    0.7504729500000000 Se
   0.5636532900000000    0.4129447200000000    0.2504729500000000 Se
   0.4363467100000000    0.9129447200000000    0.2495270500000000 Se
