Na8 W2 O10
1.0
   5.5918453799999996   -0.0000409700000000   -0.0000979800000000
  -1.1681679700000001    5.4938171499999999    0.0001621100000000
  -2.7540758200000002   -2.2911762300000000    7.5808371100000000
Na W O
8 2 10
direct
   0.6942419800000000    0.4875608200000000    0.9035321200000000 Na
   0.8800179299999999    0.4929812500000000    0.2940778400000000 Na
   0.6976828600000000    0.0023010400000000    0.3978220500000000 Na
   0.3023171400000000    0.9976989600000000    0.6021779500000000 Na
   0.3057580200000000    0.5124391800000000    0.0964678800000000 Na
   0.5000000000000000    0.5000000000000000    0.5000000000000000 Na
   0.5000000000000000    0.0000000000000000    0.0000000000000000 Na
   0.1199820700000000    0.5070187500000000    0.7059221600000000 Na
   0.8979283900000000    0.9969510499999999    0.7934154600000000 W
   0.1020716100000000    0.0030489500000000    0.2065845400000000 W
   0.2430065000000000    0.2154119300000000    0.8441163100000000 O
   0.7569935000000000    0.7845880700000000    0.1558836900000000 O
   0.9071579000000000    0.7776092300000000    0.5961796700000001 O
   0.0928421000000000    0.2223907700000000    0.4038203300000000 O
   0.4389240000000000    0.2225816500000000    0.2420460700000000 O
   0.5610760000000000    0.7774183500000000    0.7579539300000000 O
   0.0788587600000000    0.8052502000000000    0.9627994600000001 O
   0.9211412400000000    0.1947498000000000    0.0372005400000000 O
   0.2618845600000000    0.7879207800000000    0.3176002600000000 O
   0.7381154400000000    0.2120792200000000    0.6823997400000000 O
