La4 Ti4 Si2 O18
1.0
   8.5329541599999992   -2.8907558099999999    0.0085027700000000
   8.5329541599999992    2.8907558099999999    0.0085027700000000
  -2.7643108399999998    0.0000000000000000    7.0752834399999998
La Ti Si O
4 4 2 18
direct
   0.2106933000000000    0.2106933000000000    0.3061407000000000 La
   0.7893067000000000    0.7893067000000000    0.6938593000000000 La
   0.1057702700000000    0.1057702700000000    0.6959325100000000 La
   0.8942297299999999    0.8942297299999999    0.3040674900000000 La
   0.2438444800000000    0.7561555200000000    0.0000000000000000 Ti
   0.4168938200000000    0.4168938200000000    0.5400625300000000 Ti
   0.5831061800000000    0.5831061800000000    0.4599374700000000 Ti
   0.7561555200000000    0.2438444800000000    0.0000000000000000 Ti
   0.3380115900000000    0.3380115900000000    0.0205988300000000 Si
   0.6619884100000000    0.6619884100000000    0.9794011700000000 Si
   0.3746151700000000    0.8637695900000000    0.0164855500000000 O
   0.5805115300000000    0.0933202200000000    0.5147605000000000 O
   0.3491202800000000    0.3491202800000000    0.2424753900000000 O
   0.2423803500000000    0.2423803500000000    0.8770286100000000 O
   0.5265421900000000    0.5265421900000000    0.1868956300000000 O
   0.6508797200000001    0.6508797200000001    0.7575246100000000 O
   0.0238815900000000    0.0238815900000000    0.1843591700000000 O
   0.7256006900000000    0.2743993100000000    0.5000000000000000 O
   0.0933202200000000    0.5805115300000000    0.5147605000000000 O
   0.6253848300000000    0.1362304100000000    0.9835144500000000 O
   0.8637695900000000    0.3746151700000000    0.0164855500000000 O
   0.4734578100000000    0.4734578100000000    0.8131043700000000 O
   0.7576196500000000    0.7576196500000000    0.1229713900000000 O
   0.4194884700000000    0.9066797800000000    0.4852395000000000 O
   0.9761184100000000    0.9761184100000000    0.8156408300000000 O
   0.2743993100000000    0.7256006900000000    0.5000000000000000 O
   0.9066797800000000    0.4194884700000000    0.4852395000000000 O
   0.1362304100000000    0.6253848300000000    0.9835144500000000 O
