Cs2 Sr1 V4 O12
1.0
   7.9292685599999997    0.0000000000000000    0.0000000000000000
   0.0000000000000000    7.9292685599999997    0.0000000000000000
   0.0000000000000000    0.0000000000000000    5.5848295900000000
Cs Sr V O
2 1 4 12
direct
   0.0000000000000000    0.5000000000000000    0.5000000000000000 Cs
   0.5000000000000000    0.0000000000000000    0.5000000000000000 Cs
   0.5000000000000000    0.5000000000000000    0.5000000000000000 Sr
   0.2234481400000000    0.2234481400000000    0.0000000000000000 V
   0.7765518600000000    0.2234481400000000    0.0000000000000000 V
   0.2234481400000000    0.7765518600000000    0.0000000000000000 V
   0.7765518600000000    0.7765518600000000    0.0000000000000000 V
   0.6924826300000000    0.6924826300000000    0.7555030400000000 O
   0.3075173700000000    0.3075173700000000    0.7555030400000000 O
   0.6924826300000000    0.3075173700000000    0.7555030400000000 O
   0.3075173700000000    0.6924826300000000    0.7555030400000000 O
   0.3075173700000000    0.6924826300000000    0.2444969600000000 O
   0.3075173700000000    0.3075173700000000    0.2444969600000000 O
   0.6924826300000000    0.6924826300000000    0.2444969600000000 O
   0.6924826300000000    0.3075173700000000    0.2444969600000000 O
   0.2659795700000000    0.0000000000000000    0.0000000000000000 O
   0.0000000000000000    0.2659795700000000    0.0000000000000000 O
   0.0000000000000000    0.7340204299999999    0.0000000000000000 O
   0.7340204299999999    0.0000000000000000    0.0000000000000000 O
