Rb8 Sn2 Te8 O4
1.0
   9.1120845199999998   -3.5643273600000001   -0.0158274400000000
   9.1120845199999998    3.5643273600000001   -0.0158274400000000
  -8.8798663500000004    0.0000000000000000   12.6320192400000000
Rb Sn Te O
8 2 8 4
direct
   0.8726287700000001    0.5503761500000000    0.8300862600000000 Rb
   0.4496238500000000    0.1273712300000000    0.6699137400000000 Rb
   0.1273712300000000    0.4496238500000000    0.1699137400000000 Rb
   0.5503761500000000    0.8726287700000001    0.3300862600000000 Rb
   0.1111511200000000    0.6927468100000000    0.4827633800000000 Rb
   0.3072531900000000    0.8888488800000000    0.0172366200000000 Rb
   0.8888488800000000    0.3072531900000000    0.5172366200000000 Rb
   0.6927468100000000    0.1111511200000000    0.9827633800000000 Rb
   0.9127867100000000    0.0872132900000000    0.7500000000000000 Sn
   0.0872132900000000    0.9127867100000000    0.2500000000000000 Sn
   0.2753166300000000    0.9758153899999999    0.7515172500000000 Te
   0.0241846100000000    0.7246833700000000    0.7484827500000000 Te
   0.7246833700000000    0.0241846100000000    0.2484827500000000 Te
   0.9758153899999999    0.2753166300000000    0.2515172500000000 Te
   0.6339436500000000    0.2326865300000000    0.5721884200000000 Te
   0.7673134700000001    0.3660563500000000    0.9278115800000000 Te
   0.3660563500000000    0.7673134700000001    0.4278115800000000 Te
   0.2326865300000000    0.6339436500000000    0.0721884200000000 Te
   0.7902629300000000    0.8487714100000000    0.7891936200000000 O
   0.1512285900000000    0.2097370700000000    0.7108063800000000 O
   0.2097370700000000    0.1512285900000000    0.2108063800000000 O
   0.8487714100000000    0.7902629300000000    0.2891936200000000 O
