Sr2 Bi2 N2 O10
1.0
   2.8444676900000001   -7.2223927000000003    0.0173718600000000
   2.8444676900000001    7.2223927000000003    0.0173718600000000
   0.0070202300000000    0.0000000000000000    5.8004844200000001
Sr Bi N O
2 2 2 10
direct
   0.8387598800000000    0.1529812300000000    0.9941299900000000 Sr
   0.1529812300000000    0.8387598800000000    0.9941299900000000 Sr
   0.6744810900000000    0.3127154500000000    0.4913910900000000 Bi
   0.3127154500000000    0.6744810900000000    0.4913910900000000 Bi
   0.0193569100000000    0.0193569100000000    0.5206291100000000 N
   0.5158840099999999    0.5158840099999999    0.0209942700000000 N
   0.4982040100000000    0.9952935000000001    0.2582451000000000 O
   0.9942534900000000    0.4986477700000000    0.7252138800000000 O
   0.4986477700000000    0.9942534900000000    0.7252138800000000 O
   0.9952935000000001    0.4982040100000000    0.2582451000000000 O
   0.7127227600000000    0.7127227600000000    0.1208386100000000 O
   0.3438786800000000    0.4960996800000000    0.9716445500000001 O
   0.4960996800000000    0.3438786800000000    0.9716445500000001 O
   0.9480433800000000    0.9480433800000000    0.7292127600000000 O
   0.1312277800000000    0.9794503800000000    0.4205390200000000 O
   0.9794503800000000    0.1312277800000000    0.4205390200000000 O
