Na2 Li2 S2
1.0
   3.9777925800000000    0.0000000000000000    0.0000000000000000
   0.0000000000000000    3.9777925800000000    0.0000000000000000
   0.0000000000000000    0.0000000000000000    6.4879678299999997
Na Li S
2 2 2
direct
   0.5000000000000000    0.0000000000000000    0.6485606200000000 Na
   0.0000000000000000    0.5000000000000000    0.3514393800000000 Na
   0.5000000000000000    0.5000000000000000    0.0000000000000000 Li
   0.0000000000000000    0.0000000000000000    0.0000000000000000 Li
   0.5000000000000000    0.0000000000000000    0.2186304300000000 S
   0.0000000000000000    0.5000000000000000    0.7813695700000000 S
