Na5 Sb1 O5
1.0
   5.3330690000000001   -2.1904319999999999    0.0000000000000000
   5.3330690000000001    2.1904319999999999    0.0000000000000000
  -2.0309879999999998    0.0000000000000000    6.0221910000000003
Na Sb O
5 1 5
direct
   0.3212100000000000    0.3212100000000000    0.6418110000000000 Na
   0.3019000000000000    0.3019000000000000    0.1761920000000000 Na
   0.6981000000000001    0.6981000000000001    0.8238080000000000 Na
   0.6787900000000000    0.6787900000000000    0.3581890000000000 Na
   0.0000000000000000    0.0000000000000000    0.0000000000000000 Na
   0.0000000000000000    0.0000000000000000    0.5000000000000000 Sb
   0.8662480000000000    0.8662480000000000    0.6575180000000000 O
   0.8548540000000000    0.8548540000000000    0.2039710000000000 O
   0.1451460000000000    0.1451460000000000    0.7960290000000000 O
   0.1337520000000000    0.1337520000000000    0.3424820000000000 O
   0.5000000000000000    0.5000000000000000    0.5000000000000000 O
