Ca4 Sc2 Sb2 O12
1.0
   5.4698901500000003    0.0000000000000000    0.0017584800000000
   0.0000000000000000    5.6331694900000002    0.0000000000000000
  -5.4704587199999999    0.0000000000000000    7.8289598800000002
Ca Sc Sb O
4 2 2 12
direct
   0.2636505200000000    0.4484238000000000    0.7502132000000000 Ca
   0.2636505200000000    0.0515762000000000    0.2502132000000000 Ca
   0.7363494800000000    0.5515762000000000    0.2497868000000000 Ca
   0.7363494800000000    0.9484238000000000    0.7497868000000000 Ca
   0.5000000000000000    0.5000000000000000    0.5000000000000000 Sc
   0.5000000000000000    0.0000000000000000    0.0000000000000000 Sc
   0.0000000000000000    0.0000000000000000    0.5000000000000000 Sb
   0.0000000000000000    0.5000000000000000    0.0000000000000000 Sb
   0.3442283300000000    0.1978888100000000    0.5508464500000000 O
   0.3442283300000000    0.3021111900000000    0.0508464500000000 O
   0.6557716700000000    0.8021111900000000    0.4491535500000000 O
   0.6557716700000000    0.6978888100000000    0.9491535500000000 O
   0.7527006700000000    0.2086686000000000    0.9467267000000000 O
   0.7527006700000000    0.2913314000000000    0.4467267000000000 O
   0.2472993300000000    0.7913314000000000    0.0532733000000000 O
   0.2472993300000000    0.7086686000000000    0.5532733000000000 O
   0.1449210200000000    0.0346945600000000    0.7439735800000000 O
   0.1449210200000000    0.4653054400000000    0.2439735800000000 O
   0.8550789800000000    0.9653054400000000    0.2560264200000000 O
   0.8550789800000000    0.5346945600000000    0.7560264200000000 O
