Ca4 La4 Ga4 O16
1.0
  11.7454192400000004    0.0000000000000000    0.0000000000000000
   0.0000000000000000    6.8169318099999998    0.0000000000000000
   0.0000000000000000    0.0000000000000000    5.3197745599999999
Ca La Ga O
4 4 4 16
direct
   0.0000000000000000    0.0000000000000000    0.0000000000000000 Ca
   0.5000000000000000    0.0000000000000000    0.5000000000000000 Ca
   0.0000000000000000    0.5000000000000000    0.0000000000000000 Ca
   0.5000000000000000    0.5000000000000000    0.5000000000000000 Ca
   0.2206237200000000    0.7500000000000000    0.5112582000000000 La
   0.7206237200000000    0.7500000000000000    0.9887418000000000 La
   0.2793762800000000    0.2500000000000000    0.0112582000000000 La
   0.7793762800000000    0.2500000000000000    0.4887418000000000 La
   0.9105120500000000    0.7500000000000000    0.4324276500000000 Ga
   0.0894879500000000    0.2500000000000000    0.5675723499999999 Ga
   0.5894879500000000    0.2500000000000000    0.9324276500000001 Ga
   0.4105120500000000    0.7500000000000000    0.0675723500000000 Ga
   0.8382855600000000    0.9618992900000000    0.2688662400000000 O
   0.8382855600000000    0.5381007100000000    0.2688662400000000 O
   0.9470353500000001    0.2500000000000000    0.7269665800000000 O
   0.4089830200000000    0.7500000000000000    0.7258774300000000 O
   0.3382855600000000    0.5381007100000000    0.2311337600000000 O
   0.5529646499999999    0.7500000000000000    0.2269665800000000 O
   0.6617144400000000    0.0381007100000000    0.7688662400000000 O
   0.5910169800000000    0.2500000000000000    0.2741225700000000 O
   0.3382855600000000    0.9618992900000000    0.2311337600000000 O
   0.9089830200000000    0.7500000000000000    0.7741225700000000 O
   0.0910169800000000    0.2500000000000000    0.2258774300000000 O
   0.1617144400000000    0.0381007100000000    0.7311337600000000 O
   0.6617144400000000    0.4618992900000000    0.7688662400000000 O
   0.1617144400000000    0.4618992900000000    0.7311337600000000 O
   0.0529646500000000    0.7500000000000000    0.2730334200000000 O
   0.4470353500000000    0.2500000000000000    0.7730334200000000 O
