Al2 Ag2 O4
1.0
   2.8750478099999999    0.0000000000000000    0.0000000000000000
  -1.4375239000000000    2.4898643699999998    0.0000000000000000
   0.0000000000000000    0.0000000000000000   12.1337646899999996
Al Ag O
2 2 4
direct
   0.0000000000000000    0.0000000000000000    0.5000000000000000 Al
   0.0000000000000000    0.0000000000000000    0.0000000000000000 Al
   0.3333330000000000    0.6666670000000000    0.2500000000000000 Ag
   0.6666670000000000    0.3333330000000000    0.7500000000000000 Ag
   0.6666670000000000    0.3333330000000000    0.9208446100000000 O
   0.3333330000000000    0.6666670000000000    0.4208446100000000 O
   0.6666670000000000    0.3333330000000000    0.5791553900000000 O
   0.3333330000000000    0.6666670000000000    0.0791553900000000 O
