In2 Ga2 S6
1.0
   1.8823913999999999   -9.7631826200000003    0.0000000000000000
   1.8823913999999999    9.7631826200000003    0.0000000000000000
   0.0000000000000000    0.0000000000000000    6.1636508900000004
In Ga S
2 2 6
direct
   0.6671930700000001    0.3328069300000000    0.4982149100000000 In
   0.3328069300000000    0.6671930700000001    0.9982149100000000 In
   0.1170306200000000    0.8829693800000000    0.9429503600000000 Ga
   0.8829693800000000    0.1170306200000000    0.4429503600000000 Ga
   0.1030812000000000    0.8969188000000000    0.3029489400000000 S
   0.8969188000000000    0.1030812000000000    0.8029489400000001 S
   0.4328756600000000    0.5671243400000000    0.2926565900000000 S
   0.5671243400000000    0.4328756600000000    0.7926565900000000 S
   0.2207858700000000    0.7792141299999999    0.7573292100000000 S
   0.7792141299999999    0.2207858700000000    0.2573292100000000 S
