Cs4 Sn2 Se6
1.0
   7.3612324300000003   -3.7172056100000002    0.0527173200000000
   7.3612324300000003    3.7172056100000002    0.0527173200000000
  -6.0896410999999997    0.0000000000000000    8.5892714100000003
Cs Sn Se
4 2 6
direct
   0.3119117400000000    0.3119117400000000    0.6840916300000000 Cs
   0.6880882600000000    0.6880882600000000    0.3159083700000000 Cs
   0.0852635000000000    0.0852635000000000    0.8681580700000000 Cs
   0.9147365000000000    0.9147365000000000    0.1318419300000000 Cs
   0.3780600900000000    0.3780600900000000    0.3113670600000000 Sn
   0.6219399100000000    0.6219399100000000    0.6886329400000000 Sn
   0.3851405200000000    0.3851405200000000    0.0816915300000000 Se
   0.6148594800000000    0.6148594800000000    0.9183084700000000 Se
   0.1953484900000000    0.1953484900000000    0.2729175900000000 Se
   0.8046515100000000    0.8046515100000000    0.7270824100000000 Se
   0.2392717000000000    0.7607283000000000    0.5000000000000000 Se
   0.7607283000000000    0.2392717000000000    0.5000000000000000 Se
