Al4 Hg2 S8
1.0
   0.0000000000000000    5.1343549399999997    5.1343549399999997
   5.1343549399999997    0.0000000000000000    5.1343549399999997
   5.1343549399999997    5.1343549399999997    0.0000000000000000
Al Hg S
4 2 8
direct
   0.6250000000000000    0.1250000000000000    0.1250000000000000 Al
   0.1250000000000000    0.6250000000000000    0.1250000000000000 Al
   0.1250000000000000    0.1250000000000000    0.6250000000000000 Al
   0.1250000000000000    0.1250000000000000    0.1250000000000000 Al
   0.7500000000000000    0.7500000000000000    0.7500000000000000 Hg
   0.5000000000000000    0.5000000000000000    0.5000000000000000 Hg
   0.3304280000000000    0.8898576700000000    0.8898576700000000 S
   0.8898576700000000    0.3304280000000000    0.8898576700000000 S
   0.8898576700000000    0.8898576700000000    0.3304280000000000 S
   0.8898576700000000    0.8898576700000000    0.8898576700000000 S
   0.9195719999999999    0.3601423300000000    0.3601423300000000 S
   0.3601423300000000    0.9195719999999999    0.3601423300000000 S
   0.3601423300000000    0.3601423300000000    0.9195719999999999 S
   0.3601423300000000    0.3601423300000000    0.3601423300000000 S
