Rb6 Ta4 As2 S22
1.0
   7.2281621500000002   -6.4563172700000004   -0.0290410500000000
   7.2281621500000002    6.4563172700000004   -0.0290410500000000
  -1.4449803800000001    0.0000000000000000    9.4204770900000003
Rb Ta As S
6 4 2 22
direct
   0.6917359000000000    0.5390216799999999    0.3358131900000000 Rb
   0.5390216799999999    0.6917359000000000    0.8358131900000000 Rb
   0.4347571800000000    0.3048516800000000    0.6707304100000000 Rb
   0.3048516800000000    0.4347571800000000    0.1707304100000000 Rb
   0.0656752200000000    0.8997668000000000    0.9286816900000000 Rb
   0.8997668000000000    0.0656752200000000    0.4286816900000000 Rb
   0.8021064000000000    0.3365382500000000    0.9478207800000000 Ta
   0.3365382500000000    0.8021064000000000    0.4478207800000000 Ta
   0.0484448000000000    0.4558513100000000    0.7598118400000000 Ta
   0.4558513100000000    0.0484448000000000    0.2598118400000000 Ta
   0.9973923800000000    0.6700664200000001    0.4962609700000000 As
   0.6700664200000001    0.9973923800000000    0.9962609700000000 As
   0.7852019200000000    0.3617328200000000    0.6893633400000000 S
   0.3617328200000000    0.7852019200000000    0.1893633400000000 S
   0.7696384500000000    0.1600919800000000    0.7428793600000000 S
   0.1600919800000000    0.7696384500000000    0.2428793600000000 S
   0.5854239600000000    0.4196652100000000    0.9999598000000000 S
   0.4196652100000000    0.5854239600000000    0.4999598000000000 S
   0.8749054000000001    0.6571914200000000    0.6868854800000000 S
   0.6571914200000000    0.8749054000000001    0.1868854800000000 S
   0.4481613600000000    0.9549609200000000    0.6452143200000000 S
   0.9549609200000000    0.4481613600000000    0.1452143200000000 S
   0.2363436800000000    0.5653460800000000    0.8519538900000000 S
   0.5653460800000000    0.2363436800000000    0.3519538900000000 S
   0.0921824300000000    0.4485815500000000    0.5071022800000000 S
   0.4485815500000000    0.0921824300000000    0.0071022800000000 S
   0.1234817900000000    0.2049692600000000    0.7090726600000000 S
   0.2049692600000000    0.1234817900000000    0.2090726600000000 S
   0.1434640400000000    0.8263608000000000    0.6011292100000000 S
   0.8263608000000000    0.1434640400000000    0.1011292100000000 S
   0.9072753099999999    0.5651066500000000    0.9723791200000000 S
   0.5651066500000000    0.9072753099999999    0.4723791200000000 S
   0.0779365700000000    0.2652693800000000    0.9162926600000000 S
   0.2652693800000000    0.0779365700000000    0.4162926600000000 S
