Na4 Ta8 O22
1.0
   3.1178057799999999    1.8000658300000001   12.2692687199999995
  -3.1178057799999999    1.8000658300000001   12.2692687199999995
   0.0000000000000000   -3.6001316499999998   12.2692687199999995
Na Ta O
4 8 22
direct
   0.6643524800000000    0.6643524800000000    0.6643524800000000 Na
   0.8356475200000000    0.8356475200000000    0.8356475200000000 Na
   0.3356475200000000    0.3356475200000000    0.3356475200000000 Na
   0.1643524800000000    0.1643524800000000    0.1643524800000000 Na
   0.1146261100000000    0.7500000000000000    0.3853738900000000 Ta
   0.3853738900000000    0.1146261100000000    0.7500000000000000 Ta
   0.0000000000000000    0.0000000000000000    0.0000000000000000 Ta
   0.5000000000000000    0.5000000000000000    0.5000000000000000 Ta
   0.7500000000000000    0.3853738900000000    0.1146261100000000 Ta
   0.6146261100000000    0.8853738900000000    0.2500000000000000 Ta
   0.8853738900000000    0.2500000000000000    0.6146261100000000 Ta
   0.2500000000000000    0.6146261100000000    0.8853738900000000 Ta
   0.9424805500000000    0.2467179600000000    0.7194223700000000 O
   0.7194223700000000    0.9424805500000000    0.2467179600000000 O
   0.2467179600000000    0.7194223700000000    0.9424805500000000 O
   0.5575194500000000    0.7805776300000000    0.2532820400000000 O
   0.2532820400000000    0.5575194500000000    0.7805776300000000 O
   0.7805776300000000    0.2532820400000000    0.5575194500000000 O
   0.0575194500000000    0.7532820400000000    0.2805776300000000 O
   0.2805776300000000    0.0575194500000000    0.7532820400000000 O
   0.7532820400000000    0.2805776300000000    0.0575194500000000 O
   0.4424805500000000    0.2194223700000000    0.7467179600000000 O
   0.7467179600000000    0.4424805500000000    0.2194223700000000 O
   0.2194223700000000    0.7467179600000000    0.4424805500000000 O
   0.0032248000000000    0.4967752000000000    0.7500000000000000 O
   0.4967752000000000    0.7500000000000000    0.0032248000000000 O
   0.7500000000000000    0.0032248000000000    0.4967752000000000 O
   0.9967752000000000    0.5032248000000000    0.2500000000000000 O
   0.5032248000000000    0.2500000000000000    0.9967752000000000 O
   0.2500000000000000    0.9967752000000000    0.5032248000000000 O
   0.5946365100000000    0.5946365100000000    0.5946365100000000 O
   0.9053634900000000    0.9053634900000000    0.9053634900000000 O
   0.4053634900000000    0.4053634900000000    0.4053634900000000 O
   0.0946365100000000    0.0946365100000000    0.0946365100000000 O
