Rb4 Hg6 Se8
1.0
  -3.2506180499999999    5.8338769099999999    7.1271799099999997
   3.2506180499999999   -5.8338769099999999    7.1271799099999997
   3.2506180499999999    5.8338769099999999   -7.1271799099999997
Rb Hg Se
4 6 8
direct
   0.1181313900000000    0.7737890900000000    0.8919214800000000 Rb
   0.8818686100000001    0.2262109100000000    0.1080785200000000 Rb
   0.6181313899999999    0.7262109100000000    0.3443422900000000 Rb
   0.3818686100000000    0.2737890900000000    0.6556577099999999 Rb
   0.2500000000000000    0.7500000000000000    0.5000000000000000 Hg
   0.7500000000000000    0.2500000000000000    0.5000000000000000 Hg
   0.9231026500000000    0.7500000000000000    0.1731026500000000 Hg
   0.5768973500000000    0.7500000000000000    0.8268973500000000 Hg
   0.0768973500000000    0.2500000000000000    0.8268973500000000 Hg
   0.4231026500000000    0.2500000000000000    0.1731026500000000 Hg
   0.2326109200000000    0.6459245800000000    0.1459985700000000 Se
   0.4999260100000000    0.0866123500000000    0.8540014300000000 Se
   0.0000739900000000    0.8540754200000000    0.5866863400000000 Se
   0.2673890800000000    0.4133876500000000    0.4133136600000000 Se
   0.7673890799999999    0.3540754200000000    0.8540014300000000 Se
   0.5000739900000000    0.9133876500000000    0.1459985700000000 Se
   0.9999260100000000    0.1459245800000000    0.4133136600000000 Se
   0.7326109200000001    0.5866123500000000    0.5866863400000000 Se
