Ca1 Bi6 P4 O20
1.0
   6.8921000200000000    0.0168952700000000   -0.0414813600000000
  -2.8870895200000000    6.9985377900000003    0.0276968200000000
  -0.6346438700000000   -3.1334087400000001    8.5378281200000004
Ca Bi P O
1 6 4 20
direct
   0.0000000000000000    0.5000000000000000    0.0000000000000000 Ca
   0.8149193000000000    0.7994852099999999    0.3281457000000000 Bi
   0.3352064000000000    0.6348200400000000    0.5079339800000000 Bi
   0.4319408800000000    0.2884916800000000    0.0854139300000000 Bi
   0.5680591200000000    0.7115083200000000    0.9145860700000000 Bi
   0.6647936000000000    0.3651799600000000    0.4920660200000000 Bi
   0.1850807000000000    0.2005147900000000    0.6718543000000000 Bi
   0.3414116500000000    0.8914062400000000    0.2538138400000000 P
   0.6585883500000000    0.1085937600000000    0.7461861600000000 P
   0.9469642200000000    0.2308867800000000    0.2405721900000000 P
   0.0530357800000000    0.7691132200000000    0.7594278100000000 P
   0.4499539000000000    0.4745562400000000    0.6389566000000000 O
   0.1476609700000000    0.0037966500000000    0.8338129800000000 O
   0.3427245300000000    0.8149520800000000    0.0780337300000000 O
   0.2300871000000000    0.6884111300000000    0.7582233200000000 O
   0.5267465900000000    0.8840693900000000    0.3564534900000000 O
   0.8890748800000000    0.6674378100000000    0.8493650800000000 O
   0.4732534100000000    0.1159306100000000    0.6435465100000000 O
   0.0519312900000000    0.2955678600000000    0.4169300900000000 O
   0.6427109100000000    0.8889400200000001    0.6907506000000000 O
   0.8523390300000000    0.9962033500000000    0.1661870200000000 O
   0.7699129000000000    0.3115888700000000    0.2417766800000000 O
   0.9480687100000000    0.7044321400000000    0.5830699100000000 O
   0.5500461000000000    0.5254437600000000    0.3610434000000000 O
   0.8757858600000000    0.2575833700000000    0.7261246099999999 O
   0.3122203900000000    0.4119135200000000    0.9050592700000000 O
   0.6572754700000000    0.1850479200000000    0.9219662700000000 O
   0.6877796100000000    0.5880864800000000    0.0949407300000000 O
   0.1109251200000000    0.3325621900000000    0.1506349200000000 O
   0.3572890900000000    0.1110599800000000    0.3092494000000000 O
   0.1242141400000000    0.7424166300000000    0.2738753900000000 O
