Cs4 Au4 Se6
1.0
   4.7388244200000003   -6.6960647700000004    0.0830652700000000
   4.7388244200000003    6.6960647700000004    0.0830652700000000
  -0.1058399100000000    0.0000000000000000    7.1815278100000004
Cs Au Se
4 4 6
direct
   0.6636617500000001    0.8744358000000000    0.3671196100000000 Cs
   0.8744358000000000    0.6636617500000001    0.8671196100000000 Cs
   0.3363382500000000    0.1255642000000000    0.6328803900000000 Cs
   0.1255642000000000    0.3363382500000000    0.1328803900000000 Cs
   0.7750599100000000    0.3663095800000000    0.4534949000000000 Au
   0.3663095800000000    0.7750599100000000    0.9534949000000000 Au
   0.2249400900000000    0.6336904200000000    0.5465051000000000 Au
   0.6336904200000000    0.2249400900000000    0.0465051000000000 Au
   0.2764311000000000    0.9544582000000000    0.1697364200000000 Se
   0.4292239500000000    0.5707760500000000    0.7500000000000000 Se
   0.5707760500000000    0.4292239500000000    0.2500000000000000 Se
   0.9544582000000000    0.2764311000000000    0.6697364200000000 Se
   0.0455418000000000    0.7235689000000000    0.3302635800000000 Se
   0.7235689000000000    0.0455418000000000    0.8302635800000000 Se
