Li4 Zn2 Ge2 O8
1.0
   5.0252290400000001    0.0000000000000000   -0.0015617300000000
   0.0000000000000000    5.4117821499999996    0.0000000000000000
  -5.0047206299999996    0.0000000000000000    6.3543822199999997
Li Zn Ge O
4 2 2 8
direct
   0.5019668700000000    0.8336429100000000    0.9999507200000000 Li
   0.7534161400000000    0.6694106200000000    0.7516060700000000 Li
   0.7534161400000000    0.3305893800000000    0.2516060700000000 Li
   0.5019668700000000    0.1663570900000000    0.4999507200000000 Li
   0.2481321000000000    0.6674923800000000    0.2481738200000000 Zn
   0.2481321000000000    0.3325076200000000    0.7481738200000000 Zn
   0.9969422900000000    0.8310529700000000    0.5006599600000000 Ge
   0.9969422900000000    0.1689470300000000    0.0006599600000000 Ge
   0.6358972200000000    0.1773461100000000    0.9964767300000000 O
   0.8837468000000001    0.6786429800000000    0.2682511100000000 O
   0.6358972200000000    0.8226538900000000    0.4964767300000000 O
   0.8837468000000001    0.3213570200000000    0.7682511100000000 O
   0.1129714300000000    0.1448165800000000    0.5042894600000000 O
   0.1129714300000000    0.8551834200000000    0.0042894600000000 O
   0.3409271600000000    0.6717672700000000    0.7315931200000000 O
   0.3409271600000000    0.3282327300000000    0.2315931200000000 O
