Na10 Ag2 Ge4 Se14
1.0
   4.7303066600000001   -5.3004656099999998   -0.0000987400000000
   4.7303066600000001    5.3004656099999998   -0.0000987400000000
  -3.5195324800000001    0.0000000000000000   14.9723690699999992
Na Ag Ge Se
10 2 4 14
direct
   0.0000000000000000    0.0000000000000000    0.5000000000000000 Na
   0.0000000000000000    0.0000000000000000    0.0000000000000000 Na
   0.5251158900000000    0.2366977400000000    0.9191266800000000 Na
   0.4748841100000000    0.7633022600000000    0.0808733200000000 Na
   0.7633022600000000    0.4748841100000000    0.5808733200000000 Na
   0.2366977400000000    0.5251158900000000    0.4191266800000000 Na
   0.5248132599999999    0.9793060600000000    0.6463736100000000 Na
   0.4751867400000000    0.0206939400000000    0.3536263900000000 Na
   0.0206939400000000    0.4751867400000000    0.8536263900000000 Na
   0.9793060600000000    0.5248132599999999    0.1463736100000000 Na
   0.0882235600000000    0.9117764400000000    0.7500000000000000 Ag
   0.9117764400000000    0.0882235600000000    0.2500000000000000 Ag
   0.5855707600000000    0.7387800000000000    0.8613968900000000 Ge
   0.4144292400000000    0.2612200000000000    0.1386031100000000 Ge
   0.2612200000000000    0.4144292400000000    0.6386031100000000 Ge
   0.7387800000000000    0.5855707600000000    0.3613968900000000 Ge
   0.7693048200000000    0.9925982200000000    0.8162155400000000 Se
   0.2306951800000000    0.0074017800000000    0.1837844600000000 Se
   0.0074017800000000    0.2306951800000000    0.6837844600000000 Se
   0.9925982200000000    0.7693048200000000    0.3162155400000000 Se
   0.5485564600000000    0.4514435400000000    0.7500000000000000 Se
   0.4514435400000000    0.5485564600000000    0.2500000000000000 Se
   0.2940166700000000    0.8349336200000000    0.8940406500000000 Se
   0.7059833300000000    0.1650663800000000    0.1059593500000000 Se
   0.1650663800000000    0.7059833300000000    0.6059593500000000 Se
   0.8349336200000000    0.2940166700000000    0.3940406500000000 Se
   0.3798209800000000    0.2291967200000000    0.5234352300000000 Se
   0.6201790200000000    0.7708032800000000    0.4765647700000000 Se
   0.7708032800000000    0.6201790200000000    0.9765647700000000 Se
   0.2291967200000000    0.3798209800000000    0.0234352300000000 Se
