Rb4 Cu4 Te4 S12
1.0
   7.3674940099999997    0.0000000000000000    0.0217708600000000
   0.0000000000000000   10.3284561299999993    0.0000000000000000
  -2.1688469600000002    0.0000000000000000    7.6698664299999999
Rb Cu Te S
4 4 4 12
direct
   0.4763037900000000    0.2427564900000000    0.1178436300000000 Rb
   0.5236962100000000    0.7572435100000000    0.8821563700000000 Rb
   0.5236962100000000    0.7427564900000000    0.3821563700000000 Rb
   0.4763037900000000    0.2572435100000000    0.6178436300000000 Rb
   0.9200532800000000    0.2496208700000000    0.4804817900000000 Cu
   0.0799467200000000    0.7503791300000000    0.5195182100000000 Cu
   0.0799467200000000    0.7496208700000000    0.0195182100000000 Cu
   0.9200532800000000    0.2503791300000000    0.9804817900000000 Cu
   0.9504977400000000    0.4995906300000000    0.2368312300000000 Te
   0.0495022600000000    0.5004093700000000    0.7631687700000001 Te
   0.0495022600000000    0.9995906300000000    0.2631687700000000 Te
   0.9504977400000000    0.0004093700000000    0.7368312299999999 Te
   0.7483770600000000    0.0587225100000000    0.4556052400000000 S
   0.2516229400000000    0.9412774900000000    0.5443947600000000 S
   0.2516229400000000    0.5587225100000000    0.0443947600000000 S
   0.7483770600000000    0.4412774900000000    0.9556052400000000 S
   0.8954390200000000    0.7322531600000000    0.2242223500000000 S
   0.1045609800000000    0.2677468400000000    0.7757776500000000 S
   0.1045609800000000    0.2322531600000000    0.2757776500000000 S
   0.8954390200000000    0.7677468400000000    0.7242223500000000 S
   0.7471505800000000    0.4399132600000000    0.4172051800000000 S
   0.2528494200000000    0.5600867400000000    0.5827948200000000 S
   0.2528494200000000    0.9399132600000000    0.0827948200000000 S
   0.7471505800000000    0.0600867400000000    0.9172051800000000 S
