Rb8 Ta6 O19
1.0
  -4.8978403600000000    4.8978261800000000    6.6501033999999999
   4.8978403600000000   -4.8978261800000000    6.6501033999999999
   4.8978261800000000    4.8978403600000000   -6.6501033999999999
Rb Ta O
8 6 19
direct
   0.6273489300000000    0.4432282200000000    0.3566855700000000 Rb
   0.3726510700000000    0.5567717800000000    0.6433144300000000 Rb
   0.0865426500000000    0.2706623600000000    0.6433144300000000 Rb
   0.4432282200000000    0.0865426500000000    0.8158792900000000 Rb
   0.9134573499999999    0.7293376400000000    0.3566855700000000 Rb
   0.5567717800000000    0.9134573499999999    0.1841207100000000 Rb
   0.2706623600000000    0.6273489300000000    0.1841207100000000 Rb
   0.7293376400000000    0.3726510700000000    0.8158792900000000 Rb
   0.1743497400000000    0.1743497400000000    0.0000000000000000 Ta
   0.8256502600000000    0.8256502600000000    0.0000000000000000 Ta
   0.2167188800000000    0.1090373100000000    0.3257562000000000 Ta
   0.7832811200000001    0.8909626899999999    0.6742437999999999 Ta
   0.1090373100000000    0.7832811200000001    0.8923184300000000 Ta
   0.8909626899999999    0.2167188800000000    0.1076815700000000 Ta
   0.0861882900000000    0.2689693100000000    0.3551575900000000 O
   0.9138117100000001    0.7310306900000000    0.6448424100000000 O
   0.2689693100000000    0.9138117100000001    0.1827810200000000 O
   0.7310306900000000    0.0861882900000000    0.8172189800000000 O
   0.3278577900000000    0.2420549800000000    0.2732356200000000 O
   0.6721422100000000    0.7579450200000000    0.7267643800000000 O
   0.9688193500000000    0.0546221700000000    0.7267643800000000 O
   0.2420549800000000    0.9688193500000000    0.9141971900000000 O
   0.0311806500000000    0.9453778300000000    0.2732356200000000 O
   0.7579450200000000    0.0311806500000000    0.0858028100000000 O
   0.0546221700000000    0.3278577900000000    0.0858028100000000 O
   0.9453778300000000    0.6721422100000000    0.9141971900000000 O
   0.3747001800000000    0.2075922100000000    0.5822923900000000 O
   0.6252998200000000    0.7924077899999999    0.4177076100000000 O
   0.2075922100000000    0.6252998200000000    0.8328920300000000 O
   0.7924077899999999    0.3747001800000000    0.1671079700000000 O
   0.3117628000000000    0.3117628000000000    0.0000000000000000 O
   0.6882372000000000    0.6882372000000000    0.0000000000000000 O
   0.0000000000000000    0.0000000000000000    0.0000000000000000 O
