Al8 Bi4 S16
1.0
   7.4614061899999999    0.0000000000000000    0.0000000000000000
   0.0000000000000000    7.4614061899999999    0.0000000000000000
   0.0000000000000000    0.0000000000000000   11.8782213799999994
Al Bi S
8 4 16
direct
   0.0000000000000000    0.5000000000000000    0.7500000000000000 Al
   0.0000000000000000    0.5000000000000000    0.0000000000000000 Al
   0.0000000000000000    0.5000000000000000    0.2500000000000000 Al
   0.5000000000000000    0.0000000000000000    0.5000000000000000 Al
   0.5000000000000000    0.0000000000000000    0.2500000000000000 Al
   0.5000000000000000    0.0000000000000000    0.7500000000000000 Al
   0.0000000000000000    0.5000000000000000    0.5000000000000000 Al
   0.5000000000000000    0.0000000000000000    0.0000000000000000 Al
   0.0000000000000000    0.0000000000000000    0.8680502800000000 Bi
   0.5000000000000000    0.5000000000000000    0.6319497200000000 Bi
   0.5000000000000000    0.5000000000000000    0.3680502800000000 Bi
   0.0000000000000000    0.0000000000000000    0.1319497200000000 Bi
   0.3399100900000000    0.1652413600000000    0.8751346700000000 S
   0.3347586400000000    0.1600899100000000    0.3751346700000000 S
   0.8399100900000001    0.3347586400000000    0.3751346700000000 S
   0.6600899099999999    0.8347586400000000    0.8751346700000000 S
   0.3347586400000000    0.8399100900000001    0.6248653300000000 S
   0.1652413600000000    0.3399100900000000    0.1248653300000000 S
   0.3399100900000000    0.8347586400000000    0.1248653300000000 S
   0.8347586400000000    0.3399100900000000    0.8751346700000000 S
   0.8347586400000000    0.6600899099999999    0.1248653300000000 S
   0.6652413600000000    0.1600899100000000    0.6248653300000000 S
   0.1652413600000000    0.6600899099999999    0.8751346700000000 S
   0.6652413600000000    0.8399100900000001    0.3751346700000000 S
   0.1600899100000000    0.6652413600000000    0.3751346700000000 S
   0.8399100900000001    0.6652413600000000    0.6248653300000000 S
   0.1600899100000000    0.3347586400000000    0.6248653300000000 S
   0.6600899099999999    0.1652413600000000    0.1248653300000000 S
