Na4 Zr2 Si4 O14
1.0
   5.4875382500000001   -0.0071827700000000   -0.0141868000000000
   0.4517440200000000    6.5377955400000003    0.0267661900000000
   0.3329654200000000    2.9181798900000002    8.4212555200000008
Na Zr Si O
4 2 4 14
direct
   0.7348265500000000    0.8931784900000000    0.1102158900000000 Na
   0.2651734500000000    0.1068215100000000    0.8897841100000000 Na
   0.2452709200000000    0.3465104000000000    0.4885663500000000 Na
   0.7547290800000001    0.6534896000000000    0.5114336500000000 Na
   0.2225528500000000    0.7057204300000000    0.7261631000000000 Zr
   0.7774471500000000    0.2942795700000000    0.2738369000000000 Zr
   0.3129647700000000    0.9395735600000000    0.3357071700000000 Si
   0.7737454000000000    0.3466124400000000    0.8555177899999999 Si
   0.6870352300000000    0.0604264400000000    0.6642928299999999 Si
   0.2262546000000000    0.6533875600000000    0.1444822100000000 Si
   0.8853044300000000    0.8685691000000000    0.6621363700000000 O
   0.7221623000000000    0.2846558800000000    0.5156563300000000 O
   0.2821206400000000    0.8935109300000000    0.1625573500000000 O
   0.8107384200000000    0.2815199800000000    0.0451785700000000 O
   0.4019258400000000    0.9986479900000000    0.6695262800000000 O
   0.5980741600000000    0.0013520100000000    0.3304737200000000 O
   0.0295729700000000    0.4212047800000000    0.7594242500000000 O
   0.1146955700000000    0.1314309000000000    0.3378636300000000 O
   0.5410413100000000    0.5081422900000000    0.7803437400000000 O
   0.4589586900000000    0.4918577100000000    0.2196562600000000 O
   0.2778377000000000    0.7153441200000000    0.4843436700000000 O
   0.1892615800000000    0.7184800200000000    0.9548214300000000 O
   0.9704270300000000    0.5787952200000001    0.2405757500000000 O
   0.7178793600000000    0.1064890700000000    0.8374426500000000 O
