Ca3 V2 O8
1.0
   4.9314130000000000   -2.7451780000000001    0.0000000000000000
   4.9314130000000000    2.7451780000000001    0.0000000000000000
  -2.7722730000000002    0.0000000000000000    6.1945199999999998
Ca V O
3 2 8
direct
   0.8265330000000000    0.8265330000000000    0.4163710000000000 Ca
   0.1734670000000000    0.1734670000000000    0.5836290000000000 Ca
   0.0000000000000000    0.0000000000000000    0.0000000000000000 Ca
   0.6069710000000000    0.6069710000000000    0.7928269999999999 V
   0.3930290000000000    0.3930290000000000    0.2071730000000000 V
   0.2402750000000000    0.7657610000000000    0.7056789999999999 O
   0.6822620000000000    0.6822620000000000    0.0660070000000000 O
   0.2554620000000000    0.2554620000000000    0.3063960000000000 O
   0.7657610000000000    0.2402750000000000    0.7056789999999999 O
   0.7597250000000000    0.2342390000000000    0.2943210000000000 O
   0.2342390000000000    0.7597250000000000    0.2943210000000000 O
   0.3177380000000000    0.3177380000000000    0.9339930000000000 O
   0.7445380000000000    0.7445380000000000    0.6936040000000000 O
