Li2 Bi2 P8 O24
1.0
   8.1989813199999997   -3.5302719900000001   -0.0092912000000000
   8.1989813199999997    3.5302719900000001   -0.0092912000000000
  -5.7374150200000003    0.0000000000000000    7.8765489200000003
Li Bi P O
2 2 8 24
direct
   0.2981300200000000    0.7018699800000000    0.2500000000000000 Li
   0.7018699800000000    0.2981300200000000    0.7500000000000000 Li
   0.8031160600000000    0.1968839400000000    0.2500000000000000 Bi
   0.1968839400000000    0.8031160600000000    0.7500000000000000 Bi
   0.7033564400000000    0.0040486200000000    0.8053454000000000 P
   0.3062913900000000    0.4164448000000000    0.8843400700000000 P
   0.5835552000000001    0.6937086099999999    0.6156599300000000 P
   0.9959513800000001    0.2966435600000000    0.6946546000000000 P
   0.0040486200000000    0.7033564400000000    0.3053454000000000 P
   0.4164448000000000    0.3062913900000000    0.3843400700000000 P
   0.6937086099999999    0.5835552000000001    0.1156599300000000 P
   0.2966435600000000    0.9959513800000001    0.1946546000000000 P
   0.1602076500000000    0.6015207000000000    0.8114418000000000 O
   0.4685064200000000    0.2183192000000000    0.7699679600000000 O
   0.7612078600000000    0.9777744700000000    0.9701182500000000 O
   0.6688017600000000    0.8239185600000000    0.6475514400000000 O
   0.1591153200000000    0.9788941300000000    0.2225011700000000 O
   0.1760814400000000    0.3311982400000000    0.8524485600000000 O
   0.0222255300000000    0.2387921400000000    0.5298817500000000 O
   0.5541553299999999    0.5757488500000000    0.4294213100000000 O
   0.4242511500000000    0.4458446700000000    0.0705786900000000 O
   0.7816808000000000    0.5314935800000000    0.7300320400000000 O
   0.3984793000000000    0.8397923500000000    0.6885582000000000 O
   0.0211058700000000    0.8408846800000001    0.2774988300000000 O
   0.9788941300000000    0.1591153200000000    0.7225011700000000 O
   0.6015207000000000    0.1602076500000000    0.3114418000000000 O
   0.2183192000000000    0.4685064200000000    0.2699679600000000 O
   0.5757488500000000    0.5541553299999999    0.9294213099999999 O
   0.4458446700000000    0.4242511500000000    0.5705786900000001 O
   0.9777744700000000    0.7612078600000000    0.4701182500000000 O
   0.8239185600000000    0.6688017600000000    0.1475514400000000 O
   0.8408846800000001    0.0211058700000000    0.7774988300000000 O
   0.3311982400000000    0.1760814400000000    0.3524485600000000 O
   0.2387921400000000    0.0222255300000000    0.0298817500000000 O
   0.5314935800000000    0.7816808000000000    0.2300320400000000 O
   0.8397923500000000    0.3984793000000000    0.1885582000000000 O
