Ba2 Ag4 O4
1.0
  -2.8746143599999998    2.8746143599999998    5.4211182500000001
   2.8746143599999998   -2.8746143599999998    5.4211182500000001
   2.8746143599999998    2.8746143599999998   -5.4211182500000001
Ba Ag O
2 4 4
direct
   0.5000000000000000    0.5000000000000000    0.0000000000000000 Ba
   0.2500000000000000    0.7500000000000000    0.5000000000000000 Ba
   0.3750000000000000    0.1250000000000000    0.2500000000000000 Ag
   0.8750000000000000    0.1250000000000000    0.2500000000000000 Ag
   0.8750000000000000    0.6250000000000000    0.7500000000000000 Ag
   0.8750000000000000    0.1250000000000000    0.7500000000000000 Ag
   0.0108623800000000    0.5108623799999999    0.5000000000000000 O
   0.2608623800000000    0.2608623800000000    0.0000000000000000 O
   0.7391376200000001    0.7391376200000001    0.0000000000000000 O
   0.4891376200000000    0.9891376200000001    0.5000000000000000 O
