Cs2 Sb2 W2 O12
1.0
  -3.6199835400000002    5.1747319899999997    3.6735820100000001
   3.6199835400000002   -5.1747319899999997    3.6735820100000001
   3.6199835400000002    5.1747319899999997   -3.6735820100000001
Cs Sb W O
2 2 2 12
direct
   0.3782497200000000    0.7554700200000000    0.1227797100000000 Cs
   0.6326903100000000    0.2554700200000000    0.8772202900000000 Cs
   0.9993462200000000    0.4993462200000000    0.5000000000000000 Sb
   0.9993462200000000    0.9993462200000000    0.0000000000000000 Sb
   0.0161994500000000    0.0124590100000000    0.5037404400000000 W
   0.5087185700000000    0.5124590100000000    0.4962595600000000 W
   0.9233383100000000    0.2487534800000000    0.1745848200000000 O
   0.3110524300000000    0.2529884000000000    0.5580640200000000 O
   0.3201965800000000    0.2566534900000000    0.1900077700000000 O
   0.9351960499999999    0.2440727000000000    0.5651291899999999 O
   0.9351960499999999    0.8700668600000000    0.1911233500000000 O
   0.3201965800000000    0.6301888100000000    0.5635420900000000 O
   0.0741686600000000    0.7487534800000000    0.8254151800000000 O
   0.6949253800000000    0.7529884000000000    0.4419359800000000 O
   0.6789435100000000    0.7440727000000000    0.8088766500000000 O
   0.0666457300000000    0.7566534900000000    0.4364579100000000 O
   0.0666457300000000    0.1301888100000000    0.8099922300000000 O
   0.6789435100000000    0.3700668600000000    0.4348708100000000 O
