Li1 Y1 Se2
1.0
   2.0071470200000001    1.1588274000000001    6.3764484799999996
  -2.0071470200000001    1.1588274000000001    6.3764484799999996
   0.0000000000000000   -2.3176538099999999    6.3764484799999996
Li Y Se
1 1 2
direct
   0.5000000000000000    0.5000000000000000    0.5000000000000000 Li
   0.0000000000000000    0.0000000000000000    0.0000000000000000 Y
   0.7518342800000000    0.7518342800000000    0.7518342800000000 Se
   0.2481657200000000    0.2481657200000000    0.2481657200000000 Se
