Cs4 Ti2 S6
1.0
   6.2470503300000004   -4.4884078499999998    0.0000000000000000
   6.2470503300000004    4.4884078499999998    0.0000000000000000
   0.0000000000000000    0.0000000000000000    6.5525022000000002
Cs Ti S
4 2 6
direct
   0.9940469400000000    0.3167093100000000    0.2500000000000000 Cs
   0.0059530600000000    0.6832906900000000    0.7500000000000000 Cs
   0.3167093100000000    0.9940469400000000    0.7500000000000000 Cs
   0.6832906900000000    0.0059530600000000    0.2500000000000000 Cs
   0.5782547300000001    0.4217452700000000    0.7500000000000000 Ti
   0.4217452700000000    0.5782547300000001    0.2500000000000000 Ti
   0.6300493500000000    0.6300493500000000    0.5000000000000000 S
   0.3699506500000000    0.3699506500000000    0.0000000000000000 S
   0.8298594000000000    0.1701406000000000    0.7500000000000000 S
   0.1701406000000000    0.8298594000000000    0.2500000000000000 S
   0.6300493500000000    0.6300493500000000    0.0000000000000000 S
   0.3699506500000000    0.3699506500000000    0.5000000000000000 S
