La3 Si3 B3 O15
1.0
   6.8835355199999997    0.0000002600000000    0.0000000000000000
  -3.4417679799999998    5.9613161799999999    0.0000000000000000
   0.0000000000000000    0.0000000000000000    6.6914487100000004
La Si B O
3 3 3 15
direct
   0.7467570800000000    0.0798452700000000    0.1655195600000000 La
   0.3330881900000000    0.2532429200000000    0.8321855600000000 La
   0.9201547300000000    0.6669118100000000    0.4988525600000000 La
   0.7505692000000000    0.0811801700000000    0.6640184400000000 Si
   0.3306109700000000    0.2494308000000000    0.3306854400000000 Si
   0.9188198300000000    0.6693890300000001    0.9973514400000000 Si
   0.3484323800000000    0.7820980700000000    0.8597759100000000 B
   0.4336656900000000    0.6515676200000000    0.5264429100000000 B
   0.2179019300000000    0.5663343100000000    0.1931099100000000 B
   0.7250075900000000    0.5307756700000000    0.8352878500000001 O
   0.8057680800000000    0.2749924100000000    0.5019548500000000 O
   0.4692243300000000    0.1942319200000000    0.1686218500000000 O
   0.9377550400000000    0.1212857500000000    0.8294987300000000 O
   0.1835307100000000    0.0622449600000000    0.4961657300000000 O
   0.8787142500000000    0.8164692900000000    0.1628317300000000 O
   0.1428167800000000    0.8070099600000000    0.8493353400000000 O
   0.6641931800000000    0.8571832200000000    0.5160013400000000 O
   0.1929900400000000    0.3358068200000000    0.1826683400000000 O
   0.5288759700000000    0.0158189400000000    0.8087056000000000 O
   0.4869429800000000    0.4711240300000000    0.4753716000000000 O
   0.9841810600000001    0.5130570200000000    0.1420386000000000 O
   0.3423701600000000    0.6135929900000000    0.7264945700000000 O
   0.2712228200000000    0.6576298400000000    0.3931615700000000 O
   0.3864070100000000    0.7287771800000000    0.0598285700000000 O
