Tl3 V1 Se4
1.0
  -3.8297156399999999    3.8297156399999999    3.8297156399999999
   3.8297156399999999   -3.8297156399999999    3.8297156399999999
   3.8297156399999999    3.8297156399999999   -3.8297156399999999
Tl V Se
3 1 4
direct
   0.0000000000000000    0.5000000000000000    0.5000000000000000 Tl
   0.5000000000000000    0.0000000000000000    0.5000000000000000 Tl
   0.5000000000000000    0.5000000000000000    0.0000000000000000 Tl
   0.0000000000000000    0.0000000000000000    0.0000000000000000 V
   0.3447971200000000    0.0000000000000000    0.0000000000000000 Se
   0.0000000000000000    0.3447971200000000    0.0000000000000000 Se
   0.0000000000000000    0.0000000000000000    0.3447971200000000 Se
   0.6552028800000000    0.6552028800000000    0.6552028800000000 Se
