Cs8 Be4 O8
1.0
   8.1515780000000007    0.0000000000000000    0.0000000000000000
   0.0000000000000000    6.0306069999999998    0.0000000000000000
  -7.8381930000000004    0.0000000000000000    8.7682110000000009
Cs Be O
8 4 8
direct
   0.8819810000000000    0.9581720000000000    0.7754590000000000 Cs
   0.3030000000000000    0.5925940000000000    0.1211070000000000 Cs
   0.6970000000000000    0.0925940000000000    0.3788930000000000 Cs
   0.1180190000000000    0.4581720000000000    0.7245410000000000 Cs
   0.8819810000000000    0.5418280000000000    0.2754590000000000 Cs
   0.3030000000000000    0.9074060000000000    0.6211070000000000 Cs
   0.6970000000000000    0.4074060000000000    0.8788930000000000 Cs
   0.1180190000000000    0.0418280000000000    0.2245410000000000 Cs
   0.5924240000000000    0.5579140000000000    0.4761370000000000 Be
   0.4075760000000000    0.0579140000000000    0.0238630000000000 Be
   0.5924240000000000    0.9420860000000000    0.9761370000000000 Be
   0.4075760000000000    0.4420860000000000    0.5238630000000000 Be
   0.6652439999999999    0.4122680000000000    0.6170150000000000 O
   0.2747070000000000    0.1276330000000000    0.0646250000000000 O
   0.7252930000000000    0.6276330000000000    0.4353750000000000 O
   0.3347560000000000    0.9122680000000000    0.8829850000000000 O
   0.6652439999999999    0.0877320000000000    0.1170150000000000 O
   0.2747070000000000    0.3723670000000000    0.5646250000000000 O
   0.7252930000000000    0.8723670000000000    0.9353750000000000 O
   0.3347560000000000    0.5877320000000000    0.3829850000000000 O
