Ba3 Mg1 Ta2 O9
1.0
   5.7788324800000002    0.0000000000000000    0.0000000000000000
  -2.8894162400000001    5.0046163000000004    0.0000000000000000
   0.0000000000000000    0.0000000000000000    7.1055307499999998
Ba Mg Ta O
3 1 2 9
direct
   0.3333330000000000    0.6666670000000000    0.6606331500000000 Ba
   0.0000000000000000    0.0000000000000000    0.0000000000000000 Ba
   0.6666670000000000    0.3333330000000000    0.3393668500000000 Ba
   0.0000000000000000    0.0000000000000000    0.5000000000000000 Mg
   0.3333330000000000    0.6666670000000000    0.1752309400000000 Ta
   0.6666670000000000    0.3333330000000000    0.8247690600000001 Ta
   0.8289820900000000    0.1710179100000000    0.6743745200000000 O
   0.8289820900000000    0.6579641800000000    0.6743745200000000 O
   0.3420358200000000    0.1710179100000000    0.6743745200000000 O
   0.6579641800000000    0.8289820900000000    0.3256254800000000 O
   0.1710179100000000    0.3420358200000000    0.3256254800000000 O
   0.1710179100000000    0.8289820900000000    0.3256254800000000 O
   0.5000000000000000    0.0000000000000000    0.0000000000000000 O
   0.0000000000000000    0.5000000000000000    0.0000000000000000 O
   0.5000000000000000    0.5000000000000000    0.0000000000000000 O
