Cs2 La2 P8 O24
1.0
   7.2365543099999998    0.0000000000000000    0.0041069400000000
   0.0000000000000000    9.3087027199999994    0.0000000000000000
  -1.4248972000000000    0.0000000000000000    8.7498036100000007
Cs La P O
2 2 8 24
direct
   0.6744425700000000    0.4314368100000000    0.1771329500000000 Cs
   0.3255574300000000    0.9314368100000000    0.8228670500000000 Cs
   0.7980187300000000    0.5979050000000000    0.6978477600000000 La
   0.2019812700000000    0.0979050000000000    0.3021522400000000 La
   0.3547713200000000    0.4723049200000000    0.4556745100000000 P
   0.3056636100000000    0.5257075700000000    0.7726731999999999 P
   0.9388271900000000    0.2064935500000000    0.6261603200000000 P
   0.0835213600000000    0.3237247000000000    0.9287956100000000 P
   0.6452286800000000    0.9723049200000000    0.5443254900000000 P
   0.0611728100000000    0.7064935500000000    0.3738396800000000 P
   0.9164786400000000    0.8237247000000000    0.0712043900000000 P
   0.6943363900000000    0.0257075700000000    0.2273268000000000 P
   0.9251877400000000    0.6517471800000000    0.4703847300000000 O
   0.9544947800000000    0.6988252000000000    0.1984291900000000 O
   0.5068646999999999    0.5687284000000000    0.8163654900000000 O
   0.2729777700000000    0.4419156400000000    0.6110431100000000 O
   0.5411700200000000    0.5447512400000000    0.4902361800000000 O
   0.0748122600000000    0.1517471800000000    0.5296152700000000 O
   0.3406648400000000    0.3360035000000000    0.3660810700000000 O
   0.1521765600000000    0.8497504700000000    0.4052574600000000 O
   0.1423677600000000    0.2513308800000000    0.0777573000000000 O
   0.7880297600000000    0.0831884600000000    0.6400871600000000 O
   0.4931353000000000    0.0687284000000000    0.1836345100000000 O
   0.0455052200000000    0.1988252000000000    0.8015708100000000 O
   0.2119702400000000    0.5831884600000000    0.3599128400000000 O
   0.7270222300000000    0.9419156400000001    0.3889568900000000 O
   0.8447743400000000    0.1367414300000000    0.2308632000000000 O
   0.0752597700000000    0.9289127400000000    0.0900454000000000 O
   0.8576322400000000    0.7513308800000000    0.9222427000000000 O
   0.8478234400000000    0.3497504700000000    0.5947425400000000 O
   0.1552256600000000    0.6367414300000001    0.7691368000000000 O
   0.9247402300000001    0.4289127400000000    0.9099545999999999 O
   0.4588299800000000    0.0447512400000000    0.5097638200000000 O
   0.6593351600000000    0.8360035000000000    0.6339189300000000 O
   0.7271700400000000    0.8969703100000000    0.1134404900000000 O
   0.2728299600000000    0.3969703100000000    0.8865595100000000 O
