Rb4 Te2 O6
1.0
   5.8104738899999999   -3.2217401699999999   -0.0595709200000000
   5.8104738899999999    3.2217401699999999   -0.0595709200000000
  -0.7301240300000000    0.0000000000000000    7.4170644200000000
Rb Te O
4 2 6
direct
   0.0000000000000000    0.0000000000000000    0.0000000000000000 Rb
   0.3159445200000000    0.3159445200000000    0.8616411600000000 Rb
   0.0000000000000000    0.0000000000000000    0.5000000000000000 Rb
   0.6840554800000000    0.6840554800000000    0.1383588400000000 Rb
   0.3409403900000000    0.3409403900000000    0.3459497800000000 Te
   0.6590596100000000    0.6590596100000000    0.6540502200000000 Te
   0.6117262999999999    0.1626737100000000    0.2110605800000000 O
   0.8373262900000000    0.3882737000000000    0.7889394199999999 O
   0.3882737000000000    0.8373262900000000    0.7889394199999999 O
   0.1626737100000000    0.6117262999999999    0.2110605800000000 O
   0.8186558200000000    0.8186558200000000    0.7216954500000000 O
   0.1813441800000000    0.1813441800000000    0.2783045500000000 O
