Sr6 Ge6 O18
1.0
   6.2768091500000001   -3.6317783900000000   -0.0033031400000000
   6.2768091500000001    3.6317783900000000   -0.0033031400000000
  -4.1002197699999998    0.0000000000000000   10.5451535399999994
Sr Ge O
6 6 18
direct
   0.5000000000000000    0.0000000000000000    0.5000000000000000 Sr
   0.0000000000000000    0.5000000000000000    0.0000000000000000 Sr
   0.6698163100000000    0.1595481500000000    0.0006381400000000 Sr
   0.8404518500000000    0.3301836900000000    0.4993618600000000 Sr
   0.3301836900000000    0.8404518500000000    0.9993618600000000 Sr
   0.1595481500000000    0.6698163100000000    0.5006381400000000 Sr
   0.1540867000000000    0.8459133000000000    0.2500000000000000 Ge
   0.8459133000000000    0.1540867000000000    0.7500000000000000 Ge
   0.4180090700000000    0.3204113600000000    0.2533995400000000 Ge
   0.6795886400000000    0.5819909300000000    0.2466004600000000 Ge
   0.5819909300000000    0.6795886400000000    0.7466004600000000 Ge
   0.3204113600000000    0.4180090700000000    0.7533995400000000 Ge
   0.6569830300000000    0.3430169700000000    0.2500000000000000 O
   0.3430169700000000    0.6569830300000000    0.7500000000000000 O
   0.0092982700000000    0.8870089100000000    0.0975831200000000 O
   0.1129910900000000    0.9907017299999999    0.4024168800000000 O
   0.9907017299999999    0.1129910900000000    0.9024168800000000 O
   0.8870089100000000    0.0092982700000000    0.5975831200000000 O
   0.1776959600000000    0.5828595700000000    0.2513452400000000 O
   0.4171404300000000    0.8223040400000000    0.2486547600000000 O
   0.8223040400000000    0.4171404300000000    0.7486547600000000 O
   0.5828595700000000    0.1776959600000000    0.7513452400000000 O
   0.3674764600000000    0.1749991000000000    0.1018105000000000 O
   0.8250009000000000    0.6325235400000000    0.3981895000000000 O
   0.2822747000000000    0.4694319400000000    0.9078695600000000 O
   0.5305680600000000    0.7177253000000000    0.5921304400000000 O
   0.7177253000000000    0.5305680600000000    0.0921304400000000 O
   0.4694319400000000    0.2822747000000000    0.4078695600000000 O
   0.1749991000000000    0.3674764600000000    0.6018105000000000 O
   0.6325235400000000    0.8250009000000000    0.8981895000000000 O
