Na4 Y4 Ge4 O16
1.0
  11.4098090899999995    0.0000000000000000    0.0000000000000000
   0.0000000000000000    6.4165980700000000    0.0000000000000000
   0.0000000000000000    0.0000000000000000    5.2662983700000003
Na Y Ge O
4 4 4 16
direct
   0.0000000000000000    0.0000000000000000    0.0000000000000000 Na
   0.0000000000000000    0.5000000000000000    0.0000000000000000 Na
   0.5000000000000000    0.0000000000000000    0.5000000000000000 Na
   0.5000000000000000    0.5000000000000000    0.5000000000000000 Na
   0.7233487600000000    0.7500000000000000    0.0050444300000000 Y
   0.2766512400000000    0.2500000000000000    0.9949555700000000 Y
   0.2233487600000000    0.7500000000000000    0.4949555700000000 Y
   0.7766512400000000    0.2500000000000000    0.5050444300000000 Y
   0.5957530700000000    0.2500000000000000    0.9462366300000000 Ge
   0.0957530700000000    0.2500000000000000    0.5537633700000000 Ge
   0.4042469300000000    0.7500000000000000    0.0537633700000000 Ge
   0.9042469300000000    0.7500000000000000    0.4462366300000000 Ge
   0.6736781800000000    0.4607843100000000    0.7892853800000000 O
   0.8263218200000000    0.5392156900000000    0.2892853800000000 O
   0.3263218200000000    0.9607843100000000    0.2107146200000000 O
   0.1736781800000000    0.0392156900000000    0.7107146200000000 O
   0.3263218200000000    0.5392156900000000    0.2107146200000000 O
   0.1736781800000000    0.4607843100000000    0.7107146200000000 O
   0.6736781800000000    0.0392156900000000    0.7892853800000000 O
   0.8263218200000000    0.9607843100000000    0.2892853800000000 O
   0.5482353800000000    0.7500000000000000    0.1810211600000000 O
   0.9517646200000000    0.2500000000000000    0.6810211600000000 O
   0.4517646200000000    0.2500000000000000    0.8189788400000000 O
   0.0482353800000000    0.7500000000000000    0.3189788400000000 O
   0.3917310400000000    0.7500000000000000    0.7209024200000000 O
   0.1082689600000000    0.2500000000000000    0.2209024200000000 O
   0.6082689600000000    0.2500000000000000    0.2790975800000000 O
   0.8917310400000000    0.7500000000000000    0.7790975800000000 O
