Cs8 W4 S16
1.0
  10.0773899399999998    0.0000000000000000    0.0000000000000000
   0.0000000000000000    7.1519002900000004    0.0000000000000000
   0.0000000000000000    0.0000000000000000   12.6904379100000000
Cs W S
8 4 16
direct
   0.3446356000000000    0.2500000000000000    0.6036345200000000 Cs
   0.6553644000000000    0.7500000000000000    0.3963654800000000 Cs
   0.8446356000000000    0.2500000000000000    0.8963654800000000 Cs
   0.1553644000000000    0.7500000000000000    0.1036345200000000 Cs
   0.0370012100000000    0.2500000000000000    0.3318512600000000 Cs
   0.9629987900000000    0.7500000000000000    0.6681487400000000 Cs
   0.5370012100000000    0.2500000000000000    0.1681487400000000 Cs
   0.4629987900000000    0.7500000000000000    0.8318512600000000 Cs
   0.2522589200000000    0.2500000000000000    0.9224799600000000 W
   0.7477410799999999    0.7500000000000000    0.0775200400000000 W
   0.7522589200000001    0.2500000000000000    0.5775200400000000 W
   0.2477410800000000    0.7500000000000000    0.4224799600000000 W
   0.8372929000000000    0.9999076400000000    0.1481118500000000 S
   0.1627071000000000    0.4999076400000000    0.8518881500000000 S
   0.3372929000000000    0.5000923600000000    0.3518881500000000 S
   0.6627071000000000    0.0000923600000000    0.6481118500000000 S
   0.1627071000000000    0.0000923600000000    0.8518881500000000 S
   0.8372929000000000    0.5000923600000000    0.1481118500000000 S
   0.6627071000000000    0.4999076400000000    0.6481118500000000 S
   0.3372929000000000    0.9999076400000000    0.3518881500000000 S
   0.4677229600000000    0.2500000000000000    0.8927346800000000 S
   0.5322770400000000    0.7500000000000000    0.1072653200000000 S
   0.9677229600000000    0.2500000000000000    0.6072653200000000 S
   0.0322770400000000    0.7500000000000000    0.3927346800000000 S
   0.2879268300000000    0.7500000000000000    0.5926868500000000 S
   0.7120731700000000    0.2500000000000000    0.4073131500000000 S
   0.7879268300000000    0.7500000000000000    0.9073131500000000 S
   0.2120731700000000    0.2500000000000000    0.0926868500000000 S
