Ba6 Na2 Ta2 O12
1.0
   5.1378373399999999    2.9663320099999999    3.9746632399999999
  -5.1378373399999999    2.9663320099999999    3.9746632399999999
   0.0000000000000000   -5.9326640299999998    3.9746632399999999
Ba Na Ta O
6 2 2 12
direct
   0.2500000000000000    0.6015042400000000    0.8984957600000000 Ba
   0.8984957600000000    0.2500000000000000    0.6015042400000000 Ba
   0.3984957600000000    0.1015042400000000    0.7500000000000000 Ba
   0.7500000000000000    0.3984957600000000    0.1015042400000000 Ba
   0.1015042400000000    0.7500000000000000    0.3984957600000000 Ba
   0.6015042400000000    0.8984957600000000    0.2500000000000000 Ba
   0.2500000000000000    0.2500000000000000    0.2500000000000000 Na
   0.7500000000000000    0.7500000000000000    0.7500000000000000 Na
   0.0000000000000000    0.0000000000000000    0.0000000000000000 Ta
   0.5000000000000000    0.5000000000000000    0.5000000000000000 Ta
   0.2320697600000000    0.4209457100000000    0.5503316500000000 O
   0.5503316500000000    0.2320697600000000    0.4209457100000000 O
   0.4209457100000000    0.5503316500000000    0.2320697600000000 O
   0.0790542900000000    0.2679302400000000    0.9496683500000000 O
   0.9496683500000000    0.0790542900000000    0.2679302400000000 O
   0.2679302400000000    0.9496683500000000    0.0790542900000000 O
   0.7679302400000000    0.5790542900000000    0.4496683500000000 O
   0.4496683500000000    0.7679302400000000    0.5790542900000000 O
   0.5790542900000000    0.4496683500000000    0.7679302400000000 O
   0.9209457100000000    0.7320697600000000    0.0503316500000000 O
   0.7320697600000000    0.0503316500000000    0.9209457100000000 O
   0.0503316500000000    0.9209457100000000    0.7320697600000000 O
