Na4 Te8 W2 O24
1.0
   8.6489616999999992   -2.8334728800000000   -0.0125157900000000
   8.6489616999999992    2.8334728800000000   -0.0125157900000000
  -2.9244938199999999    0.0000000000000000   10.7336682799999998
Na Te W O
4 8 2 24
direct
   0.4514043000000000    0.9774960400000000    0.7715099500000000 Na
   0.0225039600000000    0.5485957000000000    0.7284900500000000 Na
   0.5485957000000000    0.0225039600000000    0.2284900500000000 Na
   0.9774960400000000    0.4514043000000000    0.2715099500000000 Na
   0.6978854400000000    0.1147385600000000    0.9040726200000000 Te
   0.8852614400000000    0.3021145600000000    0.5959273800000000 Te
   0.3021145600000000    0.8852614400000000    0.0959273800000000 Te
   0.1147385600000000    0.6978854400000000    0.4040726200000000 Te
   0.5275720699999999    0.1607813500000000    0.5610948700000000 Te
   0.8392186500000000    0.4724279300000000    0.9389051300000000 Te
   0.4724279300000000    0.8392186500000000    0.4389051300000000 Te
   0.1607813500000000    0.5275720699999999    0.0610948700000000 Te
   0.3351852600000000    0.6648147400000000    0.7500000000000000 W
   0.6648147400000000    0.3351852600000000    0.2500000000000000 W
   0.5002184200000001    0.7210094200000000    0.8396424600000000 O
   0.2789905800000000    0.4997815800000000    0.6603575400000000 O
   0.4997815800000000    0.2789905800000000    0.1603575400000000 O
   0.7210094200000000    0.5002184200000001    0.3396424600000000 O
   0.3138690800000000    0.1684652500000000    0.5700155700000000 O
   0.8315347500000000    0.6861309200000000    0.9299844300000000 O
   0.6861309200000000    0.8315347500000000    0.4299844300000000 O
   0.1684652500000000    0.3138690800000000    0.0700155700000000 O
   0.3490256600000000    0.3229923200000000    0.9049020300000000 O
   0.6770076800000000    0.6509743400000000    0.5950979700000000 O
   0.6509743400000000    0.6770076800000000    0.0950979700000000 O
   0.3229923200000000    0.3490256600000000    0.4049020300000000 O
   0.6989546300000000    0.9821496600000000    0.7426283500000000 O
   0.0178503400000000    0.3010453700000000    0.7573716500000000 O
   0.3010453700000000    0.0178503400000000    0.2573716500000000 O
   0.9821496600000000    0.6989546300000000    0.2426283500000000 O
   0.6060800300000000    0.3719185100000000    0.8660472700000000 O
   0.6280814900000000    0.3939199700000000    0.6339527300000000 O
   0.3939199700000000    0.6280814900000000    0.1339527300000000 O
   0.3719185100000000    0.6060800300000000    0.3660472700000000 O
   0.1535158400000000    0.8905279800000000    0.6396861400000000 O
   0.1094720200000000    0.8464841600000000    0.8603138600000000 O
   0.8464841600000000    0.1094720200000000    0.3603138600000000 O
   0.8905279800000000    0.1535158400000000    0.1396861400000000 O
