Rb2 La2 W4 O16
1.0
   5.1807234800000002   -5.4134222300000001   -0.0101077900000000
   5.1807234800000002    5.4134222300000001   -0.0101077900000000
  -4.4218523200000002    0.0000000000000000    6.2129849100000003
Rb La W O
2 2 4 16
direct
   0.3139849300000000    0.3139849300000000    0.4657998000000000 Rb
   0.6860150699999999    0.6860150699999999    0.5342002000000000 Rb
   0.6986419500000000    0.3013580500000000    0.0000000000000000 La
   0.3013580500000000    0.6986419500000000    0.0000000000000000 La
   0.2010673200000000    0.2010673200000000    0.9325599500000000 W
   0.7989326800000000    0.7989326800000000    0.0674400500000000 W
   0.1610241000000000    0.8389759000000000    0.5000000000000000 W
   0.8389759000000000    0.1610241000000000    0.5000000000000000 W
   0.9843215700000000    0.9843215700000000    0.6531535200000000 O
   0.0156784300000000    0.0156784300000000    0.3468464800000000 O
   0.0399764700000000    0.2928623900000000    0.0522674500000000 O
   0.7071376100000000    0.9600235300000000    0.9477325500000000 O
   0.9600235300000000    0.7071376100000000    0.9477325500000000 O
   0.2928623900000000    0.0399764700000000    0.0522674500000000 O
   0.5796979700000000    0.5796979700000000    0.9029711499999999 O
   0.4203020300000000    0.4203020300000000    0.0970288500000000 O
   0.6558735500000000    0.9086170300000000    0.2664874700000000 O
   0.0913829700000000    0.3441264500000000    0.7335125300000001 O
   0.3441264500000000    0.0913829700000000    0.7335125300000001 O
   0.9086170300000000    0.6558735500000000    0.2664874700000000 O
   0.3056269200000000    0.7825874100000000    0.3557148300000000 O
   0.2174125900000000    0.6943730800000000    0.6442851700000000 O
   0.6943730800000000    0.2174125900000000    0.6442851700000000 O
   0.7825874100000000    0.3056269200000000    0.3557148300000000 O
