Ba10 B6 C2 N2 O18
1.0
   5.2294921099999998   -7.3610399800000001    0.0000000000000000
   5.2294921099999998    7.3610399800000001    0.0000000000000000
   0.0000000000000000    0.0000000000000000    7.9595947300000001
Ba B C N O
10 6 2 2 18
direct
   0.7413459700000000    0.7413459700000000    0.5000000000000000 Ba
   0.2586540300000000    0.2586540300000000    0.0000000000000000 Ba
   0.1386582600000000    0.8613417400000000    0.7500000000000000 Ba
   0.2366187700000000    0.4926428100000000    0.5647033299999999 Ba
   0.8555682999999999    0.1444317000000000    0.7500000000000000 Ba
   0.8613417400000000    0.1386582600000000    0.2500000000000000 Ba
   0.1444317000000000    0.8555682999999999    0.2500000000000000 Ba
   0.5073571900000000    0.7633812300000000    0.9352966700000001 Ba
   0.7633812300000000    0.5073571900000000    0.0647033300000000 Ba
   0.4926428100000000    0.2366187700000000    0.4352966700000000 Ba
   0.0947717900000000    0.5151507200000000    0.9695298800000000 B
   0.1277277300000000    0.1277277300000000    0.5000000000000000 B
   0.8722722700000000    0.8722722700000000    0.0000000000000000 B
   0.5151507200000000    0.0947717900000000    0.0304701200000000 B
   0.4848492800000000    0.9052282100000000    0.5304701200000000 B
   0.9052282100000000    0.4848492800000000    0.4695298800000000 B
   0.3838783200000000    0.6161216800000000    0.2500000000000000 C
   0.6161216800000000    0.3838783200000000    0.7500000000000000 C
   0.4641925600000000    0.5358074400000000    0.2500000000000000 N
   0.5358074400000000    0.4641925600000000    0.7500000000000000 N
   0.9902436999999999    0.3667438000000000    0.0115926600000000 O
   0.3667438000000000    0.9902436999999999    0.9884073400000000 O
   0.0605250000000000    0.6498448000000000    0.0087307300000000 O
   0.7680969400000000    0.4726521800000000    0.3835803900000000 O
   0.9940595200000000    0.9940595200000000    0.5000000000000000 O
   0.3501552000000000    0.9394749999999999    0.4912692700000000 O
   0.2319030600000000    0.5273478200000000    0.8835803900000000 O
   0.4726521800000000    0.7680969400000000    0.6164196100000000 O
   0.8057920500000000    0.8096265700000000    0.1529082900000000 O
   0.1942079500000000    0.1903734300000000    0.6529082899999999 O
   0.0059404800000000    0.0059404800000000    0.0000000000000000 O
   0.6498448000000000    0.0605250000000000    0.9912692700000000 O
   0.0097563000000000    0.6332562000000000    0.5115926600000000 O
   0.6332562000000000    0.0097563000000000    0.4884073400000000 O
   0.8096265700000000    0.8057920500000000    0.8470917100000001 O
   0.9394749999999999    0.3501552000000000    0.5087307300000000 O
   0.1903734300000000    0.1942079500000000    0.3470917100000000 O
   0.5273478200000000    0.2319030600000000    0.1164196100000000 O
