Na4 Nb8 O22
1.0
   3.1401079300000001    1.8129425200000000   12.3923457100000007
  -3.1401079300000001    1.8129425200000000   12.3923457100000007
   0.0000000000000000   -3.6258850400000000   12.3923457100000007
Na Nb O
4 8 22
direct
   0.8368084099999999    0.8368084099999999    0.8368084099999999 Na
   0.3368084100000000    0.3368084100000000    0.3368084100000000 Na
   0.6631915900000001    0.6631915900000001    0.6631915900000001 Na
   0.1631915900000000    0.1631915900000000    0.1631915900000000 Na
   0.2500000000000000    0.8845601700000000    0.6154398300000000 Nb
   0.1154398300000000    0.3845601700000000    0.7500000000000000 Nb
   0.8845601700000000    0.6154398300000000    0.2500000000000000 Nb
   0.7500000000000000    0.1154398300000000    0.3845601700000000 Nb
   0.6154398300000000    0.2500000000000000    0.8845601700000000 Nb
   0.3845601700000000    0.7500000000000000    0.1154398300000000 Nb
   0.0000000000000000    0.0000000000000000    0.0000000000000000 Nb
   0.5000000000000000    0.5000000000000000    0.5000000000000000 Nb
   0.2474295400000000    0.9400470200000000    0.7209515200000000 O
   0.2209515200000000    0.4400470200000000    0.7474295399999999 O
   0.7790484800000000    0.5599529800000000    0.2525704600000000 O
   0.7525704600000001    0.0599529800000000    0.2790484800000000 O
   0.2525704600000000    0.7790484800000000    0.5599529800000000 O
   0.0599529800000000    0.2790484800000000    0.7525704600000001 O
   0.9400470200000000    0.7209515200000000    0.2474295400000000 O
   0.7474295399999999    0.2209515200000000    0.4400470200000000 O
   0.7209515200000000    0.2474295400000000    0.9400470200000000 O
   0.4400470200000000    0.7474295399999999    0.2209515200000000 O
   0.5599529800000000    0.2525704600000000    0.7790484800000000 O
   0.2790484800000000    0.7525704600000001    0.0599529800000000 O
   0.5031922800000000    0.9968077200000000    0.2500000000000000 O
   0.7500000000000000    0.4968077200000000    0.0031922800000000 O
   0.2500000000000000    0.5031922800000000    0.9968077200000000 O
   0.4968077200000000    0.0031922800000000    0.7500000000000000 O
   0.9049186800000000    0.9049186800000000    0.9049186800000000 O
   0.4049186800000000    0.4049186800000000    0.4049186800000000 O
   0.5950813200000000    0.5950813200000000    0.5950813200000000 O
   0.0950813200000000    0.0950813200000000    0.0950813200000000 O
   0.9968077200000000    0.2500000000000000    0.5031922800000000 O
   0.0031922800000000    0.7500000000000000    0.4968077200000000 O
