Cs2 Na2 S2
1.0
   4.7548272799999998    0.0000000000000000    0.0000000000000000
   0.0000000000000000    4.7548272799999998    0.0000000000000000
   0.0000000000000000    0.0000000000000000    7.7244508700000001
Cs Na S
2 2 2
direct
   0.5000000000000000    0.0000000000000000    0.6496643500000000 Cs
   0.0000000000000000    0.5000000000000000    0.3503356500000000 Cs
   0.5000000000000000    0.5000000000000000    0.0000000000000000 Na
   0.0000000000000000    0.0000000000000000    0.0000000000000000 Na
   0.0000000000000000    0.5000000000000000    0.8059121800000000 S
   0.5000000000000000    0.0000000000000000    0.1940878200000000 S
