La6 Cu2 Si2 Se14
1.0
  10.6225278999999997   -0.0000013200000000    0.0000000000000000
  -5.3112628099999997    9.1993801299999998    0.0000000000000000
   0.0000000000000000    0.0000000000000000    6.0268997500000001
La Cu Si Se
6 2 2 14
direct
   0.8720385000000000    0.6437447500000000    0.2353121500000000 La
   0.7717062500000000    0.1279615000000000    0.2353121500000000 La
   0.3562552500000000    0.2282937500000000    0.2353121500000000 La
   0.1279615000000000    0.3562552500000000    0.7353121500000001 La
   0.2282937500000000    0.8720385000000000    0.7353121500000001 La
   0.6437447500000000    0.7717062500000000    0.7353121500000001 La
   0.0000000000000000    0.0000000000000000    0.2113191100000000 Cu
   0.0000000000000000    0.0000000000000000    0.7113191100000000 Cu
   0.3333330000000000    0.6666670000000000    0.3214346600000000 Si
   0.6666670000000000    0.3333330000000000    0.8214346600000000 Si
   0.7468189600000000    0.8372613000000000    0.2226013000000000 Se
   0.9095566600000000    0.7468189600000000    0.7226013000000000 Se
   0.5832787200000000    0.4778401700000000    0.9662760300000000 Se
   0.6666670000000000    0.3333330000000000    0.4472758100000000 Se
   0.8945614500000000    0.4167212800000000    0.9662760300000000 Se
   0.4167212800000000    0.5221598300000000    0.4662760300000000 Se
   0.3333330000000000    0.6666670000000000    0.9472758100000001 Se
   0.0904433400000000    0.2531810400000000    0.2226013000000000 Se
   0.2531810400000000    0.1627387000000000    0.7226013000000000 Se
   0.1627387000000000    0.9095566600000000    0.2226013000000000 Se
   0.5221598300000000    0.1054385500000000    0.9662760300000000 Se
   0.4778401700000000    0.8945614500000000    0.4662760300000000 Se
   0.8372613000000000    0.0904433400000000    0.7226013000000000 Se
   0.1054385500000000    0.5832787200000000    0.4662760300000000 Se
