Sr2 Zr7 O16
1.0
   3.2185232300000002    1.8582156400000001    8.9913916100000009
  -3.2185232300000002    1.8582156400000001    8.9913916100000009
  -0.0000000000000000   -3.7164302800000000    8.9913916100000009
Sr Zr O
2 7 16
direct
   0.3337738500000000    0.3337738500000000    0.3337738500000000 Sr
   0.6662261500000000    0.6662261500000000    0.6662261500000000 Sr
   0.4844062000000000    0.7480386999999999    0.1124339000000000 Zr
   0.2519613000000000    0.8875661000000000    0.5155938000000000 Zr
   0.8875661000000000    0.5155938000000000    0.2519613000000000 Zr
   0.0000000000000000    0.0000000000000000    0.0000000000000000 Zr
   0.1124339000000000    0.4844062000000000    0.7480386999999999 Zr
   0.7480386999999999    0.1124339000000000    0.4844062000000000 Zr
   0.5155938000000000    0.2519613000000000    0.8875661000000000 Zr
   0.3232063700000000    0.7651221700000000    0.0368408200000000 O
   0.5868749300000000    0.8513612000000000    0.1517374300000000 O
   0.1486388000000000    0.8482625700000000    0.4131250700000000 O
   0.2348778300000000    0.9631591800000000    0.6767936300000000 O
   0.9631591800000000    0.6767936300000000    0.2348778300000000 O
   0.8482625700000000    0.4131250700000000    0.1486388000000000 O
   0.7626517600000000    0.7626517600000000    0.7626517600000000 O
   0.5713873500000000    0.5713873500000000    0.5713873500000000 O
   0.2373482400000000    0.2373482400000000    0.2373482400000000 O
   0.4286126500000000    0.4286126500000000    0.4286126500000000 O
   0.1517374300000000    0.5868749300000000    0.8513612000000000 O
   0.0368408200000000    0.3232063700000000    0.7651221700000000 O
   0.7651221700000000    0.0368408200000000    0.3232063700000000 O
   0.8513612000000000    0.1517374300000000    0.5868749300000000 O
   0.4131250700000000    0.1486388000000000    0.8482625700000000 O
   0.6767936300000000    0.2348778300000000    0.9631591800000000 O
