La4 Nb4 N4 O10
1.0
   2.0299851599999998  -13.1119712499999999    0.0000000000000000
   2.0299851599999998   13.1119712499999999    0.0000000000000000
   0.0000000000000000    0.0000000000000000    5.6077061900000000
La Nb N O
4 4 4 10
direct
   0.7035156200000000    0.2964843800000000    0.0365766700000000 La
   0.5546435800000000    0.4453564200000000    0.4623028300000000 La
   0.4453564200000000    0.5546435800000000    0.9623028300000001 La
   0.2964843800000000    0.7035156200000000    0.5365766700000000 La
   0.9426088100000000    0.0573911900000000    0.4703086900000000 Nb
   0.8372093800000000    0.1627906200000000    0.9958572100000000 Nb
   0.1627906200000000    0.8372093800000000    0.4958572100000000 Nb
   0.0573911900000000    0.9426088100000000    0.9703086900000000 Nb
   0.5462402300000000    0.4537597700000000    0.9524689600000000 N
   0.6535029700000000    0.3464970300000000    0.4654186400000000 N
   0.4537597700000000    0.5462402300000000    0.4524689600000000 N
   0.3464970300000000    0.6535029700000000    0.9654186400000000 N
   0.9848446900000000    0.0151553100000000    0.7771344100000001 O
   0.9106761799999999    0.0893238200000000    0.1420659900000000 O
   0.7783954199999999    0.2216045800000000    0.7758298600000000 O
   0.8800512600000000    0.1199487400000000    0.6526452800000000 O
   0.7951511200000000    0.2048488800000000    0.2798104500000000 O
   0.2216045800000000    0.7783954199999999    0.2758298600000000 O
   0.2048488800000000    0.7951511200000000    0.7798104500000000 O
   0.1199487400000000    0.8800512600000000    0.1526452800000000 O
   0.0893238200000000    0.9106761799999999    0.6420659900000000 O
   0.0151553100000000    0.9848446900000000    0.2771344100000000 O
