Tl2 V6 O16
1.0
   4.9945931200000002    0.0000000000000000   -0.0324392400000000
   0.0000000000000000    8.4224901299999999    0.0000000000000000
  -1.0360244599999999    0.0000000000000000    7.6595035400000002
Tl V O
2 6 16
direct
   0.0271467700000000    0.2500000000000000    0.9307220000000000 Tl
   0.9728532300000000    0.7500000000000000    0.0692780000000000 Tl
   0.4455104600000000    0.9458290800000000    0.6830753700000000 V
   0.5544895399999999    0.4458290800000000    0.3169246300000000 V
   0.0670268300000000    0.2500000000000000    0.4128971600000000 V
   0.9329731700000000    0.7500000000000000    0.5871028400000000 V
   0.5544895399999999    0.0541709200000000    0.3169246300000000 V
   0.4455104600000000    0.5541709200000000    0.6830753700000000 V
   0.8791803800000000    0.4015349200000000    0.2596606400000000 O
   0.1208196200000000    0.5984650800000000    0.7403393600000000 O
   0.8791803800000000    0.0984650800000000    0.2596606400000000 O
   0.4139515300000000    0.9346099500000000    0.1669234100000000 O
   0.1310123300000000    0.7500000000000000    0.4368230900000000 O
   0.8689876700000000    0.2500000000000000    0.5631769100000000 O
   0.6867257500000000    0.5871696700000000    0.5054521100000000 O
   0.3132742500000000    0.4128303300000000    0.4945478900000000 O
   0.3132742500000000    0.0871696700000000    0.4945478900000000 O
   0.6867257500000000    0.9128303300000000    0.5054521100000000 O
   0.5860484700000000    0.0653900500000000    0.8330765900000000 O
   0.4027472500000000    0.2500000000000000    0.2409619600000000 O
   0.4139515300000000    0.5653900500000000    0.1669234100000000 O
   0.1208196200000000    0.9015349200000000    0.7403393600000000 O
   0.5860484700000000    0.4346099500000000    0.8330765900000000 O
   0.5972527500000000    0.7500000000000000    0.7590380400000000 O
