Al12 N4 O12
1.0
   5.6774135499999998    0.0000000000000000    0.0000000000000000
   0.0000000000000000    5.6257302999999999    0.0000000000000000
   0.0000000000000000    0.0000000000000000    8.0125434200000001
Al N O
12 4 12
direct
   0.0068796300000000    0.2500000000000000    0.6176047400000000 Al
   0.4931203700000000    0.7500000000000000    0.1176047400000000 Al
   0.7499763400000000    0.2500000000000000    0.2431840400000000 Al
   0.9931203700000000    0.7500000000000000    0.3823952600000000 Al
   0.0000000000000000    0.0000000000000000    0.0000000000000000 Al
   0.2499763400000000    0.2500000000000000    0.2568159600000000 Al
   0.2500236600000000    0.7500000000000000    0.7568159600000000 Al
   0.5000000000000000    0.0000000000000000    0.5000000000000000 Al
   0.5000000000000000    0.5000000000000000    0.5000000000000000 Al
   0.5068796300000000    0.2500000000000000    0.8823952600000000 Al
   0.7500236600000000    0.7500000000000000    0.7431840400000000 Al
   0.0000000000000000    0.5000000000000000    0.0000000000000000 Al
   0.7732009200000000    0.2500000000000000    0.0083853800000000 N
   0.2732009200000000    0.2500000000000000    0.4916146200000000 N
   0.7267990800000000    0.7500000000000000    0.5083853800000000 N
   0.2267990800000000    0.7500000000000000    0.9916146200000000 N
   0.0017436400000000    0.0133699600000000    0.2460604700000000 O
   0.2403100800000000    0.2500000000000000    0.0126077800000000 O
   0.2596899200000000    0.7500000000000000    0.5126077800000000 O
   0.5017436400000000    0.0133699600000000    0.2539395300000000 O
   0.4982563600000000    0.9866300400000000    0.7460604700000000 O
   0.4982563600000000    0.5133699600000000    0.7460604700000000 O
   0.7403100800000000    0.2500000000000000    0.4873922200000000 O
   0.7596899200000000    0.7500000000000000    0.9873922200000000 O
   0.9982563600000000    0.5133699600000000    0.7539395300000000 O
   0.9982563600000000    0.9866300400000000    0.7539395300000000 O
   0.0017436400000000    0.4866300400000000    0.2460604700000000 O
   0.5017436400000000    0.4866300400000000    0.2539395300000000 O
