Zn4 P6 S1 N12
1.0
  -4.0665317999999999    4.0665317999999999    4.0665317999999999
   4.0665317999999999   -4.0665317999999999    4.0665317999999999
   4.0665317999999999    4.0665317999999999   -4.0665317999999999
Zn P S N
4 6 1 12
direct
   0.0000000000000000    0.3317095700000000    0.0000000000000000 Zn
   0.6682904300000000    0.6682904300000000    0.6682904300000000 Zn
   0.3317095700000000    0.0000000000000000    0.0000000000000000 Zn
   0.0000000000000000    0.0000000000000000    0.3317095700000000 Zn
   0.7500000000000000    0.2500000000000000    0.5000000000000000 P
   0.2500000000000000    0.7500000000000000    0.5000000000000000 P
   0.5000000000000000    0.7500000000000000    0.2500000000000000 P
   0.5000000000000000    0.2500000000000000    0.7500000000000000 P
   0.7500000000000000    0.5000000000000000    0.2500000000000000 P
   0.2500000000000000    0.5000000000000000    0.7500000000000000 P
   0.0000000000000000    0.0000000000000000    0.0000000000000000 S
   0.5456902800000000    0.2669803600000000    0.0000000000000000 N
   0.4543097200000000    0.4543097200000000    0.7212900799999999 N
   0.0000000000000000    0.2669803600000000    0.5456902800000000 N
   0.2669803600000000    0.0000000000000000    0.5456902800000000 N
   0.7212900799999999    0.4543097200000000    0.4543097200000000 N
   0.0000000000000000    0.5456902800000000    0.2669803600000000 N
   0.5456902800000000    0.0000000000000000    0.2669803600000000 N
   0.4543097200000000    0.7212900799999999    0.4543097200000000 N
   0.2669803600000000    0.5456902800000000    0.0000000000000000 N
   0.7330196400000000    0.2787099200000000    0.7330196400000000 N
   0.7330196400000000    0.7330196400000000    0.2787099200000000 N
   0.2787099200000000    0.7330196400000000    0.7330196400000000 N
