Li2 Al2 Mo4 O16
1.0
   6.6754429999999996    0.0000000000000000    0.0000000000000000
  -2.4032700000000000    6.4627600000000003    0.0000000000000000
  -1.9985720000000000   -0.8042940000000000    6.8462990000000001
Li Al Mo O
2 2 4 16
direct
   0.2743380000000000    0.7739890000000000    0.4458150000000000 Li
   0.7256620000000000    0.2260110000000000    0.5541850000000000 Li
   0.9008960000000000    0.8238370000000000    0.0972310000000000 Al
   0.0991040000000000    0.1761630000000000    0.9027690000000000 Al
   0.1631200000000000    0.2054910000000000    0.4221820000000000 Mo
   0.8368800000000000    0.7945090000000000    0.5778180000000001 Mo
   0.6821450000000000    0.2666570000000000    0.0405470000000000 Mo
   0.3178550000000000    0.7333430000000000    0.9594530000000000 Mo
   0.1750660000000000    0.7685010000000000    0.1295040000000000 O
   0.8249339999999999    0.2314990000000000    0.8704960000000000 O
   0.0865550000000000    0.1162140000000000    0.1511060000000000 O
   0.9134450000000000    0.8837860000000000    0.8488940000000000 O
   0.4043360000000000    0.1491120000000000    0.5141790000000001 O
   0.5956640000000000    0.8508880000000000    0.4858210000000000 O
   0.7444660000000000    0.5263470000000000    0.5653280000000001 O
   0.2555340000000000    0.4736530000000000    0.4346720000000000 O
   0.2649330000000000    0.4613630000000000    0.9499919999999999 O
   0.7350670000000000    0.5386370000000000    0.0500080000000000 O
   0.1985830000000000    0.7667590000000000    0.7143040000000001 O
   0.8014170000000000    0.2332410000000000    0.2856960000000000 O
   0.9666140000000000    0.8526540000000000    0.3677510000000000 O
   0.0333860000000000    0.1473460000000000    0.6322489999999999 O
   0.6211719999999999    0.8686440000000000    0.0431910000000000 O
   0.3788280000000000    0.1313560000000000    0.9568090000000000 O
