Ti1 Cu4 S4
1.0
  -2.6929127600000000    2.6929127600000000    5.2523627700000004
   2.6929127600000000   -2.6929127600000000    5.2523627700000004
   2.6929127600000000    2.6929127600000000   -5.2523627700000004
Ti Cu S
1 4 4
direct
   0.0000000000000000    0.0000000000000000    0.0000000000000000 Ti
   0.0000000000000000    0.5000000000000000    0.5000000000000000 Cu
   0.5000000000000000    0.0000000000000000    0.5000000000000000 Cu
   0.2585408200000000    0.2585408200000000    0.0000000000000000 Cu
   0.7414591800000000    0.7414591800000000    0.0000000000000000 Cu
   0.8801575500000000    0.8801575500000000    0.5075211400000000 S
   0.1198424500000000    0.6273645900000000    0.0000000000000000 S
   0.6273645900000000    0.1198424500000000    0.0000000000000000 S
   0.3726354100000000    0.3726354100000000    0.4924788600000000 S
