Tl8 Cu4 As4 O16
1.0
   8.6165732100000003    0.0000000000000000    0.0003664500000000
   0.0000000000000000    5.4149337400000004    0.0000000000000000
  -1.2612392900000000    0.0000000000000000   11.3641179599999997
Tl Cu As O
8 4 4 16
direct
   0.6943535400000000    0.2335982000000000    0.3662713700000000 Tl
   0.3056464600000000    0.7335982000000000    0.1337286300000000 Tl
   0.9950929200000000    0.2312105500000000    0.6116376800000000 Tl
   0.9950929200000000    0.2687894500000000    0.1116376800000000 Tl
   0.0049070800000000    0.7687894500000000    0.3883623200000000 Tl
   0.3056464600000000    0.7664018000000000    0.6337286300000000 Tl
   0.6943535400000000    0.2664018000000000    0.8662713700000000 Tl
   0.0049070800000000    0.7312105500000000    0.8883623200000000 Tl
   0.4895099600000000    0.6996818900000000    0.9040268800000000 Cu
   0.4895099600000000    0.8003181100000000    0.4040268800000000 Cu
   0.5104900400000000    0.3003181100000000    0.0959731200000000 Cu
   0.5104900400000000    0.1996818900000000    0.5959731200000000 Cu
   0.2865432500000000    0.2612559000000000    0.3748035900000000 As
   0.2865432500000000    0.2387441000000000    0.8748035900000000 As
   0.7134567500000000    0.7612559000000000    0.1251964100000000 As
   0.7134567500000000    0.7387441000000000    0.6251964100000000 As
   0.4240124000000000    0.4222214500000000    0.3080597800000000 O
   0.2989267600000000    0.9458535300000001    0.3466610500000000 O
   0.6837530900000000    0.6928674700000000    0.4743733700000000 O
   0.5759876000000000    0.5777785500000000    0.6919402200000000 O
   0.7010732400000000    0.4458535300000000    0.1533389500000000 O
   0.9001405000000000    0.8486015200000000    0.1754659700000000 O
   0.3162469100000000    0.1928674700000000    0.0256266300000000 O
   0.2989267600000000    0.5541464699999999    0.8466610500000000 O
   0.0998595000000000    0.3486015200000000    0.3245340300000000 O
   0.3162469100000000    0.3071325300000000    0.5256266300000000 O
   0.5759876000000000    0.9222214500000000    0.1919402200000000 O
   0.9001405000000000    0.6513984800000000    0.6754659700000000 O
   0.4240124000000000    0.0777785500000000    0.8080597800000000 O
   0.0998595000000000    0.1513984800000000    0.8245340300000000 O
   0.6837530900000000    0.8071325300000000    0.9743733700000000 O
   0.7010732400000000    0.0541464700000000    0.6533389500000000 O
