Cs2 V2 W2 O12
1.0
  -3.5066066000000000    3.6269448299999998    5.0531355099999997
   3.5066066000000000   -3.6269448299999998    5.0531355099999997
   3.5066066000000000    3.6269448299999998   -5.0531355099999997
Cs V W O
2 2 2 12
direct
   0.8655136100000000    0.6155136100000000    0.2500000000000000 Cs
   0.1344863900000000    0.3844863900000000    0.7500000000000000 Cs
   0.5000000000000000    0.0000000000000000    0.0000000000000000 V
   0.5000000000000000    0.5000000000000000    0.5000000000000000 V
   0.5000000000000000    0.0000000000000000    0.5000000000000000 W
   0.0000000000000000    0.0000000000000000    0.0000000000000000 W
   0.8165855400000001    0.0665855400000000    0.7500000000000000 O
   0.4473506400000000    0.6973506400000000    0.7500000000000000 O
   0.8072284800000000    0.6857509899999999    0.7407852400000000 O
   0.4449647400000000    0.0664432400000000    0.7592147600000000 O
   0.8072284800000000    0.0664432400000000    0.1214775000000000 O
   0.4449647400000000    0.6857509899999999    0.3785225000000000 O
   0.1834144600000000    0.9334144599999999    0.2500000000000000 O
   0.5526493600000000    0.3026493600000000    0.2500000000000000 O
   0.1927715200000000    0.3142490100000000    0.2592147600000000 O
   0.5550352600000000    0.9335567600000000    0.2407852400000000 O
   0.1927715200000000    0.9335567600000000    0.8785225000000000 O
   0.5550352600000000    0.3142490100000000    0.6214775000000000 O
