Sr4 Y2 Nb2 O12
1.0
   5.7973973000000001    0.0000000000000000   -0.0005672700000000
   0.0000000000000000    5.9003086600000003    0.0000000000000000
  -5.7705564100000002    0.0000000000000000    8.2440382400000001
Sr Y Nb O
4 2 2 12
direct
   0.2591947700000000    0.4593862100000000    0.2493384900000000 Sr
   0.7408052300000000    0.9593862100000000    0.2506615100000000 Sr
   0.2591947700000000    0.0406137900000000    0.7493384900000000 Sr
   0.7408052300000000    0.5406137900000000    0.7506615100000000 Sr
   0.0000000000000000    0.5000000000000000    0.5000000000000000 Y
   0.0000000000000000    0.0000000000000000    0.0000000000000000 Y
   0.5000000000000000    0.0000000000000000    0.5000000000000000 Nb
   0.5000000000000000    0.5000000000000000    0.0000000000000000 Nb
   0.7344647500000000    0.1974174700000000    0.4561524700000000 O
   0.2655352500000000    0.6974174700000000    0.0438475300000000 O
   0.2655352500000000    0.8025825300000000    0.5438475300000000 O
   0.7344647500000000    0.3025825300000000    0.9561524700000000 O
   0.6466468200000000    0.7215828700000000    0.4518503700000000 O
   0.3533531800000000    0.2215828700000000    0.0481496300000000 O
   0.3533531800000000    0.2784171300000000    0.5481496300000001 O
   0.6466468200000000    0.7784171300000000    0.9518503699999999 O
   0.1768378300000000    0.0276953900000000    0.2631230000000000 O
   0.8231621700000000    0.5276953900000000    0.2368770000000000 O
   0.8231621700000000    0.9723046100000000    0.7368770000000000 O
   0.1768378300000000    0.4723046100000000    0.7631230000000000 O
