Ba2 Sc2 Zn6 Ga2 O14
1.0
   6.1309469200000004   -0.0000000000000000    0.0000000000000000
  -3.0654729600000001    5.3095555900000004    0.0000000000000000
   0.0000000000000000    0.0000000000000000    9.9611769599999995
Ba Sc Zn Ga O
2 2 6 2 14
direct
   0.3333330000000000    0.6666670000000000    0.4943619900000000 Ba
   0.6666670000000000    0.3333330000000000    0.9943619900000000 Ba
   0.3333330000000000    0.6666670000000000    0.1321282800000000 Sc
   0.6666670000000000    0.3333330000000000    0.6321282800000000 Sc
   0.8271680900000000    0.6543351900000000    0.3122024800000000 Zn
   0.8271680900000000    0.1728319100000000    0.3122024800000000 Zn
   0.3456648100000000    0.1728319100000000    0.3122024800000000 Zn
   0.1728319100000000    0.3456648100000000    0.8122024799999999 Zn
   0.1728319100000000    0.8271680900000000    0.8122024799999999 Zn
   0.6543351900000000    0.8271680900000000    0.8122024799999999 Zn
   0.0000000000000000    0.0000000000000000    0.5635162200000000 Ga
   0.0000000000000000    0.0000000000000000    0.0635162200000000 Ga
   0.4937307800000000    0.9874615600000000    0.2479071000000000 O
   0.4937307800000000    0.5062692200000000    0.2479071000000000 O
   0.0125384400000000    0.5062692200000000    0.2479071000000000 O
   0.5062692200000000    0.0125384400000000    0.7479071000000000 O
   0.5062692200000000    0.4937307800000000    0.7479071000000000 O
   0.9874615600000000    0.4937307800000000    0.7479071000000000 O
   0.0000000000000000    0.0000000000000000    0.7502764600000000 O
   0.0000000000000000    0.0000000000000000    0.2502764600000000 O
   0.8340724600000000    0.6681449200000000    0.5054664400000000 O
   0.8340724600000000    0.1659275400000000    0.5054664400000000 O
   0.3318550800000000    0.1659275400000000    0.5054664400000000 O
   0.1659275400000000    0.3318550800000000    0.0054664400000000 O
   0.1659275400000000    0.8340724600000000    0.0054664400000000 O
   0.6681449200000000    0.8340724600000000    0.0054664400000000 O
