Na5 Re1 O6
1.0
   2.8005983400000001   -4.8060887399999999    0.0072166100000000
   2.8005983400000001    4.8060887399999999    0.0072166100000000
  -1.9582715500000001    0.0000000000000000    5.1780052799999998
Na Re O
5 1 6
direct
   0.1722247500000000    0.8277752500000000    0.5000000000000000 Na
   0.6664269500000000    0.3335730500000000    0.0000000000000000 Na
   0.3335730500000000    0.6664269500000000    0.0000000000000000 Na
   0.5000000000000000    0.5000000000000000    0.5000000000000000 Na
   0.8277752500000000    0.1722247500000000    0.5000000000000000 Na
   0.0000000000000000    0.0000000000000000    0.0000000000000000 Re
   0.2068363300000000    0.2068363300000000    0.7929835100000000 O
   0.6478909200000000    0.9290111000000000    0.7836290100000000 O
   0.0709889000000000    0.3521090800000000    0.2163709900000000 O
   0.3521090800000000    0.0709889000000000    0.2163709900000000 O
   0.9290111000000000    0.6478909200000000    0.7836290100000000 O
   0.7931636700000000    0.7931636700000000    0.2070164900000000 O
