Sc2 Cu6 Se6
1.0
   3.3655898400000002    1.9431238900000001    6.3112215200000001
  -3.3655898700000000    1.9431238399999999    6.3112215200000001
   0.0000000300000000   -3.8862487200000002    6.3112215100000002
Sc Cu Se
2 6 6
direct
   0.1665485500000000    0.1665485500000000    0.1665485500000000 Sc
   0.8334514500000000    0.8334514500000000    0.8334514500000000 Sc
   0.0251330800000000    0.7204885300000000    0.3727319700000000 Cu
   0.7204885300000000    0.3727319700000000    0.0251330800000000 Cu
   0.3727319700000000    0.0251330800000000    0.7204885300000000 Cu
   0.6272680300000000    0.9748669200000000    0.2795114700000000 Cu
   0.2795114700000000    0.6272680300000000    0.9748669200000000 Cu
   0.9748669200000000    0.2795114700000000    0.6272680300000000 Cu
   0.2513443900000000    0.9038348600000000    0.5763049600000000 Se
   0.5763049600000000    0.2513443900000000    0.9038348600000000 Se
   0.9038348600000000    0.5763049600000000    0.2513443900000000 Se
   0.0961651400000000    0.4236950400000000    0.7486556100000000 Se
   0.4236950400000000    0.7486556100000000    0.0961651400000000 Se
   0.7486556100000000    0.0961651400000000    0.4236950400000000 Se
