Rb2 Nb4 P2 S20
1.0
   7.1656296399999997    0.0000000000000000   -0.0003617900000000
   0.0000000000000000    7.5338404199999998    0.0000000000000000
  -4.0082579200000001    0.0000000000000000   12.3995410400000008
Rb Nb P S
2 4 2 20
direct
   0.8078313300000000    0.4871779900000000    0.6940594100000000 Rb
   0.8078313300000000    0.5128220100000001    0.1940594100000000 Rb
   0.2677776900000000    0.0626295100000000    0.6696113800000000 Nb
   0.2677776900000000    0.9373704899999999    0.1696113800000000 Nb
   0.2609507500000000    0.0633828000000000    0.9585181100000000 Nb
   0.2609507500000000    0.9366172000000000    0.4585181100000000 Nb
   0.4038719700000000    0.4074985900000000    0.8407071100000000 P
   0.4038719700000000    0.5925014100000000    0.3407071100000000 P
   0.0013372000000000    0.1302719000000000    0.4982145400000000 S
   0.0013372000000000    0.8697281000000000    0.9982145400000000 S
   0.2066535500000000    0.1630924900000000    0.3043889800000000 S
   0.2066535500000000    0.8369075100000000    0.8043889800000000 S
   0.2129026200000000    0.3996510500000000    0.9303099300000000 S
   0.2129026200000000    0.6003489500000000    0.4303099300000000 S
   0.5200017300000001    0.1499086200000000    0.8592329600000000 S
   0.5200017300000001    0.8500913800000000    0.3592329600000000 S
   0.0092931100000000    0.0448069600000000    0.7708498300000000 S
   0.0092931100000000    0.9551930400000000    0.2708498300000000 S
   0.5359287200000000    0.1140752500000000    0.5797168600000000 S
   0.5359287200000000    0.8859247500000000    0.0797168600000000 S
   0.2615282900000000    0.4075855800000000    0.6768604000000000 S
   0.2615282900000000    0.5924144200000000    0.1768604000000000 S
   0.5984940600000000    0.6013151600000000    0.8867611900000000 S
   0.5984940600000000    0.3986848400000000    0.3867611900000000 S
   0.5227133200000000    0.1369097600000000    0.1375395200000000 S
   0.5227133200000000    0.8630902400000000    0.6375395200000000 S
   0.0018946400000000    0.1270041500000000    0.0446217700000000 S
   0.0018946400000000    0.8729958500000000    0.5446217700000000 S
