Sr6 Y2 Al4 O15
1.0
   8.7464015400000008   -2.8552267400000000   -0.0070156100000000
   8.7464015400000008    2.8552267400000000   -0.0070156100000000
  -0.0913532800000000    0.0000000000000000    7.6878482400000001
Sr Y Al O
6 2 4 15
direct
   0.6592004600000000    0.6902532500000000    0.5048640800000000 Sr
   0.3097467500000000    0.3407995400000000    0.4951359200000000 Sr
   0.6266126700000000    0.6930421200000000    0.9679581300000000 Sr
   0.3069578800000000    0.3733873300000000    0.0320418700000000 Sr
   0.0365207300000000    0.9634792700000000    0.0000000000000000 Sr
   0.0997646300000000    0.9002353700000000    0.5000000000000000 Sr
   0.8352948600000000    0.8516367400000000    0.7535701600000000 Y
   0.1483632600000000    0.1647051400000000    0.2464298400000000 Y
   0.7906327000000000    0.8294809600000000    0.2438444300000000 Al
   0.1705190400000000    0.2093673000000000    0.7561555700000000 Al
   0.5460334600000000    0.4794708600000000    0.2276349600000000 Al
   0.5205291399999999    0.4539665400000000    0.7723650399999999 Al
   0.8636979500000000    0.8621188500000000    0.0492609300000000 O
   0.1378811500000000    0.1363020500000000    0.9507390700000000 O
   0.4714119200000000    0.0484200000000000    0.2328136600000000 O
   0.9515800000000000    0.5285880800000000    0.7671863400000000 O
   0.9448138200000000    0.5341559100000000    0.2274566100000000 O
   0.4658440900000000    0.0551861800000000    0.7725433900000001 O
   0.4198467000000000    0.7587576300000000    0.2608621200000000 O
   0.2412423700000000    0.5801533000000000    0.7391378800000000 O
   0.8637643500000000    0.2197947400000000    0.2711423100000000 O
   0.7802052600000000    0.1362356500000000    0.7288576900000000 O
   0.3438331800000000    0.5128882500000000    0.3082365800000000 O
   0.4871117500000000    0.6561668200000000    0.6917634200000000 O
   0.8322494499999999    0.8496215600000000    0.4645689400000000 O
   0.1503784400000000    0.1677505500000000    0.5354310600000000 O
   0.5251669900000000    0.4748330100000000    0.0000000000000000 O
