Rb4 Be4 Si4 O14
1.0
   5.1407871099999998    0.0000000000000000    0.0000000000000000
   0.0000000000000000    8.3332528299999993    0.0000000000000000
   0.0000000000000000    0.0000000000000000    8.9076313500000008
Rb Be Si O
4 4 4 14
direct
   0.5000000000000000    0.0000000000000000    0.4461992100000000 Rb
   0.0000000000000000    0.0000000000000000    0.9982488200000000 Rb
   0.0000000000000000    0.5000000000000000    0.9461992100000000 Rb
   0.5000000000000000    0.5000000000000000    0.4982488200000000 Rb
   0.5032338000000000    0.2426659700000000    0.8114814800000000 Be
   0.9967662000000000    0.7426659700000000    0.3114814800000000 Be
   0.0032338000000000    0.2573340300000000    0.3114814800000000 Be
   0.4967662000000000    0.7573340300000000    0.8114814800000000 Be
   0.9972366300000000    0.8020856900000000    0.6419895200000000 Si
   0.0027633700000000    0.1979143100000000    0.6419895200000000 Si
   0.5027633700000000    0.3020856900000000    0.1419895200000000 Si
   0.4972366300000000    0.6979143100000000    0.1419895200000000 Si
   0.2881481300000000    0.7455727700000000    0.6889526700000000 O
   0.0837852000000000    0.2643902100000000    0.4771721800000000 O
   0.2855946300000000    0.7493483800000000    0.2684948100000000 O
   0.7144053700000000    0.2506516200000000    0.2684948100000000 O
   0.7118518700000001    0.2544272300000000    0.6889526700000000 O
   0.0000000000000000    0.0000000000000000    0.6301716500000000 O
   0.7855946300000000    0.7506516200000000    0.7684948100000000 O
   0.9162148000000000    0.7356097900000000    0.4771721800000000 O
   0.5000000000000000    0.5000000000000000    0.1301716500000000 O
   0.5837852000000000    0.2356097900000000    0.9771721799999999 O
   0.2118518700000000    0.2455727700000000    0.1889526700000000 O
   0.2144053700000000    0.2493483800000000    0.7684948100000000 O
   0.4162148000000000    0.7643902100000000    0.9771721799999999 O
   0.7881481299999999    0.7544272300000000    0.1889526700000000 O
