Te2 O6
1.0
   2.4828171600000002    1.4334549999999999    4.3794299299999997
  -2.4828171600000002    1.4334549999999999    4.3794299299999997
   0.0000000000000000   -2.8669099999999998    4.3794299299999997
Te O
2 6
direct
   0.5000000000000000    0.5000000000000000    0.5000000000000000 Te
   0.0000000000000000    0.0000000000000000    0.0000000000000000 Te
   0.1088647000000000    0.3911353000000000    0.7500000000000000 O
   0.3911353000000000    0.7500000000000000    0.1088647000000000 O
   0.7500000000000000    0.1088647000000000    0.3911353000000000 O
   0.8911353000000000    0.6088647000000000    0.2500000000000000 O
   0.6088647000000000    0.2500000000000000    0.8911353000000000 O
   0.2500000000000000    0.8911353000000000    0.6088647000000000 O
