Na1 Sc1 As2 O7
1.0
   3.4663052599999999   -4.3728955699999998   -0.0054736500000000
   3.4663052599999999    4.3728955699999998   -0.0054736500000000
  -1.0083244400000000    0.0000000000000000    4.7295384399999998
Na Sc As O
1 1 2 7
direct
   0.7527321300000001    0.2472678700000000    0.5000000000000000 Na
   0.3683453600000000    0.6316546400000000    0.5000000000000000 Sc
   0.2544649100000000    0.1792224400000000    0.9127180800000000 As
   0.8207775600000000    0.7455350900000000    0.0872819200000000 As
   0.3804501700000000    0.9629670200000000    0.7511722300000000 O
   0.4319839500000000    0.3343714600000000    0.2221276500000000 O
   0.1584424700000000    0.3628094800000000    0.6913641000000000 O
   0.0370329800000000    0.6195498300000000    0.2488277700000000 O
   0.9597764100000000    0.0402235900000000    0.0000000000000000 O
   0.6371905200000000    0.8415575300000000    0.3086359000000000 O
   0.6656285400000000    0.5680160500000000    0.7778723500000000 O
