Te2 Pb4 O10
1.0
   6.4674023700000003   -2.8681036500000001    0.0012527100000000
   6.4674023700000003    2.8681036500000001    0.0012527100000000
  -4.1924874200000000    0.0000000000000000    6.2721525700000003
Te Pb O
2 4 10
direct
   0.0000000000000000    0.0000000000000000    0.5000000000000000 Te
   0.0000000000000000    0.0000000000000000    0.0000000000000000 Te
   0.6676624600000000    0.6490024000000000    0.4982932500000000 Pb
   0.3509976000000000    0.3323375400000000    0.0017067500000000 Pb
   0.3323375400000000    0.3509976000000000    0.5017067500000000 Pb
   0.6490024000000000    0.6676624600000000    0.9982932500000000 Pb
   0.9366872200000000    0.7250243400000000    0.3701837100000000 O
   0.2749756600000000    0.0633127800000000    0.1298162900000000 O
   0.0633127800000000    0.2749756600000000    0.6298162899999999 O
   0.7250243400000000    0.9366872200000000    0.8701837100000001 O
   0.6445761500000000    0.2477586700000000    0.3698955200000000 O
   0.7522413300000000    0.3554238500000000    0.1301044800000000 O
   0.3554238500000000    0.7522413300000000    0.6301044800000000 O
   0.2477586700000000    0.6445761500000000    0.8698955200000000 O
   0.8657028600000000    0.1342971400000000    0.7500000000000000 O
   0.1342971400000000    0.8657028600000000    0.2500000000000000 O
