Be4 Al8 O16
1.0
   9.4237270500000001    0.0000000000000000    0.0000000000000000
   0.0000000000000000    5.4873765800000003    0.0000000000000000
   0.0000000000000000    0.0000000000000000    4.4353071000000002
Be Al O
4 8 16
direct
   0.5925338300000000    0.2500000000000000    0.0669274800000000 Be
   0.4074661700000000    0.7500000000000000    0.9330725200000000 Be
   0.0925338300000000    0.2500000000000000    0.4330725200000000 Be
   0.9074661700000000    0.7500000000000000    0.5669274800000000 Be
   0.2274677900000000    0.7500000000000000    0.4947937300000000 Al
   0.2725322100000000    0.2500000000000000    0.9947937300000000 Al
   0.7725322100000001    0.2500000000000000    0.5052062700000000 Al
   0.7274677899999999    0.7500000000000000    0.0052062700000000 Al
   0.5000000000000000    0.5000000000000000    0.5000000000000000 Al
   0.0000000000000000    0.5000000000000000    0.0000000000000000 Al
   0.5000000000000000    0.0000000000000000    0.5000000000000000 Al
   0.0000000000000000    0.0000000000000000    0.0000000000000000 Al
   0.3364933400000000    0.5156337000000000    0.7564727300000000 O
   0.1635066600000000    0.4843663000000000    0.2564727300000000 O
   0.6635066600000000    0.0156337000000000    0.2435272700000000 O
   0.8364933400000000    0.9843663000000000    0.7435272700000000 O
   0.1635066600000000    0.0156337000000000    0.2564727300000000 O
   0.6635066600000000    0.4843663000000000    0.2435272700000000 O
   0.3364933400000000    0.9843663000000000    0.7564727300000000 O
   0.8364933400000000    0.5156337000000000    0.7435272700000000 O
   0.9095871900000000    0.7500000000000000    0.2131641300000000 O
   0.5904128100000000    0.2500000000000000    0.7131641300000000 O
   0.0904128100000000    0.2500000000000000    0.7868358700000000 O
   0.4095871900000000    0.7500000000000000    0.2868358700000000 O
   0.5666898200000000    0.7500000000000000    0.7594951599999999 O
   0.9333101800000000    0.2500000000000000    0.2594951600000000 O
   0.4333101800000000    0.2500000000000000    0.2405048400000000 O
   0.0666898200000000    0.7500000000000000    0.7405048400000001 O
