Ba4 Na1 Sb3 O12
1.0
  -4.1464285900000002    4.1464285900000002    4.1464285900000002
   4.1464285900000002   -4.1464285900000002    4.1464285900000002
   4.1464285900000002    4.1464285900000002   -4.1464285900000002
Ba Na Sb O
4 1 3 12
direct
   0.0000000000000000    0.5000000000000000    0.0000000000000000 Ba
   0.5000000000000000    0.0000000000000000    0.0000000000000000 Ba
   0.0000000000000000    0.0000000000000000    0.5000000000000000 Ba
   0.5000000000000000    0.5000000000000000    0.5000000000000000 Ba
   0.0000000000000000    0.0000000000000000    0.0000000000000000 Na
   0.0000000000000000    0.5000000000000000    0.5000000000000000 Sb
   0.5000000000000000    0.5000000000000000    0.0000000000000000 Sb
   0.5000000000000000    0.0000000000000000    0.5000000000000000 Sb
   0.7298890500000000    0.7298890500000000    0.0000000000000000 O
   0.2701109500000000    0.0000000000000000    0.2701109500000000 O
   0.7298890500000000    0.0000000000000000    0.7298890500000000 O
   0.0000000000000000    0.7298890500000000    0.7298890500000000 O
   0.0000000000000000    0.2701109500000000    0.2701109500000000 O
   0.2701109500000000    0.2701109500000000    0.0000000000000000 O
   0.2500000000000000    0.7500000000000000    0.5000000000000000 O
   0.7500000000000000    0.5000000000000000    0.2500000000000000 O
   0.7500000000000000    0.2500000000000000    0.5000000000000000 O
   0.5000000000000000    0.2500000000000000    0.7500000000000000 O
   0.5000000000000000    0.7500000000000000    0.2500000000000000 O
   0.2500000000000000    0.5000000000000000    0.7500000000000000 O
