Rb2 Li14 Pb3 O14
1.0
  -3.6616899300000001    4.0022046900000001    6.4180883800000004
   3.6616899300000001   -4.0022046900000001    6.4180883800000004
   3.6616899300000001    4.0022046900000001   -6.4180883800000004
Rb Li Pb O
2 14 3 14
direct
   0.5000000000000000    0.2380596100000000    0.7380596100000000 Rb
   0.5000000000000000    0.7619403900000000    0.2619403900000000 Rb
   0.8418970900000000    0.5000000000000000    0.3418970900000000 Li
   0.1581029100000000    0.5000000000000000    0.6581029100000000 Li
   0.4142007900000000    0.7688966300000000    0.6453041600000000 Li
   0.5857992100000000    0.2311033700000000    0.3546958400000000 Li
   0.8764075300000000    0.2311033700000000    0.6453041600000000 Li
   0.1235924700000000    0.7688966300000000    0.3546958400000000 Li
   0.7087475300000000    0.5924445200000000    0.5708877999999999 Li
   0.2912524700000000    0.8621402700000000    0.8836959900000000 Li
   0.9784442800000001    0.4075554800000000    0.1163040100000000 Li
   0.0215557200000000    0.1378597300000000    0.4291122000000000 Li
   0.2912524700000000    0.4075554800000000    0.4291122000000000 Li
   0.7087475300000000    0.1378597300000000    0.1163040100000000 Li
   0.0215557200000000    0.5924445200000000    0.8836959900000000 Li
   0.9784442800000001    0.8621402700000000    0.5708877999999999 Li
   0.7290839200000000    0.7290839200000000    0.0000000000000000 Pb
   0.2709160800000000    0.2709160800000000    0.0000000000000000 Pb
   0.0000000000000000    0.0000000000000000    0.0000000000000000 Pb
   0.7492443400000000    0.0426096500000000    0.2933653000000000 O
   0.2507556600000000    0.5441209600000000    0.2933653000000000 O
   0.2507556600000000    0.9573903499999999    0.7066346999999999 O
   0.7492443400000000    0.4558790400000000    0.7066346999999999 O
   0.0000000000000000    0.7039356300000000    0.7039356300000000 O
   0.0000000000000000    0.2960643700000000    0.2960643700000000 O
   0.6859822900000000    0.8717999300000000    0.8141813600000000 O
   0.3140177100000000    0.1282000700000000    0.1858186400000000 O
   0.9423814300000000    0.1282000700000000    0.8141813600000000 O
   0.0576185700000000    0.8717999300000000    0.1858186400000000 O
   0.4100514300000000    0.6285166700000000    0.7815357700000000 O
   0.5899485700000000    0.3714833300000000    0.2184642300000000 O
   0.1530191000000000    0.3714833300000000    0.7815357700000000 O
   0.8469809000000000    0.6285166700000000    0.2184642300000000 O
