Na8 Te4 Se12
1.0
   5.9123762199999996    0.0000000000000000   -0.0264982200000000
   0.0000000000000000   12.4940763900000000    0.0000000000000000
  -0.5631203299999999    0.0000000000000000    8.5559716300000002
Na Te Se
8 4 12
direct
   0.2602850500000000    0.7575691600000000    0.8637847300000000 Na
   0.7397149500000000    0.2575691600000000    0.6362152700000000 Na
   0.7397149500000000    0.2424308400000000    0.1362152700000000 Na
   0.2602850500000000    0.7424308400000000    0.3637847300000000 Na
   0.7515478600000000    0.9160128000000000    0.6374712000000000 Na
   0.2484521400000000    0.4160128000000000    0.8625288000000000 Na
   0.2484521400000000    0.0839872000000000    0.3625288000000000 Na
   0.7515478600000000    0.5839872000000000    0.1374712000000000 Na
   0.2964960300000000    0.0872886300000000    0.8174546300000000 Te
   0.7035039700000000    0.5872886300000000    0.6825453700000000 Te
   0.7035039700000000    0.9127113700000000    0.1825453700000000 Te
   0.2964960300000000    0.4127113700000000    0.3174546300000000 Te
   0.7243741900000000    0.0879680700000000    0.8785865200000000 Se
   0.2756258100000000    0.5879680700000000    0.6214134800000000 Se
   0.2756258100000000    0.9120319300000000    0.1214134800000000 Se
   0.7243741900000000    0.4120319300000000    0.3785865200000000 Se
   0.2379652600000000    0.2412291600000000    0.6215677700000000 Se
   0.7620347400000000    0.7412291600000001    0.8784322300000000 Se
   0.7620347400000000    0.7587708399999999    0.3784322300000000 Se
   0.2379652600000000    0.2587708400000000    0.1215677700000000 Se
   0.2486017500000000    0.9302536700000000    0.6347355000000000 Se
   0.7513982500000000    0.4302536700000000    0.8652645000000000 Se
   0.7513982500000000    0.0697463300000000    0.3652645000000000 Se
   0.2486017500000000    0.5697463300000000    0.1347355000000000 Se
