La4 C4 N8 O2
1.0
   6.6875698100000003   -3.0957763800000002    0.0171831200000000
   6.6875698100000003    3.0957763800000002    0.0171831200000000
  -1.5126392700000000    0.0000000000000000    5.8614428900000002
La C N O
4 4 8 2
direct
   0.8854142400000000    0.3157318800000000    0.5748503300000000 La
   0.6842681200000000    0.1145857600000000    0.9251496700000000 La
   0.1145857600000000    0.6842681200000000    0.4251496700000000 La
   0.3157318800000000    0.8854142400000000    0.0748503300000000 La
   0.4250182800000000    0.8804109000000000    0.6119119900000000 C
   0.8804109000000000    0.4250182800000000    0.1119119900000000 C
   0.1195891000000000    0.5749817200000000    0.8880880100000000 C
   0.5749817200000000    0.1195891000000000    0.3880880100000000 C
   0.7094235500000000    0.4733653100000000    0.9684808700000000 N
   0.2905764500000000    0.5266346900000000    0.0315191300000000 N
   0.6348932100000000    0.9465168600000000    0.2447191300000000 N
   0.4733653100000000    0.7094235500000000    0.4684808700000000 N
   0.3651067900000000    0.0534831400000000    0.7552808700000000 N
   0.0534831400000000    0.3651067900000000    0.2552808700000000 N
   0.5266346900000000    0.2905764500000000    0.5315191300000000 N
   0.9465168600000000    0.6348932100000000    0.7447191300000000 N
   0.9731471700000000    0.0268528300000000    0.2500000000000000 O
   0.0268528300000000    0.9731471700000000    0.7500000000000000 O
