Rb12 Cu4 O8
1.0
   6.6703501000000003    0.0000000000000000    0.0196666100000000
   0.0000000000000000    9.5748226800000005    0.0000000000000000
  -3.5007086500000000    0.0000000000000000    8.6303670100000005
Rb Cu O
12 4 8
direct
   0.2464908000000000    0.9645572900000000    0.5056575400000000 Rb
   0.7535092000000000    0.4645572900000000    0.9943424600000000 Rb
   0.7535092000000000    0.0354427100000000    0.4943424600000000 Rb
   0.2464908000000000    0.5354427100000000    0.0056575400000000 Rb
   0.2637517600000000    0.5245270400000001    0.6245305799999999 Rb
   0.7362482400000000    0.0245270400000000    0.8754694200000001 Rb
   0.7362482400000000    0.4754729600000000    0.3754694200000000 Rb
   0.2637517600000000    0.9754729599999999    0.1245305800000000 Rb
   0.7599855100000000    0.7905866300000000    0.1876625600000000 Rb
   0.2400144900000000    0.2905866300000000    0.3123374400000000 Rb
   0.2400144900000000    0.2094133700000000    0.8123374400000000 Rb
   0.7599855100000000    0.7094133700000000    0.6876625600000000 Rb
   0.2906444100000000    0.8210283300000000    0.8270636700000000 Cu
   0.7093555900000000    0.3210283300000000    0.6729363300000000 Cu
   0.7093555900000000    0.1789716700000000    0.1729363300000000 Cu
   0.2906444100000000    0.6789716700000000    0.3270636700000000 Cu
   0.5087298400000000    0.8006794100000000    0.3785094600000000 O
   0.4912701600000000    0.3006794100000000    0.1214905400000000 O
   0.4912701600000000    0.1993205900000000    0.6214905400000000 O
   0.5087298400000000    0.6993205900000000    0.8785094600000000 O
   0.9321063200000000    0.4392579200000000    0.7224258099999999 O
   0.9321063200000000    0.0607420800000000    0.2224258100000000 O
   0.0678936800000000    0.9392579200000000    0.7775741900000001 O
   0.0678936800000000    0.5607420800000000    0.2775741900000000 O
