Cs2 P2 S6
1.0
  -3.5520062000000001    4.4339211299999999    4.7230743799999999
   3.5520062000000001   -4.4339211299999999    4.7230743799999999
   3.5520062000000001    4.4339211299999999   -4.7230743799999999
Cs P S
2 2 6
direct
   0.7378721600000000    0.0000000000000000    0.7378721600000000 Cs
   0.2621278400000000    0.0000000000000000    0.2621278400000000 Cs
   0.6566508200000000    0.6566508200000000    0.0000000000000000 P
   0.3433491800000000    0.3433491800000000    0.0000000000000000 P
   0.3239341100000000    0.5000000000000000    0.8239341100000001 S
   0.6760658899999999    0.5000000000000000    0.1760658900000000 S
   0.7635890800000000    0.0026851700000000    0.2390960900000000 S
   0.2364109200000000    0.4755070100000000    0.2390960900000000 S
   0.2364109200000000    0.9973148300000000    0.7609039100000000 S
   0.7635890800000000    0.5244929900000000    0.7609039100000000 S
