Rb2 In2 Te6 O16
1.0
   5.8004200600000004   -0.0614776200000000   -0.0002497100000000
   2.4772145000000001    7.1514677700000000    0.0381438000000000
   0.0875895400000000    2.1946094399999998   10.8731813899999992
Rb In Te O
2 2 6 16
direct
   0.1329083900000000    0.1267510400000000    0.8321449600000000 Rb
   0.8670916100000000    0.8732489600000000    0.1678550400000000 Rb
   0.5000000000000000    0.5000000000000000    0.0000000000000000 In
   0.0000000000000000    0.5000000000000000    0.5000000000000000 In
   0.7729249300000000    0.9943392900000000    0.5820673300000000 Te
   0.2270750700000000    0.0056607100000000    0.4179326700000000 Te
   0.9408066600000000    0.6666850600000001    0.8517674500000000 Te
   0.0591933400000000    0.3333149400000000    0.1482325500000000 Te
   0.4805011200000000    0.5377427299999999    0.6587651900000000 Te
   0.5194988800000000    0.4622572700000000    0.3412348100000000 Te
   0.8013505399999999    0.7368649000000000    0.5835122700000001 O
   0.1986494600000000    0.2631351000000000    0.4164877300000000 O
   0.7592044200000000    0.9272222900000000    0.7717403300000000 O
   0.2407955800000000    0.0727777100000000    0.2282596700000000 O
   0.1103870700000000    0.9674761400000000    0.6058661000000000 O
   0.8896129300000000    0.0325238600000000    0.3941339000000000 O
   0.7541867400000000    0.6657916699999999    0.9929068500000000 O
   0.2458132600000000    0.3342083300000000    0.0070931500000000 O
   0.1861434700000000    0.7409099200000000    0.9187239000000000 O
   0.8138565300000000    0.2590900800000000    0.0812761000000000 O
   0.6265300900000000    0.4422680700000000    0.8207119100000000 O
   0.3734699100000000    0.5577319300000000    0.1792880900000000 O
   0.7377236400000000    0.3677177500000000    0.5867165100000000 O
   0.2622763600000000    0.6322822500000000    0.4132834900000000 O
   0.2613886800000000    0.3968704900000000    0.6623598500000000 O
   0.7386113200000000    0.6031295100000000    0.3376401500000000 O
