Na2 Mg1 C2 O6
1.0
   2.4608119899999998    1.4207500600000000    5.3870437500000001
  -2.4608119500000001    1.4207501199999999    5.3870437500000001
  -0.0000000400000000   -2.8415001800000002    5.3870437500000001
Na Mg C O
2 1 2 6
direct
   0.8023149300000000    0.8023149300000000    0.8023149300000000 Na
   0.1976850700000000    0.1976850700000000    0.1976850700000000 Na
   0.0000000000000000    0.0000000000000000    0.0000000000000000 Mg
   0.4100768600000000    0.4100768600000000    0.4100768600000000 C
   0.5899231400000000    0.5899231400000000    0.5899231400000000 C
   0.8093699500000000    0.2974572300000000    0.6589153300000000 O
   0.2974572300000000    0.6589153300000000    0.8093699500000000 O
   0.6589153300000000    0.8093699500000000    0.2974572300000000 O
   0.1906300500000000    0.7025427700000000    0.3410846700000000 O
   0.3410846700000000    0.1906300500000000    0.7025427700000000 O
   0.7025427700000000    0.3410846700000000    0.1906300500000000 O
