Tl3 As1 S3
1.0
   4.6991210399999996    2.7130381899999998    2.3156229200000000
  -4.6991210399999996    2.7130381899999998    2.3156229200000000
   0.0000000000000000   -5.4260773799999997    2.3156229399999999
Tl As S
3 1 3
direct
   0.1532757300000000    0.1532757300000000    0.5370288500000000 Tl
   0.5370288500000000    0.1532757300000000    0.1532757300000000 Tl
   0.1532757300000000    0.5370288500000000    0.1532757300000000 Tl
   0.7027713400000000    0.7027713400000000    0.7027713400000000 As
   0.0975495500000000    0.7225489000000000    0.7225489000000000 S
   0.7225489000000000    0.0975495500000000    0.7225489000000000 S
   0.7225489000000000    0.7225489000000000    0.0975495500000000 S
