Na4 Ca4 As4 O16
1.0
  11.4617375300000006    0.0000000000000000    0.0000000000000000
   0.0000000000000000    6.6125050700000001    0.0000000000000000
   0.0000000000000000    0.0000000000000000    5.2126229000000004
Na Ca As O
4 4 4 16
direct
   0.5000000000000000    0.0000000000000000    0.0000000000000000 Na
   0.0000000000000000    0.5000000000000000    0.5000000000000000 Na
   0.5000000000000000    0.5000000000000000    0.0000000000000000 Na
   0.0000000000000000    0.0000000000000000    0.5000000000000000 Na
   0.7202946099999999    0.7500000000000000    0.5047730100000000 Ca
   0.2202946100000000    0.7500000000000000    0.9952269900000000 Ca
   0.2797053900000000    0.2500000000000000    0.4952269900000000 Ca
   0.7797053900000001    0.2500000000000000    0.0047730100000000 Ca
   0.4032726800000000    0.7500000000000000    0.4322195900000000 As
   0.9032726800000000    0.7500000000000000    0.0677804100000000 As
   0.5967273200000000    0.2500000000000000    0.5677804100000000 As
   0.0967273200000000    0.2500000000000000    0.9322195900000000 As
   0.5417719300000000    0.7500000000000000    0.3099141200000000 O
   0.0417719300000000    0.7500000000000000    0.1900858800000000 O
   0.4582280700000000    0.2500000000000000    0.6900858800000000 O
   0.9582280700000000    0.2500000000000000    0.8099141200000000 O
   0.3977393400000000    0.7500000000000000    0.7583474900000000 O
   0.8977393400000000    0.7500000000000000    0.7416525100000000 O
   0.6022606600000000    0.2500000000000000    0.2416525100000000 O
   0.1022606600000000    0.2500000000000000    0.2583474900000000 O
   0.3321631100000000    0.5475756100000000    0.2924029800000000 O
   0.8321631100000000    0.9524243900000000    0.2075970200000000 O
   0.6678368900000000    0.0475756100000000    0.7075970200000000 O
   0.1678368900000000    0.4524243900000000    0.7924029800000000 O
   0.6678368900000000    0.4524243900000000    0.7075970200000000 O
   0.1678368900000000    0.0475756100000000    0.7924029800000000 O
   0.3321631100000000    0.9524243900000000    0.2924029800000000 O
   0.8321631100000000    0.5475756100000000    0.2075970200000000 O
