Al8 Tl8 S16
1.0
   5.1008255199999999   -5.1009283900000000   -0.0023254000000000
   5.1008255199999999    5.1009283900000000   -0.0023254000000000
  -2.5698948200000000    0.0000000000000000   14.7698651699999992
Al Tl S
8 8 16
direct
   0.5815292900000000    0.7093214200000000    0.8385129800000000 Al
   0.2906785800000000    0.4184707100000000    0.6614870200000000 Al
   0.4184707100000000    0.2906785800000000    0.1614870200000000 Al
   0.7093214200000000    0.5815292900000000    0.3385129800000000 Al
   0.2910126300000000    0.9131271700000000    0.6628936600000001 Al
   0.0868728300000000    0.7089873700000000    0.8371063399999999 Al
   0.7089873700000000    0.0868728300000000    0.3371063400000000 Al
   0.9131271700000000    0.2910126300000000    0.1628936600000000 Al
   0.3453513200000000    0.2230366600000000    0.8846771300000000 Tl
   0.7769633400000000    0.6546486800000000    0.6153228700000000 Tl
   0.6546486800000000    0.7769633400000000    0.1153228700000000 Tl
   0.2230366600000000    0.3453513200000000    0.3846771300000000 Tl
   0.7743082300000000    0.1508870100000000    0.6106847500000000 Tl
   0.8491129900000000    0.2256917700000000    0.8893152500000000 Tl
   0.2256917700000000    0.8491129900000000    0.3893152500000000 Tl
   0.1508870100000000    0.7743082300000000    0.1106847500000000 Tl
   0.3566397300000000    0.7308429500000000    0.9308272500000000 S
   0.2691570500000000    0.6433602700000000    0.5691727500000000 S
   0.6433602700000000    0.2691570500000000    0.0691727500000000 S
   0.7308429500000000    0.3566397300000000    0.4308272500000000 S
   0.5684625700000000    0.9447972700000000    0.7516523300000000 S
   0.0552027300000000    0.4315374300000000    0.7483476700000000 S
   0.4315374300000000    0.0552027300000000    0.2483476700000000 S
   0.9447972700000000    0.5684625700000000    0.2516523300000000 S
   0.5683889600000001    0.4316110400000000    0.7500000000000000 S
   0.4316110400000000    0.5683889600000001    0.2500000000000000 S
   0.0559182600000000    0.9440817400000000    0.7500000000000000 S
   0.9440817400000000    0.0559182600000000    0.2500000000000000 S
   0.2705138900000000    0.1420747100000000    0.5723194300000000 S
   0.8579252900000000    0.7294861100000000    0.9276805700000000 S
   0.7294861100000000    0.8579252900000000    0.4276805700000000 S
   0.1420747100000000    0.2705138900000000    0.0723194300000000 S
