Te4 Pb5 Se1
1.0
  -2.2573563299999999    2.2573563299999999   15.8932248600000001
   2.2573563299999999   -2.2573563299999999   15.8932248600000001
   2.2573563299999999    2.2573563299999999  -15.8932248600000001
Te Pb Se
4 5 1
direct
   0.9000108100000000    0.9000108100000000    0.0000000000000000 Te
   0.3020114400000000    0.3020114400000000    0.0000000000000000 Te
   0.6979885600000000    0.6979885600000000    0.0000000000000000 Te
   0.0999891900000000    0.0999891900000000    0.0000000000000000 Te
   0.2012041600000000    0.2012041600000000    0.0000000000000000 Pb
   0.4044063200000000    0.4044063200000000    0.0000000000000000 Pb
   0.7987958400000000    0.7987958400000000    0.0000000000000000 Pb
   0.5955936800000000    0.5955936800000000    0.0000000000000000 Pb
   0.0000000000000000    0.0000000000000000    0.0000000000000000 Pb
   0.5000000000000000    0.5000000000000000    0.0000000000000000 Se
