Na1 Sc1 O2
1.0
   1.5651619100000000    0.9036461099999999    5.3460572300000004
  -1.5651619100000000    0.9036461099999999    5.3460572300000004
   0.0000000000000000   -1.8072931999999999    5.3460572300000004
Na Sc O
1 1 2
direct
   0.5000000000000000    0.5000000000000000    0.5000000000000000 Na
   0.0000000000000000    0.0000000000000000    0.0000000000000000 Sc
   0.2645758200000000    0.2645758200000000    0.2645758200000000 O
   0.7354241800000000    0.7354241800000000    0.7354241800000000 O
