Rb4 Ti2 Si6 O18
1.0
   6.9114269400000001    0.0000018300000000    0.0000000000000000
  -3.4557145800000000    5.9854704800000000    0.0000000000000000
   0.0000000000000000    0.0000000000000000   10.0587036300000001
Rb Ti Si O
4 2 6 18
direct
   0.6666670000000000    0.3333330000000000    0.9428205000000000 Rb
   0.3333330000000000    0.6666670000000000    0.4428205000000000 Rb
   0.3333330000000000    0.6666670000000000    0.0571795000000000 Rb
   0.6666670000000000    0.3333330000000000    0.5571795000000000 Rb
   0.0000000000000000    0.0000000000000000    0.0000000000000000 Ti
   0.0000000000000000    0.0000000000000000    0.5000000000000000 Ti
   0.7564582200000000    0.1346223000000000    0.2500000000000000 Si
   0.6218369100000000    0.7564582200000000    0.7500000000000000 Si
   0.1346223000000000    0.3781630900000000    0.7500000000000000 Si
   0.8653777000000000    0.6218369100000000    0.2500000000000000 Si
   0.3781630900000000    0.2435417800000000    0.2500000000000000 Si
   0.2435417800000000    0.8653777000000000    0.7500000000000000 Si
   0.2181138100000000    0.9707681700000000    0.8872789400000000 O
   0.2473466400000000    0.2181138100000000    0.3872789400000000 O
   0.9707681700000000    0.7526533600000000    0.3872789400000000 O
   0.0292318300000000    0.2473466400000000    0.8872789400000000 O
   0.7526533600000000    0.7818861900000000    0.8872789400000000 O
   0.7818861900000000    0.0292318300000000    0.3872789400000000 O
   0.7818861900000000    0.0292318300000000    0.1127210600000000 O
   0.7526533600000000    0.7818861900000000    0.6127210600000000 O
   0.0292318300000000    0.2473466400000000    0.6127210600000000 O
   0.9707681700000000    0.7526533600000000    0.1127210600000000 O
   0.2473466400000000    0.2181138100000000    0.1127210600000000 O
   0.2181138100000000    0.9707681700000000    0.6127210600000000 O
   0.0832464900000000    0.5900166200000000    0.7500000000000000 O
   0.4932308800000000    0.0832464900000000    0.2500000000000000 O
   0.5900166200000000    0.5067691200000000    0.2500000000000000 O
   0.4099833800000000    0.4932308800000000    0.7500000000000000 O
   0.5067691200000000    0.9167535100000000    0.7500000000000000 O
   0.9167535100000000    0.4099833800000000    0.2500000000000000 O
