Na4 Zr2 Mo6 O24
1.0
   8.0209129200000007   -5.7783648000000003   -0.0780031900000000
   8.0209129200000007    5.7783648000000003   -0.0780031900000000
  -1.0126429699999999    0.0000000000000000    4.8806520600000001
Na Zr Mo O
4 2 6 24
direct
   0.9555621300000000    0.7353404600000000    0.6119386300000000 Na
   0.2646595400000000    0.0444378700000000    0.8880613700000000 Na
   0.0444378700000000    0.2646595400000000    0.3880613700000000 Na
   0.7353404600000000    0.9555621300000000    0.1119386300000000 Na
   0.3760121000000000    0.6239879000000000    0.7500000000000000 Zr
   0.6239879000000000    0.3760121000000000    0.2500000000000000 Zr
   0.4264997600000000    0.2375271900000000    0.5909428100000000 Mo
   0.7624728100000000    0.5735002400000000    0.9090571900000000 Mo
   0.5735002400000000    0.7624728100000000    0.4090571900000000 Mo
   0.2375271900000000    0.4264997600000000    0.0909428100000000 Mo
   0.8422805500000000    0.1577194500000000    0.7500000000000000 Mo
   0.1577194500000000    0.8422805500000000    0.2500000000000000 Mo
   0.5934933300000000    0.2143491100000000    0.4542644900000000 O
   0.7856508900000000    0.4065066700000000    0.0457355100000000 O
   0.4065066700000000    0.7856508900000000    0.5457355100000000 O
   0.2143491100000000    0.5934933300000000    0.9542644900000000 O
   0.4616488400000000    0.0830243100000000    0.7378821900000000 O
   0.9169756900000000    0.5383511600000001    0.7621178100000000 O
   0.5383511600000001    0.9169756900000000    0.2621178100000000 O
   0.0830243100000000    0.4616488400000000    0.2378821900000000 O
   0.4568881000000000    0.3872922600000000    0.8939562900000000 O
   0.6127077399999999    0.5431119000000000    0.6060437100000000 O
   0.5431119000000000    0.6127077399999999    0.1060437100000000 O
   0.3872922600000000    0.4568881000000000    0.3939562900000000 O
   0.9875841700000000    0.8546557299999999    0.0632963800000000 O
   0.1453442700000000    0.0124158300000000    0.4367036200000000 O
   0.0124158300000000    0.1453442700000000    0.9367036200000000 O
   0.8546557299999999    0.9875841700000000    0.5632963800000000 O
   0.1780719700000000    0.7133121900000000    0.4943935400000000 O
   0.2866878100000000    0.8219280300000000    0.0056064600000000 O
   0.3108271500000000    0.2250394600000000    0.2612720700000000 O
   0.7133121900000000    0.1780719700000000    0.9943935400000000 O
   0.2250394600000000    0.3108271500000000    0.7612720700000000 O
   0.6891728499999999    0.7749605400000000    0.7387279300000000 O
   0.7749605400000000    0.6891728499999999    0.2387279300000000 O
   0.8219280300000000    0.2866878100000000    0.5056064600000000 O
