Na4 Ca2 P8 O24
1.0
   9.6166988700000005    0.0000000000000000    0.0000000000000000
   0.0000000000000000    9.6166988700000005    0.0000000000000000
   0.0000000000000000    0.0000000000000000    4.9323338799999998
Na Ca P O
4 2 8 24
direct
   0.7500000000000000    0.7500000000000000    0.5000000000000000 Na
   0.7500000000000000    0.2500000000000000    0.5000000000000000 Na
   0.2500000000000000    0.7500000000000000    0.5000000000000000 Na
   0.2500000000000000    0.2500000000000000    0.5000000000000000 Na
   0.0000000000000000    0.0000000000000000    0.5000000000000000 Ca
   0.5000000000000000    0.5000000000000000    0.5000000000000000 Ca
   0.0000000000000000    0.2807104500000000    0.0000000000000000 P
   0.2807104500000000    0.0000000000000000    0.0000000000000000 P
   0.7192895500000001    0.0000000000000000    0.0000000000000000 P
   0.0000000000000000    0.7192895500000001    0.0000000000000000 P
   0.5000000000000000    0.2192895500000000    0.0000000000000000 P
   0.2192895500000000    0.5000000000000000    0.0000000000000000 P
   0.7807104499999999    0.5000000000000000    0.0000000000000000 P
   0.5000000000000000    0.7807104499999999    0.0000000000000000 P
   0.1134626900000000    0.3865373100000000    0.1313795200000000 O
   0.3865373100000000    0.8865373100000000    0.1313795200000000 O
   0.6134626900000000    0.1134626900000000    0.1313795200000000 O
   0.8865373100000000    0.6134626900000000    0.1313795200000000 O
   0.8865373100000000    0.3865373100000000    0.8686204800000000 O
   0.1134626900000000    0.6134626900000000    0.8686204800000000 O
   0.3865373100000000    0.1134626900000000    0.8686204800000000 O
   0.6134626900000000    0.8865373100000000    0.8686204800000000 O
   0.7949125700000000    0.9375872800000000    0.2348213100000000 O
   0.9375872800000000    0.2050874300000000    0.2348213100000000 O
   0.0624127200000000    0.7949125700000000    0.2348213100000000 O
   0.2050874300000000    0.0624127200000000    0.2348213100000000 O
   0.2050874300000000    0.9375872800000000    0.7651786900000001 O
   0.7949125700000000    0.0624127200000000    0.7651786900000001 O
   0.9375872800000000    0.7949125700000000    0.7651786900000001 O
   0.0624127200000000    0.2050874300000000    0.7651786900000001 O
   0.7050874300000000    0.5624127200000000    0.7651786900000001 O
   0.5624127200000000    0.2949125700000000    0.7651786900000001 O
   0.4375872800000000    0.7050874300000000    0.7651786900000001 O
   0.2949125700000000    0.4375872800000000    0.7651786900000001 O
   0.2949125700000000    0.5624127200000000    0.2348213100000000 O
   0.7050874300000000    0.4375872800000000    0.2348213100000000 O
   0.5624127200000000    0.7050874300000000    0.2348213100000000 O
   0.4375872800000000    0.2949125700000000    0.2348213100000000 O
