Cs4 Zr2 O6
1.0
   5.6298572299999998   -3.8230959699999998    0.0000000000000000
   5.6298572299999998    3.8230959699999998    0.0000000000000000
   0.0000000000000000    0.0000000000000000    5.9766767800000000
Cs Zr O
4 2 6
direct
   0.1936548100000000    0.4803596000000000    0.2500000000000000 Cs
   0.8063451900000000    0.5196404000000000    0.7500000000000000 Cs
   0.4803596000000000    0.1936548100000000    0.7500000000000000 Cs
   0.5196404000000000    0.8063451900000000    0.2500000000000000 Cs
   0.9155552000000000    0.0844448000000000    0.2500000000000000 Zr
   0.0844448000000000    0.9155552000000000    0.7500000000000000 Zr
   0.3388937800000000    0.6611062200000000    0.7500000000000000 O
   0.6611062200000000    0.3388937800000000    0.2500000000000000 O
   0.8805008800000000    0.8805008800000000    0.5000000000000000 O
   0.8805008800000000    0.8805008800000000    0.0000000000000000 O
   0.1194991200000000    0.1194991200000000    0.5000000000000000 O
   0.1194991200000000    0.1194991200000000    0.0000000000000000 O
