Ba2 Sn2 O6
1.0
  -2.9245769899999998    4.1361567099999998    2.9267109800000002
   2.9245769899999998   -4.1361567099999998    2.9267109800000002
   2.9245769899999998    4.1361567099999998   -2.9267109800000002
Ba Sn O
2 2 6
direct
   0.7500031900000000    0.0000031900000000    0.7500000000000000 Ba
   0.2499968100000000    0.9999968100000000    0.2500000000000000 Ba
   0.0000000000000000    0.5000000000000000    0.5000000000000000 Sn
   0.5000000000000000    0.5000000000000000    0.0000000000000000 Sn
   0.2362046000000000    0.4862046000000000    0.7500000000000000 O
   0.7637954000000000    0.5137954000000000    0.2500000000000000 O
   0.2569664800000000    0.5000000000000000    0.2569664800000000 O
   0.7430335200000000    0.5000000000000000    0.7430335200000000 O
   0.2569664800000000    0.0000000000000000    0.7569664800000000 O
   0.7430335200000000    0.0000000000000000    0.2430335200000000 O
