Zn2 Ge2 O6
1.0
   2.4861728599999999    1.4353922699999999    4.5615832599999999
  -2.4861728200000002    1.4353923399999999    4.5615832599999999
  -0.0000000400000000   -2.8707846099999998    4.5615832599999999
Zn Ge O
2 2 6
direct
   0.3652401300000000    0.3652401300000000    0.3652401300000000 Zn
   0.6347598700000000    0.6347598700000000    0.6347598700000000 Zn
   0.1547571800000000    0.1547571800000000    0.1547571800000000 Ge
   0.8452428200000000    0.8452428200000000    0.8452428200000000 Ge
   0.0483036700000000    0.4401592600000000    0.7764355500000000 O
   0.7764355500000000    0.0483036700000000    0.4401592600000000 O
   0.4401592600000000    0.7764355500000000    0.0483036700000000 O
   0.9516963300000000    0.5598407399999999    0.2235644500000000 O
   0.5598407399999999    0.2235644500000000    0.9516963300000000 O
   0.2235644500000000    0.9516963300000000    0.5598407399999999 O
