Cd2 Cu4 Si2 S8
1.0
   7.5416400100000001    0.0000000000000000    0.0000000000000000
   0.0000000000000000    6.4044351099999997    0.0000000000000000
   0.0000000000000000    0.0000000000000000    6.1856299000000003
Cd Cu Si S
2 4 2 8
direct
   0.0000000000000000    0.6520910700000000    0.1264426900000000 Cd
   0.5000000000000000    0.3479089300000000    0.6264426900000000 Cd
   0.2521612800000000    0.1744608900000000    0.1291427700000000 Cu
   0.2478387200000000    0.8255391100000000    0.6291427700000000 Cu
   0.7478387200000000    0.1744608900000000    0.1291427700000000 Cu
   0.7521612800000000    0.8255391100000000    0.6291427700000000 Cu
   0.5000000000000000    0.6799260800000000    0.1234176900000000 Si
   0.0000000000000000    0.3200739200000000    0.6234176900000000 Si
   0.5000000000000000    0.3566419700000000    0.0338606300000000 S
   0.5000000000000000    0.7094353900000000    0.4687042100000000 S
   0.0000000000000000    0.2905646100000000    0.9687042100000000 S
   0.7749731100000000    0.1582445300000000    0.4946451200000000 S
   0.2250268900000000    0.1582445300000000    0.4946451200000000 S
   0.2749731100000000    0.8417554700000000    0.9946451200000000 S
   0.0000000000000000    0.6433580300000000    0.5338606299999999 S
   0.7250268900000000    0.8417554700000000    0.9946451200000000 S
