La2 Zn2 P2 O2
1.0
   3.9824520400000001    0.0000000000000000    0.0000000000000000
   0.0000000000000000    3.9824520400000001    0.0000000000000000
   0.0000000000000000    0.0000000000000000    8.7570217299999999
La Zn P O
2 2 2 2
direct
   0.0000000000000000    0.5000000000000000    0.8583283200000000 La
   0.5000000000000000    0.0000000000000000    0.1416716800000000 La
   0.0000000000000000    0.0000000000000000    0.5000000000000000 Zn
   0.5000000000000000    0.5000000000000000    0.5000000000000000 Zn
   0.5000000000000000    0.0000000000000000    0.6625451500000000 P
   0.0000000000000000    0.5000000000000000    0.3374548500000000 P
   0.5000000000000000    0.5000000000000000    0.0000000000000000 O
   0.0000000000000000    0.0000000000000000    0.0000000000000000 O
