Li1 Bi1 S2
1.0
   1.9640413900000000    1.1339399299999999    6.2247801699999998
  -1.9640413900000000    1.1339399299999999    6.2247801699999998
   0.0000000000000000   -2.2678798699999998    6.2247801699999998
Li Bi S
1 1 2
direct
   0.5000000000000000    0.5000000000000000    0.5000000000000000 Li
   0.0000000000000000    0.0000000000000000    0.0000000000000000 Bi
   0.2444791500000000    0.2444791500000000    0.2444791500000000 S
   0.7555208500000000    0.7555208500000000    0.7555208500000000 S
