Ba3 In2 O6
1.0
  -2.1155014500000000    2.1155014500000000   10.8230920600000005
   2.1155014500000000   -2.1155014500000000   10.8230920600000005
   2.1155014500000000    2.1155014500000000  -10.8230920600000005
Ba In O
3 2 6
direct
   0.6823237100000000    0.6823237100000000    0.0000000000000000 Ba
   0.3176762900000000    0.3176762900000000    0.0000000000000000 Ba
   0.5000000000000000    0.5000000000000000    0.0000000000000000 Ba
   0.8974408400000000    0.8974408400000000    0.0000000000000000 In
   0.1025591600000000    0.1025591600000000    0.0000000000000000 In
   0.8001239000000000    0.8001239000000000    0.0000000000000000 O
   0.1998761000000000    0.1998761000000000    0.0000000000000000 O
   0.4169605900000000    0.9169605900000000    0.5000000000000000 O
   0.9169605900000000    0.4169605900000000    0.5000000000000000 O
   0.5830394100000000    0.0830394100000000    0.5000000000000000 O
   0.0830394100000000    0.5830394100000000    0.5000000000000000 O
