Al2 Cu2 Se4
1.0
  -2.7857793499999999    2.7857793499999999    5.4911350099999998
   2.7857793499999999   -2.7857793499999999    5.4911350099999998
   2.7857793499999999    2.7857793499999999   -5.4911350099999998
Al Cu Se
2 2 4
direct
   0.5000000000000000    0.5000000000000000    0.0000000000000000 Al
   0.2500000000000000    0.7500000000000000    0.5000000000000000 Al
   0.0000000000000000    0.0000000000000000    0.0000000000000000 Cu
   0.7500000000000000    0.2500000000000000    0.5000000000000000 Cu
   0.1241345000000000    0.1250000000000000    0.4991345000000000 Se
   0.8750000000000000    0.3741345000000000    0.9991345000000000 Se
   0.3750000000000000    0.8758655000000000    0.0008655000000000 Se
   0.6258655000000000    0.6250000000000000    0.5008655000000000 Se
