Tl8 Ge8 Se20
1.0
   7.7463373600000001   -7.7042490499999996   -0.0442369000000000
   7.7463373600000001    7.7042490499999996   -0.0442369000000000
  -2.5753021600000001    0.0000000000000000    8.4706594099999997
Tl Ge Se
8 8 20
direct
   0.1966211100000000    0.4581051900000000    0.5913482400000000 Tl
   0.5418948099999999    0.8033788900000000    0.9086517600000000 Tl
   0.8033788900000000    0.5418948099999999    0.4086517600000000 Tl
   0.4581051900000000    0.1966211100000000    0.0913482400000000 Tl
   0.9177691300000000    0.8011594200000000    0.9079946500000000 Tl
   0.1988405800000000    0.0822308700000000    0.5920053500000000 Tl
   0.0822308700000000    0.1988405800000000    0.0920053500000000 Tl
   0.8011594200000000    0.9177691300000000    0.4079946500000000 Tl
   0.2659887500000000    0.5169352500000000    0.0841896800000000 Ge
   0.4830647500000000    0.7340112500000000    0.4158103200000000 Ge
   0.7340112500000000    0.4830647500000000    0.9158103200000000 Ge
   0.5169352500000000    0.2659887500000000    0.5841896800000000 Ge
   0.8685240400000001    0.2696976000000000    0.6093371300000000 Ge
   0.7303024000000000    0.1314759600000000    0.8906628700000000 Ge
   0.1314759600000000    0.7303024000000000    0.3906628700000000 Ge
   0.2696976000000000    0.8685240400000001    0.1093371300000000 Ge
   0.0987899800000000    0.5251511400000000    0.2253724400000000 Se
   0.4748488600000000    0.9012100199999999    0.2746275600000000 Se
   0.9012100199999999    0.4748488600000000    0.7746275600000000 Se
   0.5251511400000000    0.0987899800000000    0.7253724400000000 Se
   0.7645803700000000    0.3288618100000000    0.0736775600000000 Se
   0.6711381900000000    0.2354196300000000    0.4263224400000000 Se
   0.2354196300000000    0.6711381900000000    0.9263224400000000 Se
   0.3288618100000000    0.7645803700000000    0.5736775600000000 Se
   0.2392141800000000    0.3218550000000000    0.9102154600000000 Se
   0.6781450000000000    0.7607858199999999    0.5897845400000000 Se
   0.7607858199999999    0.6781450000000000    0.0897845400000000 Se
   0.3218550000000000    0.2392141800000000    0.4102154600000000 Se
   0.9990077800000000    0.7566098100000000    0.5659767300000000 Se
   0.2433901900000000    0.0009922200000000    0.9340232700000000 Se
   0.0009922200000000    0.2433901900000000    0.4340232700000000 Se
   0.7566098100000000    0.9990077800000000    0.0659767300000000 Se
   0.1002979300000000    0.8997020700000000    0.2500000000000000 Se
   0.8997020700000000    0.1002979300000000    0.7500000000000000 Se
   0.4708003300000000    0.5291996700000000    0.2500000000000000 Se
   0.5291996700000000    0.4708003300000000    0.7500000000000000 Se
