Be4 P8 O24
1.0
   4.9151843099999999    0.0000000000000000   -0.0165357300000000
   0.0000000000000000   12.9558822599999992    0.0000000000000000
  -2.8204405299999999    0.0000000000000000    6.7091576200000000
Be P O
4 8 24
direct
   0.3564109000000000    0.9326835300000000    0.2363696800000000 Be
   0.6435891000000000    0.4326835300000000    0.2636303200000000 Be
   0.6435891000000000    0.0673164700000000    0.7636303200000000 Be
   0.3564109000000000    0.5673164700000000    0.7363696800000000 Be
   0.9771910700000001    0.8691059900000000    0.8302972900000000 P
   0.9582177300000000    0.6505967200000000    0.9183132899999999 P
   0.0417822700000000    0.1505967200000000    0.5816867100000001 P
   0.0417822700000000    0.3494032800000000    0.0816867100000000 P
   0.9582177300000000    0.8494032800000000    0.4183132900000000 P
   0.9771910700000001    0.6308940100000000    0.3302972900000000 P
   0.0228089300000000    0.1308940100000000    0.1697027100000000 P
   0.0228089300000000    0.3691059900000000    0.6697027100000000 P
   0.1799625500000000    0.2364735800000000    0.1480644700000000 O
   0.2175357300000000    0.6372113700000001    0.8628325700000000 O
   0.7824642700000000    0.1372113700000000    0.6371674300000000 O
   0.7824642700000000    0.3627886300000000    0.1371674300000000 O
   0.2175357300000000    0.8627886299999999    0.3628325700000000 O
   0.7124054000000000    0.5741183800000000    0.8406565499999999 O
   0.2875946000000000    0.0741183800000000    0.6593434500000001 O
   0.2875946000000000    0.4258816200000000    0.1593434500000000 O
   0.8200374499999999    0.7364735800000000    0.3519355300000000 O
   0.9136840500000000    0.1563082400000000    0.3442500000000000 O
   0.1799625500000000    0.2635264200000000    0.6480644700000000 O
   0.8200374499999999    0.7635264200000000    0.8519355300000000 O
   0.0863159500000000    0.8436917600000000    0.6557500000000001 O
   0.9136840500000000    0.3436917600000000    0.8442499999999999 O
   0.2518278800000000    0.6134712100000000    0.5121579300000000 O
   0.0863159500000000    0.6563082400000000    0.1557500000000000 O
   0.7387130700000000    0.9481593800000000    0.7672689100000000 O
   0.7481721200000000    0.1134712100000000    0.9878420700000000 O
   0.7481721200000000    0.3865287900000000    0.4878420700000000 O
   0.2518278800000000    0.8865287900000000    0.0121579300000000 O
   0.7387130700000000    0.5518406200000000    0.2672689100000000 O
   0.2612869300000000    0.0518406200000000    0.2327310900000000 O
   0.2612869300000000    0.4481593800000000    0.7327310900000000 O
   0.7124054000000000    0.9258816200000000    0.3406565500000000 O
