In2 Si2 O7
1.0
   3.3271558600000000   -4.3568276600000004    0.0160028200000000
   3.3271558600000000    4.3568276600000004    0.0160028200000000
  -1.0249993700000000    0.0000000000000000    4.6291200000000003
In Si O
2 2 7
direct
   0.6921726499999999    0.3078273500000000    0.0000000000000000 In
   0.3078273500000000    0.6921726499999999    0.0000000000000000 In
   0.2219524300000000    0.2219524300000000    0.4104635800000000 Si
   0.7780475700000000    0.7780475700000000    0.5895364199999999 Si
   0.6071294300000000    0.9192909800000000    0.7797333100000000 O
   0.0807090200000000    0.3928705700000000    0.2202666900000000 O
   0.3928705700000000    0.0807090200000000    0.2202666900000000 O
   0.9192909800000000    0.6071294300000000    0.7797333100000000 O
   0.0000000000000000    0.0000000000000000    0.5000000000000000 O
   0.6091429100000000    0.6091429100000000    0.2840096200000000 O
   0.3908570900000000    0.3908570900000000    0.7159903800000000 O
