Cs4 Nb2 Si8 O23
1.0
   7.0335755600000001   -0.0201602400000000    0.0177412600000000
   2.4575146800000001    7.5221942200000003    0.0233552500000000
   0.0578881000000000    2.6366751200000000   10.8581181800000000
Cs Nb Si O
4 2 8 23
direct
   0.2097770600000000    0.2175940500000000    0.0112290700000000 Cs
   0.8246098300000000    0.7161450600000000    0.6412282600000000 Cs
   0.1753901700000000    0.2838549400000000    0.3587717400000000 Cs
   0.7902229400000000    0.7824059500000000    0.9887709300000000 Cs
   0.2923574400000000    0.7428911499999999    0.8154137000000000 Nb
   0.7076425600000000    0.2571088500000000    0.1845863000000000 Nb
   0.6611311700000000    0.3291574000000000    0.8685615000000000 Si
   0.4371547800000000    0.1383665100000000    0.7119649800000000 Si
   0.3496464700000000    0.7027510400000000    0.4994340900000000 Si
   0.0035830500000000    0.8103878000000000    0.2966867200000000 Si
   0.5628452200000000    0.8616334900000000    0.2880350200000000 Si
   0.9964169500000000    0.1896122000000000    0.7033132800000000 Si
   0.6503535300000000    0.2972489600000000    0.5005659099999999 Si
   0.3388688300000000    0.6708426000000000    0.1314385000000000 Si
   0.5503617600000000    0.1496762700000000    0.5820637900000000 O
   0.4776553800000000    0.7546139500000000    0.2031964400000000 O
   0.1337576400000000    0.5990575100000000    0.8515919700000000 O
   0.7027319800000000    0.2141601700000000    0.0105143100000000 O
   0.1261773600000000    0.6964854500000000    0.1998635500000000 O
   0.5303775800000000    0.0698557900000000    0.2203736600000000 O
   0.5616166300000000    0.5468924700000000    0.8536133700000000 O
   0.3164326800000000    0.7341870400000000    0.6346609300000000 O
   0.4383833700000000    0.4531075300000000    0.1463866300000000 O
   0.8668886000000000    0.2685159300000000    0.5697006400000000 O
   0.4696224200000000    0.9301442100000000    0.7796263400000000 O
   0.2972680200000000    0.7858398300000000    0.9894856900000000 O
   0.8738226400000000    0.3035145500000000    0.8001364500000000 O
   0.8025002400000000    0.7478641000000000    0.3232628000000000 O
   0.0452920400000000    0.9734110100000000    0.7574590700000000 O
   0.1331114000000000    0.7314840700000000    0.4302993600000000 O
   0.5000000000000000    0.5000000000000000    0.5000000000000000 O
   0.5223446200000000    0.2453860500000000    0.7968035600000000 O
   0.8662423600000000    0.4009424900000000    0.1484080300000000 O
   0.9547079600000000    0.0265889900000000    0.2425409300000000 O
   0.1974997600000000    0.2521359000000000    0.6767372000000000 O
   0.6835673200000000    0.2658129600000000    0.3653390700000000 O
   0.4496382400000000    0.8503237300000001    0.4179362100000000 O
