Hg4 S2 O8
1.0
   6.2869332800000004    0.0000000000000000    0.0046500100000000
   0.0000000000000000    4.4875854700000000    0.0000000000000000
  -0.3851005800000000    0.0000000000000000    8.3913855599999998
Hg S O
4 2 8
direct
   0.8073086100000000    0.0651796300000000    0.0236475900000000 Hg
   0.1926913900000000    0.0651796300000000    0.4763524100000000 Hg
   0.1926913900000000    0.9348203700000000    0.9763524099999999 Hg
   0.8073086100000000    0.9348203700000000    0.5236475900000001 Hg
   0.5000000000000000    0.4363221600000000    0.2500000000000000 S
   0.5000000000000000    0.5636778400000000    0.7500000000000000 S
   0.4968179800000000    0.7661850800000000    0.8955648300000000 O
   0.5031820200000000    0.7661850800000000    0.6044351700000000 O
   0.5031820200000000    0.2338149200000000    0.1044351700000000 O
   0.4968179800000000    0.2338149200000000    0.3955648300000000 O
   0.3022936500000000    0.3905500500000000    0.7386477299999999 O
   0.6977063500000000    0.3905500500000000    0.7613522700000001 O
   0.3022936500000000    0.6094499500000000    0.2386477300000000 O
   0.6977063500000000    0.6094499500000000    0.2613522700000000 O
