Nb4 Sn2 O12
1.0
   8.6453665900000001   -2.4633404099999998    0.0245432000000000
   8.6453665900000001    2.4633404099999998    0.0245432000000000
  -0.1652603300000000    0.0000000000000000    5.6108474900000003
Nb Sn O
4 2 12
direct
   0.4123981400000000    0.9264416400000000    0.1622436700000000 Nb
   0.0735583600000000    0.5876018600000000    0.3377563300000000 Nb
   0.5876018600000000    0.0735583600000000    0.8377563300000000 Nb
   0.9264416400000000    0.4123981400000000    0.6622436700000000 Nb
   0.7700567500000000    0.2299432500000000    0.2500000000000000 Sn
   0.2299432500000000    0.7700567500000000    0.7500000000000000 Sn
   0.7185065200000000    0.8426326300000000    0.1472276500000000 O
   0.1573673700000000    0.2814934800000000    0.3527723500000000 O
   0.2814934800000000    0.1573673700000000    0.8527723500000000 O
   0.8426326300000000    0.7185065200000000    0.6472276500000000 O
   0.6015456600000000    0.6799219500000000    0.4252936700000000 O
   0.3200780500000000    0.3984543400000000    0.0747063300000000 O
   0.9956644100000001    0.1476588100000000    0.5864022700000000 O
   0.8523411900000000    0.0043355900000000    0.9135977300000000 O
   0.0043355900000000    0.8523411900000000    0.4135977300000000 O
   0.1476588100000000    0.9956644100000001    0.0864022700000000 O
   0.6799219500000000    0.6015456600000000    0.9252936700000000 O
   0.3984543400000000    0.3200780500000000    0.5747063300000000 O
