Ba1 Hg1 O2
1.0
   2.0646116999999999    1.1920039099999999    6.4584356999999999
  -2.0646116999999999    1.1920039099999999    6.4584356999999999
   0.0000000000000000   -2.3840078199999999    6.4584356999999999
Ba Hg O
1 1 2
direct
   0.5000000000000000    0.5000000000000000    0.5000000000000000 Ba
   0.0000000000000000    0.0000000000000000    0.0000000000000000 Hg
   0.1019511100000000    0.1019511100000000    0.1019511100000000 O
   0.8980488900000000    0.8980488900000000    0.8980488900000000 O
