La4 W4 O18
1.0
   6.9922180799999998    0.0060480800000000   -0.0035290900000000
   0.8620426800000000    7.2109293399999999    0.0224795200000000
   0.6613018400000000    2.3722320699999999    6.8595759200000002
La W O
4 4 18
direct
   0.8419442100000000    0.7407355200000000    0.8472345500000000 La
   0.1580557900000000    0.2592644800000000    0.1527654500000000 La
   0.3769504800000000    0.7248627900000000    0.5951234200000000 La
   0.6230495200000000    0.2751372100000000    0.4048765800000000 La
   0.1587034900000000    0.2037683300000000    0.6431208000000000 W
   0.8412965100000001    0.7962316699999999    0.3568792000000000 W
   0.7267751099999999    0.2679467700000000    0.9412862100000000 W
   0.2732248900000000    0.7320532300000000    0.0587137900000000 W
   0.3491393200000000    0.3543999500000000    0.6409452700000000 O
   0.6508606800000000    0.6456000500000000    0.3590547300000000 O
   0.0163493200000000    0.2747705500000000    0.8483070800000000 O
   0.9836506800000000    0.7252294500000001    0.1516929200000000 O
   0.4917439300000000    0.7702625600000000    0.9022919500000000 O
   0.5082560699999999    0.2297374400000000    0.0977080500000000 O
   0.6606686500000000    0.4918348300000000    0.7473685200000000 O
   0.3393313500000000    0.5081651700000001    0.2526314800000000 O
   0.2729182000000000    0.9151975300000000    0.1793402700000000 O
   0.7270818000000000    0.0848024700000000    0.8206597300000000 O
   0.8134184200000000    0.4203944100000000    0.0913863200000000 O
   0.1865815800000000    0.5796055900000000    0.9086136800000000 O
   0.9767487800000000    0.2955546200000000    0.4635210500000000 O
   0.0232512200000000    0.7044453800000000    0.5364789500000000 O
   0.8569522200000000    0.0589797000000000    0.1993979600000000 O
   0.1430477800000000    0.9410203000000000    0.8006020400000000 O
   0.3198702800000000    0.0955744700000000    0.4704109700000000 O
   0.6801297200000000    0.9044255300000000    0.5295890300000000 O
