Ba2 Y1 Bi1 O6
1.0
   0.0000000000000000    4.2989082500000002    4.2989082500000002
   4.2989082500000002    0.0000000000000000    4.2989082500000002
   4.2989082500000002    4.2989082500000002    0.0000000000000000
Ba Y Bi O
2 1 1 6
direct
   0.2500000000000000    0.2500000000000000    0.2500000000000000 Ba
   0.7500000000000000    0.7500000000000000    0.7500000000000000 Ba
   0.5000000000000000    0.5000000000000000    0.5000000000000000 Y
   0.0000000000000000    0.0000000000000000    0.0000000000000000 Bi
   0.2447709200000000    0.7552290800000000    0.7552290800000000 O
   0.7552290800000000    0.2447709200000000    0.7552290800000000 O
   0.2447709200000000    0.7552290800000000    0.2447709200000000 O
   0.7552290800000000    0.7552290800000000    0.2447709200000000 O
   0.7552290800000000    0.2447709200000000    0.2447709200000000 O
   0.2447709200000000    0.2447709200000000    0.7552290800000000 O
