Sr6 Te2 O12
1.0
   5.8490092799999998    0.0000000000000000   -0.0059301500000000
   0.0000000000000000    6.0500382400000001    0.0000000000000000
  -5.8624362799999998    0.0000000000000000    8.3760495099999996
Sr Te O
6 2 12
direct
   0.5000000000000000    0.5000000000000000    0.5000000000000000 Sr
   0.7333980000000000    0.9523233700000000    0.7471406300000000 Sr
   0.2666020000000000    0.4523233700000000    0.7528593700000000 Sr
   0.5000000000000000    0.0000000000000000    0.0000000000000000 Sr
   0.7333980000000000    0.5476766300000000    0.2471406300000000 Sr
   0.2666020000000000    0.0476766300000000    0.2528593700000000 Sr
   0.0000000000000000    0.5000000000000000    0.0000000000000000 Te
   0.0000000000000000    0.0000000000000000    0.5000000000000000 Te
   0.1200177300000000    0.4548783200000000    0.2194555300000000 O
   0.7658441400000000    0.2362182300000000    0.9374523299999999 O
   0.3127041900000000    0.1788517700000000    0.5441617800000000 O
   0.6872958100000000    0.6788517700000000    0.9558382200000000 O
   0.2341558600000000    0.7362182300000000    0.5625476700000001 O
   0.8799822700000000    0.9548783199999999    0.2805444700000000 O
   0.1200177300000000    0.0451216800000000    0.7194555300000000 O
   0.7658441400000000    0.2637817700000000    0.4374523300000000 O
   0.3127041900000000    0.3211482300000000    0.0441617800000000 O
   0.6872958100000000    0.8211482300000000    0.4558382200000000 O
   0.2341558600000000    0.7637817700000000    0.0625476700000000 O
   0.8799822700000000    0.5451216800000001    0.7805444700000000 O
