Rb8 S20
1.0
   6.5246222200000004    0.0000000000000000    0.0000000000000000
   0.0000000000000000    6.8253120799999998    0.0000000000000000
   0.0000000000000000    0.0000000000000000   17.5092734999999990
Rb S
8 20
direct
   0.5769941900000000    0.2463573800000000    0.1637261300000000 Rb
   0.6183907800000000    0.4189797000000000    0.5127266700000001 Rb
   0.9230058100000000    0.7536426200000000    0.6637261300000000 Rb
   0.8816092200000000    0.5810203000000000    0.0127266700000000 Rb
   0.1183907800000000    0.0810203000000000    0.4872733300000000 Rb
   0.3816092200000000    0.9189797000000000    0.9872733299999999 Rb
   0.4230058100000000    0.7463573800000000    0.3362738700000000 Rb
   0.0769941900000000    0.2536426200000000    0.8362738700000000 Rb
   0.9067935800000000    0.0801082900000000    0.0256022400000000 S
   0.4342053300000000    0.8788533900000000    0.6251141000000000 S
   0.0525533100000000    0.8739943200000000    0.1943784400000000 S
   0.9474466900000000    0.3739943200000000    0.3056215600000000 S
   0.2533008900000000    0.3383160600000000    0.6483835800000000 S
   0.0657946700000000    0.1211466100000000    0.1251141000000000 S
   0.5467039800000000    0.7485953700000000    0.1556484900000000 S
   0.5525533100000000    0.6260056800000000    0.8056215600000000 S
   0.5657946700000001    0.3788533900000000    0.8748859000000000 S
   0.0932064200000000    0.5801082900000000    0.4743977600000000 S
   0.5932064200000000    0.9198917100000000    0.5256022400000000 S
   0.0467039800000000    0.7514046300000000    0.8443515100000000 S
   0.7533008900000000    0.1616839400000000    0.3516164200000000 S
   0.9342053299999999    0.6211466100000000    0.3748859000000000 S
   0.9532960200000000    0.2514046300000000    0.6556484900000000 S
   0.4474466900000000    0.1260056800000000    0.6943784400000000 S
   0.7466991100000000    0.8383160600000000    0.8516164200000000 S
   0.4532960200000000    0.2485953700000000    0.3443515100000000 S
   0.2466991100000000    0.6616839400000000    0.1483835800000000 S
   0.4067935800000000    0.4198917100000000    0.9743977600000000 S
