Na8 Te2 O10
1.0
   5.6403141699999999    0.0069818100000000    0.0048688900000000
  -1.2283135100000000    5.5406780500000004   -0.0085498500000000
  -1.6842297600000000   -3.1541555500000000    7.6644595400000002
Na Te O
8 2 10
direct
   0.2120072000000000    0.4156989300000000    0.9002627600000001 Na
   0.4186858300000000    0.7989967400000000    0.3040319300000000 Na
   0.7037210100000000    0.3972884300000000    0.4009088500000000 Na
   0.2962789900000000    0.6027115700000000    0.5990911500000000 Na
   0.7879928000000000    0.5843010700000000    0.0997372400000000 Na
   0.0000000000000000    0.0000000000000000    0.5000000000000000 Na
   0.5000000000000000    0.0000000000000000    0.0000000000000000 Na
   0.5813141700000000    0.2010032600000000    0.6959680700000000 Na
   0.8953772300000000    0.8015104600000000    0.7959081300000000 Te
   0.1046227700000000    0.1984895400000000    0.2040918700000000 Te
   0.6004939200000000    0.6295471600000000    0.8459171599999999 O
   0.3995060800000000    0.3704528400000000    0.1540828400000000 O
   0.6855492000000000    0.8224151800000000    0.5948903300000000 O
   0.3144508000000000    0.1775848200000000    0.4051096700000000 O
   0.8023454700000000    0.0155394700000000    0.2407939500000000 O
   0.1976545300000000    0.9844605300000000    0.7592060500000000 O
   0.8838587400000000    0.1575088900000000    0.9615778699999999 O
   0.1161412600000000    0.8424911100000000    0.0384221300000000 O
   0.0554711000000000    0.5275792800000000    0.3154933300000000 O
   0.9445289000000000    0.4724207200000000    0.6845066700000000 O
