Cs2 Al2 As2 O7
1.0
  -2.7487541300000000    4.9193526900000002    4.5137562400000002
   2.7487541300000000   -4.9193526900000002    4.5137562400000002
   2.7487541300000000    4.9193526900000002   -4.5137562400000002
Cs Al As O
2 2 2 7
direct
   0.6616038200000000    0.6616038200000000    0.0000000000000000 Cs
   0.3046986000000000    0.8046986000000000    0.5000000000000000 Cs
   0.8959757699999999    0.0613197300000000    0.8346560400000000 Al
   0.2266637000000000    0.0613197300000000    0.1653439600000000 Al
   0.0869238500000000    0.3857916500000000    0.7011322000000000 As
   0.6846584400000000    0.3857916500000000    0.2988678000000000 As
   0.2604887400000000    0.7439909500000000    0.0050886600000000 O
   0.9950720000000000    0.9950720000000000    0.0000000000000000 O
   0.0958134700000000    0.2575453700000000    0.8382671000000000 O
   0.2604887400000000    0.2554000900000000    0.5164967900000000 O
   0.7389033000000000    0.2554000900000000    0.9949113400000000 O
   0.7389033000000000    0.7439909500000000    0.4835032100000000 O
   0.4192782700000000    0.2575453700000000    0.1617329000000000 O
