Li8 Te4 S12
1.0
   5.2585108800000002    0.0000000000000000   -0.0154914000000000
   0.0000000000000000   11.3734463899999998    0.0000000000000000
  -0.1286560900000000    0.0000000000000000    7.6984821800000001
Li Te S
8 4 12
direct
   0.2560246100000000    0.7702878000000000    0.8563123400000000 Li
   0.2560246100000000    0.7297122000000000    0.3563123400000000 Li
   0.2429649800000000    0.4112013300000000    0.8690888800000000 Li
   0.2429649800000000    0.0887986700000000    0.3690888800000000 Li
   0.7570350200000000    0.5887986700000000    0.1309111200000000 Li
   0.7570350200000000    0.9112013300000000    0.6309111200000000 Li
   0.7439753900000000    0.2297122000000000    0.1436876600000000 Li
   0.7439753900000000    0.2702878000000000    0.6436876600000000 Li
   0.2712403100000000    0.0847705200000000    0.8225450000000000 Te
   0.7287596900000000    0.5847705200000000    0.6774550000000000 Te
   0.7287596900000000    0.9152294800000000    0.1774550000000000 Te
   0.2712403100000000    0.4152294800000000    0.3225450000000000 Te
   0.2530456300000000    0.9247287900000000    0.6255994100000000 S
   0.2378970600000000    0.2535254100000000    0.1203411000000000 S
   0.7621029400000000    0.7464745900000000    0.8796589000000000 S
   0.2530456300000000    0.5752712100000000    0.1255994100000000 S
   0.2673411300000000    0.9069232300000000    0.1286931400000000 S
   0.7326588700000000    0.0930767700000000    0.8713068600000000 S
   0.7326588700000000    0.4069232300000000    0.3713068600000000 S
   0.7469543700000000    0.0752712100000000    0.3744005900000000 S
   0.7621029400000000    0.7535254100000000    0.3796589000000000 S
   0.2378970600000000    0.2464745900000000    0.6203411000000000 S
   0.2673411300000000    0.5930767700000000    0.6286931400000000 S
   0.7469543700000000    0.4247287900000000    0.8744005900000000 S
