Ba3 V6 O18
1.0
   4.2412622899999999   -6.3480242599999999    0.0000000000000000
   4.2412622899999999    6.3480242599999999    0.0000000000000000
   0.0000000000000000    0.0000000000000000    7.9330645700000000
Ba V O
3 6 18
direct
   0.3369003400000000    0.6630996600000000    0.5000000000000000 Ba
   0.6630996600000000    0.3369003400000000    0.5000000000000000 Ba
   0.5000000000000000    0.5000000000000000    0.0000000000000000 Ba
   0.5000000000000000    0.0000000000000000    0.9334236800000000 V
   0.0000000000000000    0.5000000000000000    0.0665763200000000 V
   0.7492921900000000    0.8967086900000000    0.2602117800000000 V
   0.2507078100000000    0.1032913100000000    0.2602117800000000 V
   0.1032913100000000    0.2507078100000000    0.7397882200000000 V
   0.8967086900000000    0.7492921900000000    0.7397882200000000 V
   0.3577865800000000    0.0945653700000000    0.0591051100000000 O
   0.6422134200000000    0.9054346300000000    0.0591051100000000 O
   0.0945653700000000    0.3577865800000000    0.9408948900000000 O
   0.9054346300000000    0.6422134200000000    0.9408948900000000 O
   0.3324276200000000    0.0090344600000000    0.4132114800000000 O
   0.6675723800000000    0.9909655400000000    0.4132114800000000 O
   0.0090344600000000    0.3324276200000000    0.5867885200000000 O
   0.9909655400000000    0.6675723800000000    0.5867885200000000 O
   0.6337201200000000    0.1822232300000000    0.8156073100000000 O
   0.0000000000000000    0.0000000000000000    0.7491946600000000 O
   0.0000000000000000    0.0000000000000000    0.2508053400000000 O
   0.6630159200000000    0.6647213300000000    0.6987133900000000 O
   0.3369840800000000    0.3352786700000000    0.6987133900000000 O
   0.3662798800000000    0.8177767700000000    0.8156073100000000 O
   0.3352786700000000    0.3369840800000000    0.3012866100000000 O
   0.8177767700000000    0.3662798800000000    0.1843926900000000 O
   0.1822232300000000    0.6337201200000000    0.1843926900000000 O
   0.6647213300000000    0.6630159200000000    0.3012866100000000 O
