As4 Se6
1.0
   6.6578748000000001   -1.8699107500000001   -0.0530121500000000
   6.6578748000000001    1.8699107500000001   -0.0530121500000000
  -0.8078576500000000    0.0000000000000000    9.2114451499999994
As Se
4 6
direct
   0.7993472000000000    0.7993472000000000    0.8603104400000000 As
   0.2006528000000000    0.2006528000000000    0.1396895600000000 As
   0.3833021500000000    0.3833021500000000    0.5528296800000000 As
   0.6166978500000000    0.6166978500000000    0.4471703200000000 As
   0.9671059400000001    0.9671059400000001    0.7090391700000001 Se
   0.0328940600000000    0.0328940600000000    0.2909608300000000 Se
   0.2210063600000000    0.2210063600000000    0.6593436200000000 Se
   0.7789936400000000    0.7789936400000000    0.3406563800000000 Se
   0.6262697200000000    0.6262697200000000    0.9657701600000000 Se
   0.3737302800000000    0.3737302800000000    0.0342298400000000 Se
