Ag8 P4 S14
1.0
   5.3363649300000002   -3.2171900000000000   -0.0184497000000000
   5.3363649300000002    3.2171900000000000   -0.0184497000000000
  -4.5019788299999997    0.0000000000000000   15.3022426500000002
Ag P S
8 4 14
direct
   0.1836792800000000    0.7439895600000000    0.4450200200000000 Ag
   0.2560104400000000    0.8163207200000000    0.0549799800000000 Ag
   0.8163207200000000    0.2560104400000000    0.5549799800000000 Ag
   0.7439895600000000    0.1836792800000000    0.9450200200000000 Ag
   0.0237165400000000    0.4600285100000000    0.1632324200000000 Ag
   0.5399714900000000    0.9762834600000000    0.3367675800000000 Ag
   0.9762834600000000    0.5399714900000000    0.8367675800000000 Ag
   0.4600285100000000    0.0237165400000000    0.6632324200000000 Ag
   0.2936543500000000    0.9268550700000000    0.8579292800000000 P
   0.9268550700000000    0.2936543500000000    0.3579292800000000 P
   0.7063456500000000    0.0731449300000000    0.1420707200000000 P
   0.0731449300000000    0.7063456500000000    0.6420707200000000 P
   0.3804925400000000    0.6344324800000000    0.5980796600000000 S
   0.3655675200000000    0.6195074600000000    0.9019203400000000 S
   0.9287075400000000    0.5899732300000000    0.3230317800000000 S
   0.4100267700000000    0.0712924600000000    0.1769682200000000 S
   0.9984403600000000    0.0015596400000000    0.2500000000000000 S
   0.6344324800000000    0.3804925400000000    0.0980796600000000 S
   0.6195074600000000    0.3655675200000000    0.4019203400000000 S
   0.0015596400000000    0.9984403600000000    0.7500000000000000 S
   0.7630932200000000    0.8836682400000000    0.5600554900000000 S
   0.1163317600000000    0.2369067800000000    0.9399445100000000 S
   0.2369067800000000    0.1163317600000000    0.4399445100000000 S
   0.8836682400000000    0.7630932200000000    0.0600554900000000 S
   0.5899732300000000    0.9287075400000000    0.8230317800000000 S
   0.0712924600000000    0.4100267700000000    0.6769682200000000 S
