Ba4 Li4 B4 O12
1.0
   6.4512602399999999    0.0000000000000000   -0.0076330900000000
   0.0000000000000000    7.1096559299999997    0.0000000000000000
  -3.4067815000000001    0.0000000000000000    6.5552584100000004
Ba Li B O
4 4 4 12
direct
   0.3227802500000000    0.1387813000000000    0.6646508200000000 Ba
   0.3227802500000000    0.3612187000000000    0.1646508200000000 Ba
   0.6772197500000000    0.8612187000000000    0.3353491800000000 Ba
   0.6772197500000000    0.6387813000000000    0.8353491800000000 Ba
   0.9027107300000000    0.0712015900000000    0.8019612000000000 Li
   0.0972892700000000    0.5712015900000000    0.6980388000000000 Li
   0.9027107300000000    0.4287984100000000    0.3019612000000000 Li
   0.0972892700000000    0.9287984100000000    0.1980388000000000 Li
   0.2124239800000000    0.8376200100000000    0.9176069800000000 B
   0.2124239800000000    0.6623799900000000    0.4176069800000000 B
   0.7875760200000000    0.3376200100000000    0.5823930200000000 B
   0.7875760200000000    0.1623799900000000    0.0823930200000000 B
   0.6435808300000000    0.1816155700000000    0.5226927000000000 O
   0.0148635600000000    0.8387090900000000    0.7266209500000000 O
   0.9851364400000000    0.1612909100000000    0.2733790500000000 O
   0.3564191700000000    0.8183844300000001    0.4773073000000000 O
   0.9851364400000000    0.3387090900000000    0.7733790500000000 O
   0.7412421200000000    0.0027756800000000    0.9615937200000000 O
   0.2587578800000000    0.9972243200000001    0.0384062800000000 O
   0.7412421200000000    0.4972243200000000    0.4615937200000000 O
   0.6435808300000000    0.3183844300000000    0.0226927000000000 O
   0.2587578800000000    0.5027756799999999    0.5384062800000000 O
   0.3564191700000000    0.6816155699999999    0.9773073000000000 O
   0.0148635600000000    0.6612909100000000    0.2266209500000000 O
