Ba8 Si2 Sb4 Se22
1.0
   4.6824045700000001  -12.6835113499999999    0.0000000000000000
   4.6824045700000001   12.6835113499999999    0.0000000000000000
   0.0000000000000000    0.0000000000000000    8.6999487200000001
Ba Si Sb Se
8 2 4 22
direct
   0.4563176200000000    0.0374230900000000    0.0015025300000000 Ba
   0.9625769100000000    0.5436823800000000    0.0015025300000000 Ba
   0.5436823800000000    0.9625769100000000    0.5015025300000000 Ba
   0.0374230900000000    0.4563176200000000    0.5015025300000000 Ba
   0.2924599900000000    0.2162032900000000    0.7633954600000000 Ba
   0.7837967100000000    0.7075400100000000    0.7633954600000000 Ba
   0.7075400100000000    0.7837967100000000    0.2633954600000000 Ba
   0.2162032900000000    0.2924599900000000    0.2633954600000000 Ba
   0.9207243800000000    0.0792756200000000    0.5909616600000001 Si
   0.0792756200000000    0.9207243800000000    0.0909616600000000 Si
   0.3522925000000000    0.6477075000000000    0.9303487300000000 Sb
   0.6477075000000000    0.3522925000000000    0.4303487300000000 Sb
   0.8548199600000000    0.1451800400000000    0.9357524900000000 Sb
   0.1451800400000000    0.8548199600000000    0.4357524900000000 Sb
   0.6173193900000000    0.3826806100000000    0.9038199400000000 Se
   0.3826806100000000    0.6173193900000000    0.4038199400000000 Se
   0.5545897700000000    0.4454102300000000    0.1096083700000000 Se
   0.4454102300000000    0.5545897700000000    0.6096083700000000 Se
   0.5305436700000000    0.4694563300000000    0.4769564300000000 Se
   0.4694563300000000    0.5305436700000000    0.9769564300000000 Se
   0.7341916200000000    0.2658083800000000    0.2717324600000000 Se
   0.2658083800000000    0.7341916200000000    0.7717324600000000 Se
   0.4427632700000000    0.1165203400000000    0.6067804400000000 Se
   0.8834796600000000    0.5572367300000000    0.6067804400000000 Se
   0.5572367300000000    0.8834796600000000    0.1067804400000000 Se
   0.1165203400000000    0.4427632700000000    0.1067804400000000 Se
   0.7665250300000001    0.2334749700000000    0.7893382500000000 Se
   0.2334749700000000    0.7665250300000001    0.2893382500000000 Se
   0.2933595800000000    0.0943782600000000    0.2406760700000000 Se
   0.9056217400000000    0.7066404200000000    0.2406760700000000 Se
   0.7066404200000000    0.9056217400000000    0.7406760700000000 Se
   0.0943782600000000    0.2933595800000000    0.7406760700000000 Se
   0.8746701000000000    0.1253299000000000    0.3677751200000000 Se
   0.1253299000000000    0.8746701000000000    0.8677751200000000 Se
   0.0070708000000000    0.9929292000000000    0.5153995400000000 Se
   0.9929292000000000    0.0070708000000000    0.0153995400000000 Se
