Rb2 Li14 Si4 O16
1.0
   7.7924257199999998   -3.1771170099999999    0.0026361600000000
   7.7924257199999998    3.1771170099999999    0.0026361600000000
  -0.0672919800000000    0.0000000000000000    7.7442380300000000
Rb Li Si O
2 14 4 16
direct
   0.2450417500000000    0.2450417500000000    0.4713027800000000 Rb
   0.7549582500000001    0.7549582500000001    0.5286972200000000 Rb
   0.1830849600000000    0.6741201300000000    0.3670238000000000 Li
   0.3258798700000000    0.8169150400000000    0.6329762000000000 Li
   0.6741201300000000    0.1830849600000000    0.3670238000000000 Li
   0.9326031200000000    0.9326031200000000    0.7096476200000000 Li
   0.5594412400000000    0.0724130400000000    0.8615598799999999 Li
   0.8169150400000000    0.3258798700000000    0.6329762000000000 Li
   0.0673968800000000    0.0673968800000000    0.2903523800000000 Li
   0.5000000000000000    0.5000000000000000    0.0000000000000000 Li
   0.0724130400000000    0.5594412400000000    0.8615598799999999 Li
   0.6439516300000000    0.6439516300000000    0.8653689200000000 Li
   0.9275869600000000    0.4405587600000000    0.1384401200000000 Li
   0.4405587600000000    0.9275869600000000    0.1384401200000000 Li
   0.3560483700000000    0.3560483700000000    0.1346310800000000 Li
   0.0000000000000000    0.0000000000000000    0.0000000000000000 Li
   0.4291003900000000    0.4291003900000000    0.7062888700000000 Si
   0.5708996100000000    0.5708996100000000    0.2937111300000000 Si
   0.8530419600000000    0.8530419600000000    0.1405079000000000 Si
   0.1469580400000000    0.1469580400000000    0.8594921000000000 Si
   0.8711776500000000    0.8711776500000000    0.9307329700000000 O
   0.8187114700000000    0.3829896500000000    0.3933884700000000 O
   0.9485128500000000    0.9485128500000000    0.2361946800000000 O
   0.4669483900000000    0.4669483900000000    0.2528784700000000 O
   0.4143405400000000    0.9781018900000000    0.8010191000000000 O
   0.6160261600000000    0.6160261600000000    0.1010166700000000 O
   0.0514871500000000    0.0514871500000000    0.7638053200000000 O
   0.1288223500000000    0.1288223500000000    0.0692670300000000 O
   0.0218981100000000    0.5856594600000000    0.1989809000000000 O
   0.6170103500000000    0.1812885300000000    0.6066115300000000 O
   0.3839738400000000    0.3839738400000000    0.8989833300000000 O
   0.1812885300000000    0.6170103500000000    0.6066115300000000 O
   0.3829896500000000    0.8187114700000000    0.3933884700000000 O
   0.5856594600000000    0.0218981100000000    0.1989809000000000 O
   0.9781018900000000    0.4143405400000000    0.8010191000000000 O
   0.5330516100000000    0.5330516100000000    0.7471215300000000 O
