Li2 Mg2 V2 O8
1.0
   2.8126622900000000   -4.3005137099999997    0.0000000000000000
   2.8126622900000000    4.3005137099999997    0.0000000000000000
   0.0000000000000000    0.0000000000000000    6.2309991800000004
Li Mg V O
2 2 2 8
direct
   0.8376330600000000    0.1623669400000000    0.7500000000000000 Li
   0.1623669400000000    0.8376330600000000    0.2500000000000000 Li
   0.5000000000000000    0.5000000000000000    0.5000000000000000 Mg
   0.5000000000000000    0.5000000000000000    0.0000000000000000 Mg
   0.1456855000000000    0.8543145000000000    0.7500000000000000 V
   0.8543145000000000    0.1456855000000000    0.2500000000000000 V
   0.2601897900000000    0.7398102100000000    0.9715964300000000 O
   0.7345406900000000    0.7727769500000000    0.2500000000000000 O
   0.2654593100000000    0.2272230500000000    0.7500000000000000 O
   0.7398102100000000    0.2601897900000000    0.4715964300000000 O
   0.7398102100000000    0.2601897900000000    0.0284035700000000 O
   0.7727769500000000    0.7345406900000000    0.7500000000000000 O
   0.2272230500000000    0.2654593100000000    0.2500000000000000 O
   0.2601897900000000    0.7398102100000000    0.5284035700000000 O
