Na2 Li2 Zn2 P4 O14
1.0
   3.8005479499999999   -6.1832134600000002    0.0000000000000000
   3.8005479499999999    6.1832134600000002    0.0000000000000000
   0.0000000000000000    0.0000000000000000    6.2094230100000001
Na Li Zn P O
2 2 2 4 14
direct
   0.2537921400000000    0.2537921400000000    0.5000000000000000 Na
   0.7462078599999999    0.7462078599999999    0.0000000000000000 Na
   0.7870572400000000    0.2129427600000000    0.7500000000000000 Li
   0.2129427600000000    0.7870572400000000    0.2500000000000000 Li
   0.2148215400000000    0.7851784600000000    0.7500000000000000 Zn
   0.7851784600000000    0.2148215400000000    0.2500000000000000 Zn
   0.8119030699999999    0.5785089400000000    0.4920469000000000 P
   0.5785089400000000    0.8119030699999999    0.5079531000000000 P
   0.4214910600000000    0.1880969300000000    0.0079531000000000 P
   0.1880969300000000    0.4214910600000000    0.9920469000000000 P
   0.9254943500000000    0.6821937100000000    0.7003151399999999 O
   0.6776831400000000    0.9210278500000000    0.7142294000000000 O
   0.5927580900000000    0.5927580900000000    0.5000000000000000 O
   0.7383717400000001    0.3432722700000000    0.4986336100000000 O
   0.3432722700000000    0.7383717400000001    0.5013663900000001 O
   0.9210278500000000    0.6776831400000000    0.2857706000000000 O
   0.6821937100000000    0.9254943500000000    0.2996848600000000 O
   0.3223168600000000    0.0789721500000000    0.2142294000000000 O
   0.0745056500000000    0.3178062900000000    0.2003151400000000 O
   0.6567277300000000    0.2616282600000000    0.0013663900000000 O
   0.4072419100000000    0.4072419100000000    0.0000000000000000 O
   0.2616282600000000    0.6567277300000000    0.9986336099999999 O
   0.3178062900000000    0.0745056500000000    0.7996848600000001 O
   0.0789721500000000    0.3223168600000000    0.7857706000000000 O
