Rb4 V2 Ag2 Se8
1.0
   0.0000000000000000    6.7763314000000001   11.7944913299999996
   2.9840635999999998    0.0000000000000000   11.7944913299999996
   2.9840635999999998    6.7763314000000001    0.0000000000000000
Rb V Ag Se
4 2 2 8
direct
   0.6818600900000000    0.6818600900000000    0.3181399100000000 Rb
   0.3181399100000000    0.3181399100000000    0.6818600900000000 Rb
   0.9318600900000000    0.9318600900000000    0.5681399100000000 Rb
   0.5681399100000000    0.5681399100000000    0.9318600900000000 Rb
   0.7500000000000000    0.7500000000000000    0.7500000000000000 V
   0.5000000000000000    0.5000000000000000    0.5000000000000000 V
   0.2500000000000000    0.2500000000000000    0.2500000000000000 Ag
   0.0000000000000000    0.0000000000000000    0.0000000000000000 Ag
   0.5530398500000000    0.3314664500000000    0.2448764800000000 Se
   0.8706172200000000    0.2448764800000000    0.3314664500000000 Se
   0.0051235200000000    0.3793827800000000    0.6969601500000000 Se
   0.9185335500000000    0.6969601500000000    0.3793827800000000 Se
   0.2448764800000000    0.8706172200000000    0.5530398500000000 Se
   0.3314664500000000    0.5530398500000000    0.8706172200000000 Se
   0.3793827800000000    0.0051235200000000    0.9185335500000000 Se
   0.6969601500000000    0.9185335500000000    0.0051235200000000 Se
