Rb8 Cr4 O16
1.0
   7.9661957599999997    0.0000000000000000    0.0000000000000000
   0.0000000000000000    6.0278238100000001    0.0000000000000000
   0.0000000000000000    0.0000000000000000   10.6947813099999998
Rb Cr O
8 4 16
direct
   0.5132066000000000    0.2500000000000000    0.8039721300000000 Rb
   0.4867934000000000    0.7500000000000000    0.1960278700000000 Rb
   0.0132066000000000    0.2500000000000000    0.6960278700000000 Rb
   0.9867934000000000    0.7500000000000000    0.3039721300000000 Rb
   0.8334498500000000    0.2500000000000000    0.0861216200000000 Rb
   0.1665501500000000    0.7500000000000000    0.9138783800000000 Rb
   0.3334498500000000    0.2500000000000000    0.4138783800000000 Rb
   0.6665501500000000    0.7500000000000000    0.5861216200000000 Rb
   0.2683820700000000    0.2500000000000000    0.0789689100000000 Cr
   0.7316179300000000    0.7500000000000000    0.9210310900000001 Cr
   0.7683820700000000    0.2500000000000000    0.4210310900000000 Cr
   0.2316179300000000    0.7500000000000000    0.5789689099999999 Cr
   0.8045020000000001    0.9745255200000000    0.8503925600000000 O
   0.1954980000000000    0.4745255200000000    0.1496074400000000 O
   0.3045020000000000    0.5254744800000000    0.6496074400000000 O
   0.6954979999999999    0.0254744800000000    0.3503925600000000 O
   0.1954980000000000    0.0254744800000000    0.1496074400000000 O
   0.8045020000000001    0.5254744800000000    0.8503925600000000 O
   0.6954979999999999    0.4745255200000000    0.3503925600000000 O
   0.3045020000000000    0.9745255200000000    0.6496074400000000 O
   0.2022107600000000    0.2500000000000000    0.9318120100000000 O
   0.7977892400000000    0.7500000000000000    0.0681879900000000 O
   0.7022107600000000    0.2500000000000000    0.5681879900000000 O
   0.2977892400000000    0.7500000000000000    0.4318120100000000 O
   0.0245820300000000    0.7500000000000000    0.5832845200000000 O
   0.9754179700000000    0.2500000000000000    0.4167154800000000 O
   0.5245820300000000    0.7500000000000000    0.9167154800000000 O
   0.4754179700000000    0.2500000000000000    0.0832845200000000 O
