Tl4 Mo6 Se2 O24
1.0
   7.2931719700000004    0.0000000000000000    0.0000000000000000
  -3.6465859900000002    6.3160723399999998    0.0000000000000000
   0.0000000000000000    0.0000000000000000   11.8227138400000005
Tl Mo Se O
4 6 2 24
direct
   0.3333330000000000    0.6666670000000000    0.1682298400000000 Tl
   0.6666670000000000    0.3333330000000000    0.6682298400000000 Tl
   0.6666670000000000    0.3333330000000000    0.2611165500000000 Tl
   0.3333330000000000    0.6666670000000000    0.7611165500000000 Tl
   0.3392452000000000    0.1402395800000000    0.9335727900000000 Mo
   0.8009943800000000    0.6607548000000000    0.9335727900000000 Mo
   0.8597604200000000    0.1990056200000000    0.9335727900000000 Mo
   0.1990056200000000    0.8597604200000000    0.4335727900000000 Mo
   0.1402395800000000    0.3392452000000000    0.4335727900000000 Mo
   0.6607548000000000    0.8009943800000000    0.4335727900000000 Mo
   0.0000000000000000    0.0000000000000000    0.1969657600000000 Se
   0.0000000000000000    0.0000000000000000    0.6969657600000000 Se
   0.4102757800000000    0.2018131400000000    0.0748193900000000 O
   0.7915373600000000    0.5897242200000000    0.0748193900000000 O
   0.7981868600000001    0.2084626400000000    0.0748193900000000 O
   0.2084626400000000    0.7981868600000001    0.5748193900000000 O
   0.2018131400000000    0.4102757800000000    0.5748193900000000 O
   0.5897242200000000    0.7915373600000000    0.5748193900000000 O
   0.2483108600000000    0.1269855200000000    0.7594334200000000 O
   0.8786746700000000    0.7516891400000000    0.7594334200000000 O
   0.8730144800000000    0.1213253300000000    0.7594334200000000 O
   0.1213253300000000    0.8730144800000000    0.2594334200000000 O
   0.1269855200000000    0.2483108600000000    0.2594334200000000 O
   0.7516891400000000    0.8786746700000000    0.2594334200000000 O
   0.5491714800000000    0.0871989500000000    0.8840044900000000 O
   0.5380284700000000    0.4508285200000000    0.8840044900000000 O
   0.9128010500000000    0.4619715300000000    0.8840044900000000 O
   0.4619715300000000    0.9128010500000000    0.3840044900000000 O
   0.0871989500000000    0.5491714800000000    0.3840044900000000 O
   0.4508285200000000    0.5380284700000000    0.3840044900000000 O
   0.1196998600000000    0.8701193900000000    0.9478961800000000 O
   0.7504195299999999    0.8803001400000000    0.9478961800000000 O
   0.1298806100000000    0.2495804700000000    0.9478961800000000 O
   0.2495804700000000    0.1298806100000000    0.4478961800000000 O
   0.8701193900000000    0.1196998600000000    0.4478961800000000 O
   0.8803001400000000    0.7504195299999999    0.4478961800000000 O
