Al2 Ag2 Se4
1.0
  -2.9646887199999998    2.9646887199999998    5.4541098300000002
   2.9646887199999998   -2.9646887199999998    5.4541098300000002
   2.9646887199999998    2.9646887199999998   -5.4541098300000002
Al Ag Se
2 2 4
direct
   0.2500000000000000    0.7500000000000000    0.5000000000000000 Al
   0.5000000000000000    0.5000000000000000    0.0000000000000000 Al
   0.0000000000000000    0.0000000000000000    0.0000000000000000 Ag
   0.7500000000000000    0.2500000000000000    0.5000000000000000 Ag
   0.5942508399999999    0.6250000000000000    0.4692508400000000 Se
   0.3750000000000000    0.8442508399999999    0.9692508399999999 Se
   0.1557491600000000    0.1250000000000000    0.5307491600000001 Se
   0.8750000000000000    0.4057491600000000    0.0307491600000000 Se
