Ga2 Ag2 S4
1.0
  -2.8351057599999998    2.8351057599999998    5.1924252199999996
   2.8351057599999998   -2.8351057599999998    5.1924252199999996
   2.8351057599999998    2.8351057599999998   -5.1924252199999996
Ga Ag S
2 2 4
direct
   0.5000000000000000    0.5000000000000000    0.0000000000000000 Ga
   0.2500000000000000    0.7500000000000000    0.5000000000000000 Ga
   0.7500000000000000    0.2500000000000000    0.5000000000000000 Ag
   0.0000000000000000    0.0000000000000000    0.0000000000000000 Ag
   0.8750000000000000    0.8415910500000000    0.4665910500000000 S
   0.1584089500000000    0.6250000000000000    0.0334089500000000 S
   0.3750000000000000    0.4084089500000000    0.5334089500000000 S
   0.5915910500000000    0.1250000000000000    0.9665910500000000 S
