Hg8 N4 O16
1.0
   5.5472579099999999    0.0000000000000000    0.0010575800000000
   0.0000000000000000    6.6587482600000003    0.0000000000000000
  -1.8775689499999999    0.0000000000000000   11.5261681700000000
Hg N O
8 4 16
direct
   0.4983409700000000    0.1908903100000000    0.2593282600000000 Hg
   0.5016590300000000    0.6908903100000000    0.2406717400000000 Hg
   0.5016590300000000    0.8091096900000000    0.7406717400000000 Hg
   0.4983409700000000    0.3091096900000000    0.7593282600000000 Hg
   0.8218774300000000    0.5104969000000000    0.5562473300000000 Hg
   0.1781225700000000    0.0104969000000000    0.9437526700000000 Hg
   0.1781225700000000    0.4895031000000000    0.4437526700000000 Hg
   0.8218774300000000    0.9895031000000000    0.0562473300000000 Hg
   0.9561172100000001    0.0231823500000000    0.6393090800000000 N
   0.0438827900000000    0.5231823500000000    0.8606909200000000 N
   0.9561172100000001    0.4768176500000000    0.1393090800000000 N
   0.0438827900000000    0.9768176500000000    0.3606909200000000 N
   0.0317566600000000    0.3694685100000000    0.7943603200000000 O
   0.9682433400000000    0.8694685100000000    0.7056396800000000 O
   0.9682433400000000    0.6305314900000000    0.2056396800000000 O
   0.0317566600000000    0.1305314900000000    0.2943603200000000 O
   0.5096853500000000    0.9524146800000000    0.1448387400000000 O
   0.4903146500000000    0.4524146800000000    0.3551612600000000 O
   0.4903146500000000    0.0475853200000000    0.8551612600000000 O
   0.5096853500000000    0.5475853200000000    0.6448387400000000 O
   0.7513688600000000    0.3936865300000000    0.1077679300000000 O
   0.2486311400000000    0.8936865300000000    0.3922320700000000 O
   0.7513688600000000    0.1063134700000000    0.6077679300000000 O
   0.2486311400000000    0.6063134700000000    0.8922320700000000 O
   0.1464141100000000    0.4125228600000000    0.1067670400000000 O
   0.8535858900000000    0.9125228600000000    0.3932329600000000 O
   0.8535858900000000    0.5874771400000000    0.8932329600000000 O
   0.1464141100000000    0.0874771400000000    0.6067670400000000 O
