Mg8 Sb4 O18
1.0
   5.1948770000000000   -0.0064505500000000   -0.0001553700000000
  -0.0602552700000000    5.5725255999999996   -0.0052371500000000
  -2.5930704699999998   -1.7080047800000000   11.3173319299999999
Mg Sb O
8 4 18
direct
   0.2244288900000000    0.4837463600000000    0.4205110800000000 Mg
   0.6177325400000000    0.3313772600000000    0.2302133300000000 Mg
   0.5359283200000000    0.8431197200000000    0.0965080700000000 Mg
   0.1134011300000000    0.8297802700000000    0.2328095500000000 Mg
   0.8865988700000000    0.1702197300000000    0.7671904500000000 Mg
   0.4640716800000000    0.1568802800000000    0.9034919300000001 Mg
   0.3822674600000000    0.6686227400000000    0.7697866700000000 Mg
   0.7755711100000000    0.5162536400000000    0.5794889200000000 Mg
   0.2857903100000000    0.9699792100000000    0.5734101400000000 Sb
   0.9430789500000000    0.6506165000000000    0.8938545600000000 Sb
   0.0569210500000000    0.3493835000000000    0.1061454400000000 Sb
   0.7142096900000000    0.0300207900000000    0.4265898600000000 Sb
   0.7222398600000000    0.9065151299999999    0.8329012700000000 O
   0.4241758900000000    0.6494059900000000    0.5959802199999999 O
   0.9832000400000001    0.4845515800000000    0.2636470400000000 O
   0.0629109500000000    0.2307713600000000    0.5029531699999999 O
   0.7807742600000001    0.9782254100000000    0.2707358400000000 O
   0.2930882800000000    0.8196104300000000    0.9326952200000000 O
   0.3591807500000000    0.8635676300000000    0.4038281900000000 O
   0.8773051200000000    0.6730783700000000    0.0587350500000000 O
   0.3730562100000000    0.5823283400000000    0.1661695300000000 O
   0.6269437900000000    0.4176716600000000    0.8338304700000000 O
   0.1226948800000000    0.3269216300000000    0.9412649500000000 O
   0.6408192500000000    0.1364323700000000    0.5961718100000000 O
   0.7069117200000000    0.1803895700000000    0.0673047800000000 O
   0.2192257400000000    0.0217745900000000    0.7292641600000001 O
   0.9370890500000000    0.7692286400000000    0.4970468300000000 O
   0.0167999600000000    0.5154484200000000    0.7363529599999999 O
   0.5758241100000000    0.3505940100000000    0.4040197800000000 O
   0.2777601400000000    0.0934848700000000    0.1670987300000000 O
