Ca2 Nb4 P4 O22
1.0
   7.5444568099999998   -5.4144007099999998   -0.0189879300000000
   7.5444568099999998    5.4144007099999998   -0.0189879300000000
  -0.3486773200000000    0.0000000000000000    5.2514222500000001
Ca Nb P O
2 4 4 22
direct
   0.3955964300000000    0.6044035700000000    0.7500000000000000 Ca
   0.6044035700000000    0.3955964300000000    0.2500000000000000 Ca
   0.2470420800000000    0.0026958000000000    0.7309671300000000 Nb
   0.0026958000000000    0.2470420800000000    0.2309671300000000 Nb
   0.9973042000000000    0.7529579199999999    0.7690328700000000 Nb
   0.7529579199999999    0.9973042000000000    0.2690328700000000 Nb
   0.5180101600000000    0.1869278300000000    0.7574229000000000 P
   0.4819898400000000    0.8130721700000000    0.2425771000000000 P
   0.8130721700000000    0.4819898400000000    0.7425771000000000 P
   0.1869278300000000    0.5180101600000000    0.2574229000000000 P
   0.0751423100000000    0.6234754200000000    0.4475261100000000 O
   0.1367925900000000    0.0843152500000000    0.4209379600000000 O
   0.6234754200000000    0.0751423100000000    0.9475261100000000 O
   0.4072077800000000    0.8315741700000000    0.5046737600000000 O
   0.1721640800000000    0.8278359199999999    0.7500000000000000 O
   0.8315741700000000    0.4072077800000000    0.0046737600000000 O
   0.1684258300000000    0.5927922200000000    0.9953262400000000 O
   0.1447578100000000    0.3697312100000000    0.2135558800000000 O
   0.8632074100000000    0.9156847500000000    0.5790620399999999 O
   0.0843152500000000    0.1367925900000000    0.9209379600000001 O
   0.3765245800000000    0.9248576900000000    0.0524738900000000 O
   0.6511961900000000    0.5147285700000001    0.6316573000000000 O
   0.4852714300000000    0.3488038100000000    0.8683427000000000 O
   0.6302687900000000    0.8552421900000000    0.2864441200000000 O
   0.8278359199999999    0.1721640800000000    0.2500000000000000 O
   0.9156847500000000    0.8632074100000000    0.0790620400000000 O
   0.5927922200000000    0.1684258300000000    0.4953262400000000 O
   0.8552421900000000    0.6302687900000000    0.7864441200000000 O
   0.5147285700000001    0.6511961900000000    0.1316573000000000 O
   0.9248576900000000    0.3765245800000000    0.5524738900000000 O
   0.3488038100000000    0.4852714300000000    0.3683427000000000 O
   0.3697312100000000    0.1447578100000000    0.7135558800000000 O
