Cs12 Sb4 Se12
1.0
  10.5355700300000006    0.0000000000000000    0.0000000000000000
   0.0000000000000000   10.5355700300000006    0.0000000000000000
   0.0000000000000000    0.0000000000000000   10.5355700300000006
Cs Sb Se
12 4 12
direct
   0.3176011800000000    0.6823988200000000    0.1823988200000000 Cs
   0.4255882700000000    0.9255882700000000    0.5744117300000000 Cs
   0.1823988200000000    0.3176011800000000    0.6823988200000000 Cs
   0.0744117300000000    0.0744117300000000    0.0744117300000000 Cs
   0.8111598100000000    0.1888401900000000    0.6888401900000000 Cs
   0.6888401900000000    0.8111598100000000    0.1888401900000000 Cs
   0.5744117300000000    0.4255882700000000    0.9255882700000000 Cs
   0.9255882700000000    0.5744117300000000    0.4255882700000000 Cs
   0.1888401900000000    0.6888401900000000    0.8111598100000000 Cs
   0.6823988200000000    0.1823988200000000    0.3176011800000000 Cs
   0.8176011800000000    0.8176011800000000    0.8176011800000000 Cs
   0.3111598100000000    0.3111598100000000    0.3111598100000000 Cs
   0.5264030400000000    0.5264030400000000    0.5264030400000000 Sb
   0.9735969600000000    0.4735969600000000    0.0264030400000000 Sb
   0.4735969600000000    0.0264030400000000    0.9735969600000000 Sb
   0.0264030400000000    0.9735969600000000    0.4735969600000000 Sb
   0.4007710000000000    0.0050143500000000    0.2062625600000000 Se
   0.7062625600000000    0.0992290000000000    0.9949856500000001 Se
   0.0050143500000000    0.2062625600000000    0.4007710000000000 Se
   0.9007710000000000    0.4949856500000000    0.7937374400000000 Se
   0.0992290000000000    0.9949856500000001    0.7062625600000000 Se
   0.4949856500000000    0.7937374400000000    0.9007710000000000 Se
   0.7937374400000000    0.9007710000000000    0.4949856500000000 Se
   0.2062625600000000    0.4007710000000000    0.0050143500000000 Se
   0.9949856500000001    0.7062625600000000    0.0992290000000000 Se
   0.5992290000000000    0.5050143499999999    0.2937374400000000 Se
   0.2937374400000000    0.5992290000000000    0.5050143499999999 Se
   0.5050143499999999    0.2937374400000000    0.5992290000000000 Se
