Li2 La2 S2 O2
1.0
   3.9730520399999998    0.0000000000000000    0.0000000000000000
   0.0000000000000000    3.9730520399999998    0.0000000000000000
   0.0000000000000000    0.0000000000000000    8.6497059499999995
Li La S O
2 2 2 2
direct
   0.5000000000000000    0.5000000000000000    0.5000000000000000 Li
   0.0000000000000000    0.0000000000000000    0.5000000000000000 Li
   0.0000000000000000    0.5000000000000000    0.8562956200000000 La
   0.5000000000000000    0.0000000000000000    0.1437043800000000 La
   0.5000000000000000    0.0000000000000000    0.6636005800000000 S
   0.0000000000000000    0.5000000000000000    0.3363994200000000 S
   0.0000000000000000    0.0000000000000000    0.0000000000000000 O
   0.5000000000000000    0.5000000000000000    0.0000000000000000 O
