Tl4 Si2 S6
1.0
   6.5306616200000001    0.0065892400000000    0.0070390500000000
  -2.4999756700000000    6.0868227299999997    0.0083569200000000
  -0.0717488200000000   -3.3723448000000000    7.5539046299999999
Tl Si S
4 2 6
direct
   0.6824349199999999    0.2587329500000000    0.8901889500000000 Tl
   0.3175650800000000    0.7412670500000000    0.1098110500000000 Tl
   0.9417865500000000    0.1130935100000000    0.3302136500000000 Tl
   0.0582134500000000    0.8869064900000000    0.6697863500000000 Tl
   0.4537639000000000    0.5689401500000000    0.6795378500000000 Si
   0.5462361000000000    0.4310598500000000    0.3204621500000000 Si
   0.2953413700000000    0.2464007600000000    0.0960187100000000 S
   0.7046586300000000    0.7535992400000000    0.9039812900000000 S
   0.1245512200000000    0.4896340900000000    0.7296228300000001 S
   0.8754487800000000    0.5103659100000000    0.2703771700000000 S
   0.5240691600000000    0.7577208700000000    0.5046129700000000 S
   0.4759308400000000    0.2422791300000000    0.4953870300000000 S
