Cs4 Ga12 S20
1.0
  10.6468709100000005    0.0000000000000000    0.0204657700000000
   0.0000000000000000   12.7126330900000006    0.0000000000000000
  -0.1426284500000000    0.0000000000000000    6.9103638900000002
Cs Ga S
4 12 20
direct
   0.6395034300000000    0.5827885700000000    0.8651694900000000 Cs
   0.6395034300000000    0.9172114300000000    0.3651694900000000 Cs
   0.3604965700000000    0.0827885700000000    0.6348305100000000 Cs
   0.3604965700000000    0.4172114300000000    0.1348305100000000 Cs
   0.6670425200000000    0.1999963700000000    0.9850032399999999 Ga
   0.3329574800000000    0.8000036300000000    0.0149967600000000 Ga
   0.3329574800000000    0.6999963700000000    0.5149967600000001 Ga
   0.8696741000000000    0.5376740900000000    0.3959661400000000 Ga
   0.6670425200000000    0.3000036300000000    0.4850032400000000 Ga
   0.9846027000000001    0.2753069000000000    0.2650517700000000 Ga
   0.1303259000000000    0.0376740900000000    0.1040338600000000 Ga
   0.8696741000000000    0.9623259100000000    0.8959661400000000 Ga
   0.9846027000000001    0.2246931000000000    0.7650517700000000 Ga
   0.0153973000000000    0.7246931000000000    0.7349482300000000 Ga
   0.1303259000000000    0.4623259100000000    0.6040338600000000 Ga
   0.0153973000000000    0.7753069000000000    0.2349482300000000 Ga
   0.1422830600000000    0.7073915300000000    0.0038824000000000 S
   0.0464345000000000    0.4488812400000000    0.2886424000000000 S
   0.8577169400000000    0.2926084700000000    0.9961176000000000 S
   0.4386719100000000    0.8012902500000000    0.7335485200000000 S
   0.5613280899999999    0.3012902500000000    0.7664514800000000 S
   0.4386719100000000    0.6987097500000000    0.2335485200000000 S
   0.8577169400000000    0.2073915300000000    0.4961176000000000 S
   0.1422830600000000    0.7926084700000000    0.5038824000000000 S
   0.6796068100000000    0.0339073500000000    0.8702470700000000 S
   0.6796068100000000    0.4660926500000000    0.3702470700000000 S
   0.3203931900000000    0.9660926500000000    0.1297529300000000 S
   0.9535655000000000    0.5511187600000000    0.7113576000000000 S
   0.0464345000000000    0.0511187600000000    0.7886424000000000 S
   0.9535655000000000    0.9488812400000000    0.2113576000000000 S
   0.5613280899999999    0.1987097500000000    0.2664514800000000 S
   0.1658856300000000    0.1902431200000000    0.2547469500000000 S
   0.1658856300000000    0.3097568800000000    0.7547469500000000 S
   0.8341143700000000    0.6902431200000000    0.2452530500000000 S
   0.8341143700000000    0.8097568800000000    0.7452530500000000 S
   0.3203931900000000    0.5339073500000000    0.6297529300000000 S
