La6 Mg2 Al2 S14
1.0
  10.1351487599999999   -0.0000003700000000    0.0000000000000000
  -5.0675740600000001    8.7772969300000003    0.0000000000000000
   0.0000000000000000    0.0000000000000000    5.9809915199999999
La Mg Al S
6 2 2 14
direct
   0.1389314900000000    0.3748784600000000    0.7323823400000000 La
   0.2359469700000000    0.8610685100000000    0.7323823400000000 La
   0.6251215400000000    0.7640530300000000    0.7323823400000000 La
   0.8610685100000000    0.6251215400000000    0.2323823400000000 La
   0.7640530300000000    0.1389314900000000    0.2323823400000000 La
   0.3748784600000000    0.2359469700000000    0.2323823400000000 La
   0.0000000000000000    0.0000000000000000    0.5094690600000000 Mg
   0.0000000000000000    0.0000000000000000    0.0094690600000000 Mg
   0.3333330000000000    0.6666670000000000    0.1507751900000000 Al
   0.6666670000000000    0.3333330000000000    0.6507751899999999 Al
   0.0889174300000000    0.2378549000000000    0.2636526800000000 S
   0.1489374700000000    0.9110825700000000    0.2636526800000000 S
   0.7621451000000000    0.8510625300000000    0.2636526800000000 S
   0.9110825700000000    0.7621451000000000    0.7636526800000000 S
   0.8510625300000000    0.0889174300000000    0.7636526800000000 S
   0.2378549000000000    0.1489374700000000    0.7636526800000000 S
   0.4180406100000000    0.5175872800000000    0.0040883400000000 S
   0.0995476700000000    0.5819593900000000    0.0040883400000000 S
   0.4824127200000000    0.9004523300000000    0.0040883400000000 S
   0.5819593900000000    0.4824127200000000    0.5040883400000000 S
   0.9004523300000000    0.4180406100000000    0.5040883400000000 S
   0.5175872800000000    0.0995476700000000    0.5040883400000000 S
   0.3333330000000000    0.6666670000000000    0.5214236700000000 S
   0.6666670000000000    0.3333330000000000    0.0214236700000000 S
