Zr2 Tl4 S6
1.0
   7.8039092500000002    0.0000000000000000    0.0116742800000000
   0.0000000000000000    3.7684378399999998    0.0000000000000000
  -1.2480083900000001    0.0000000000000000   10.1380033699999998
Zr Tl S
2 4 6
direct
   0.4145349800000000    0.7500000000000000    0.3364080600000000 Zr
   0.5854650200000000    0.2500000000000000    0.6635919400000000 Zr
   0.0632315800000000    0.7500000000000000    0.6614745100000000 Tl
   0.9367684200000000    0.2500000000000000    0.3385254900000000 Tl
   0.7513400200000000    0.7500000000000000    0.0000391500000000 Tl
   0.2486599800000000    0.2500000000000000    0.9999608500000000 Tl
   0.1325470100000000    0.7500000000000000    0.1916581800000000 S
   0.8674529900000000    0.2500000000000000    0.8083418200000000 S
   0.4515734000000000    0.7500000000000000    0.7890081400000000 S
   0.5484266000000000    0.2500000000000000    0.2109918600000000 S
   0.6926053300000000    0.7500000000000000    0.5143140100000000 S
   0.3073946700000000    0.2500000000000000    0.4856859900000000 S
