Ba2 Cd1 B6 O12
1.0
   3.5770493399999999    2.0652102900000000    5.7485358099999999
  -3.5770492800000002    2.0652103799999999    5.7485358099999999
  -0.0000000600000000   -4.1304206700000003    5.7485358099999999
Ba Cd B O
2 1 6 12
direct
   0.7914786200000000    0.7914786200000000    0.7914786200000000 Ba
   0.2085213800000000    0.2085213800000000    0.2085213800000000 Ba
   0.0000000000000000    0.0000000000000000    0.0000000000000000 Cd
   0.6330202600000000    0.7572871100000000    0.3660409000000000 B
   0.7572871100000000    0.3660409000000000    0.6330202600000000 B
   0.3660409000000000    0.6330202600000000    0.7572871100000000 B
   0.3669797400000000    0.2427128900000000    0.6339591000000000 B
   0.2427128900000000    0.6339591000000000    0.3669797400000000 B
   0.6339591000000000    0.3669797400000000    0.2427128900000000 B
   0.6639917500000000    0.9176209800000000    0.1602416500000000 O
   0.9176209800000000    0.1602416500000000    0.6639917500000000 O
   0.1602416500000000    0.6639917500000000    0.9176209800000000 O
   0.3360082500000000    0.0823790200000000    0.8397583500000000 O
   0.0823790200000000    0.8397583500000000    0.3360082500000000 O
   0.8397583500000000    0.3360082500000000    0.0823790200000000 O
   0.4205740900000000    0.7993513799999999    0.5418245600000000 O
   0.7993513799999999    0.5418245600000000    0.4205740900000000 O
   0.5418245600000000    0.4205740900000000    0.7993513799999999 O
   0.5794259100000000    0.2006486200000000    0.4581754400000000 O
   0.2006486200000000    0.4581754400000000    0.5794259100000000 O
   0.4581754400000000    0.5794259100000000    0.2006486200000000 O
