Hf4 P4 O18
1.0
   6.8935295200000004   -3.3147567100000002    0.0136903700000000
   6.8935295200000004    3.3147567100000002    0.0136903700000000
  -6.7459767800000003    0.0000000000000000    7.5403580300000002
Hf P O
4 4 18
direct
   0.3167978800000000    0.3167978800000000    0.3664535700000000 Hf
   0.6832021200000000    0.6832021200000000    0.6335464300000000 Hf
   0.0581799800000000    0.0581799800000000    0.9040109100000000 Hf
   0.9418200200000000    0.9418200200000000    0.0959890900000000 Hf
   0.4079013700000000    0.4079013700000000    0.1638332000000000 P
   0.8305321400000000    0.8305321400000000    0.4571532200000000 P
   0.5920986300000000    0.5920986300000000    0.8361668000000000 P
   0.1694678600000000    0.1694678600000000    0.5428467800000000 P
   0.4848493900000000    0.4848493900000000    0.3672315000000000 O
   0.7267699600000000    0.7267699600000000    0.4735743900000000 O
   0.2676214700000000    0.2676214700000000    0.0974124700000000 O
   0.2732300400000000    0.2732300400000000    0.5264256100000000 O
   0.3738328000000000    0.9954188200000000    0.6429659100000000 O
   0.7579979300000000    0.3813109800000000    0.8972764200000000 O
   0.6186890200000000    0.2420020700000000    0.1027235800000000 O
   0.8851123100000000    0.8851123100000000    0.8437091100000000 O
   0.6261672000000000    0.0045811800000000    0.3570340900000000 O
   0.9677377400000000    0.9677377400000000    0.6429040700000000 O
   0.5151506100000000    0.5151506100000000    0.6327685000000000 O
   0.7323785300000000    0.7323785300000000    0.9025875300000000 O
   0.3813109800000000    0.7579979300000000    0.8972764200000000 O
   0.0322622600000000    0.0322622600000000    0.3570959300000000 O
   0.2420020700000000    0.6186890200000000    0.1027235800000000 O
   0.0045811800000000    0.6261672000000000    0.3570340900000000 O
   0.1148876900000000    0.1148876900000000    0.1562908900000000 O
   0.9954188200000000    0.3738328000000000    0.6429659100000000 O
