Ba4 Cu8 Se8
1.0
   9.4425780300000000    0.0000000000000000    0.0000000000000000
   0.0000000000000000    4.1642638200000004    0.0000000000000000
   0.0000000000000000    0.0000000000000000   10.6672653700000009
Ba Cu Se
4 8 8
direct
   0.7585858400000000    0.7500000000000000    0.1764386900000000 Ba
   0.2414141600000000    0.2500000000000000    0.8235613100000000 Ba
   0.2585858400000000    0.7500000000000000    0.3235613100000000 Ba
   0.7414141600000000    0.2500000000000000    0.6764386900000000 Ba
   0.0792109400000000    0.2500000000000000    0.5440044800000000 Cu
   0.9207890600000000    0.7500000000000000    0.4559955200000000 Cu
   0.4207890600000000    0.7500000000000000    0.0440044800000000 Cu
   0.5792109400000000    0.2500000000000000    0.9559955200000000 Cu
   0.9471273500000000    0.7500000000000000    0.8892274200000000 Cu
   0.0528726500000000    0.2500000000000000    0.1107725800000000 Cu
   0.4471273500000000    0.7500000000000000    0.6107725800000000 Cu
   0.5528726500000000    0.2500000000000000    0.3892274200000000 Cu
   0.8417418500000000    0.2500000000000000    0.9606277700000000 Se
   0.1582581500000000    0.7500000000000000    0.0393722300000000 Se
   0.6582581500000000    0.7500000000000000    0.4606277700000000 Se
   0.3417418500000000    0.2500000000000000    0.5393722300000000 Se
   0.5213703500000000    0.7500000000000000    0.8315672300000000 Se
   0.4786296500000000    0.2500000000000000    0.1684327700000000 Se
   0.0213703500000000    0.7500000000000000    0.6684327700000000 Se
   0.9786296500000000    0.2500000000000000    0.3315672300000000 Se
