Li2 Y2 Mo4 O16
1.0
   5.1309820000000004    0.0000000000000000    0.0000000000000000
  -2.5418970000000001    6.1472040000000003    0.0000000000000000
  -1.0787220000000000   -3.0537000000000001    9.8010560000000009
Li Y Mo O
2 2 4 16
direct
   0.1889830000000000    0.2264800000000000    0.8743830000000000 Li
   0.8110170000000000    0.7735200000000000    0.1256170000000000 Li
   0.8142509999999999    0.6742990000000000    0.4396470000000000 Y
   0.1857490000000000    0.3257010000000000    0.5603530000000000 Y
   0.0833900000000000    0.3611100000000000    0.2050650000000000 Mo
   0.9166100000000000    0.6388900000000000    0.7949349999999999 Mo
   0.5239290000000000    0.9692090000000000    0.6854870000000000 Mo
   0.4760710000000000    0.0307910000000000    0.3145130000000000 Mo
   0.5631170000000000    0.7894820000000000    0.2906510000000000 O
   0.6594590000000000    0.5912430000000000    0.6360050000000000 O
   0.2408680000000000    0.3817210000000000    0.0648570000000000 O
   0.4368830000000000    0.2105180000000000    0.7093490000000000 O
   0.0698770000000000    0.4319320000000000    0.7660570000000000 O
   0.7591320000000000    0.6182790000000000    0.9351429999999999 O
   0.3405410000000000    0.4087570000000000    0.3639950000000000 O
   0.2102400000000000    0.6964410000000000    0.5857860000000000 O
   0.7765830000000000    0.0017010000000000    0.5680580000000000 O
   0.2540260000000000    0.0047430000000000    0.1665590000000000 O
   0.2234170000000000    0.9982990000000000    0.4319420000000000 O
   0.7897600000000000    0.3035590000000000    0.4142140000000000 O
   0.2108450000000000    0.9115610000000000    0.8376960000000000 O
   0.9301230000000000    0.5680680000000000    0.2339430000000000 O
   0.7891550000000001    0.0884390000000000    0.1623040000000000 O
   0.7459740000000000    0.9952569999999999    0.8334410000000000 O
