Li14 P2 N6 O3
1.0
   5.6512666200000004    0.0000000300000000    0.0000000000000000
  -2.8256333400000000    4.8941401700000000    0.0000000000000000
   0.0000000000000000    0.0000000000000000    7.9773079999999998
Li P N O
14 2 6 3
direct
   0.3785572100000000    0.0820707700000000    0.0911268800000000 Li
   0.7035135600000000    0.6214427900000000    0.0911268800000000 Li
   0.9179292300000000    0.2964864400000000    0.0911268800000000 Li
   0.6214427900000000    0.9179292300000000    0.9088731200000000 Li
   0.2964864400000000    0.3785572100000000    0.9088731200000000 Li
   0.0820707700000000    0.7035135600000000    0.9088731200000000 Li
   0.0474322100000000    0.3534895300000000    0.5897958000000000 Li
   0.3060573200000000    0.9525677900000000    0.5897958000000000 Li
   0.6465104699999999    0.6939426800000000    0.5897958000000000 Li
   0.9525677900000000    0.6465104699999999    0.4102042000000000 Li
   0.6939426800000000    0.0474322100000000    0.4102042000000000 Li
   0.3534895300000000    0.3060573200000000    0.4102042000000000 Li
   0.0000000000000000    0.0000000000000000    0.2486258700000000 Li
   0.0000000000000000    0.0000000000000000    0.7513741300000000 Li
   0.6666670000000000    0.3333330000000000    0.7724912600000000 P
   0.3333330000000000    0.6666670000000000    0.2275087400000000 P
   0.3755011000000000    0.0700878200000000    0.8256098300000000 N
   0.6945867200000000    0.6244989000000000    0.8256098300000000 N
   0.9299121800000000    0.3054132800000000    0.8256098300000000 N
   0.6244989000000000    0.9299121800000000    0.1743901700000000 N
   0.3054132800000000    0.3755011000000000    0.1743901700000000 N
   0.0700878200000000    0.6945867200000000    0.1743901700000000 N
   0.6666670000000000    0.3333330000000000    0.5530330000000000 O
   0.3333330000000000    0.6666670000000000    0.4469670000000000 O
   0.0000000000000000    0.0000000000000000    0.5000000000000000 O
