Na8 Te4 O16
1.0
   5.7169342600000004    0.0000000000000000    0.0000000000000000
   0.0000000000000000   12.0807037299999998    0.0000000000000000
   0.0000000000000000    0.0000000000000000    5.2252492100000003
Na Te O
8 4 16
direct
   0.0000000000000000    0.6418795500000000    0.7500000000000000 Na
   0.5000000000000000    0.8581204500000000    0.2500000000000000 Na
   0.0000000000000000    0.3581204500000000    0.2500000000000000 Na
   0.5000000000000000    0.1418795500000000    0.7500000000000000 Na
   0.0000000000000000    0.2241742200000000    0.7500000000000000 Na
   0.5000000000000000    0.2758257800000000    0.2500000000000000 Na
   0.0000000000000000    0.7758257800000000    0.2500000000000000 Na
   0.5000000000000000    0.7241742200000000    0.7500000000000000 Na
   0.0000000000000000    0.9274730799999999    0.7500000000000000 Te
   0.5000000000000000    0.5725269200000001    0.2500000000000000 Te
   0.0000000000000000    0.0725269200000000    0.2500000000000000 Te
   0.5000000000000000    0.4274730800000000    0.7500000000000000 Te
   0.2967733300000000    0.6765855200000001    0.1090360400000000 O
   0.2032266700000000    0.8234144799999999    0.6090360400000000 O
   0.7967733299999999    0.8234144799999999    0.8909639600000000 O
   0.7032266700000001    0.6765855200000001    0.3909639600000000 O
   0.7032266700000001    0.3234144800000000    0.8909639600000000 O
   0.7967733299999999    0.1765855200000000    0.3909639600000000 O
   0.2032266700000000    0.1765855200000000    0.1090360400000000 O
   0.2967733300000000    0.3234144800000000    0.6090360400000000 O
   0.3181940300000000    0.4487971200000000    0.0724982900000000 O
   0.1818059700000000    0.0512028800000000    0.5724982900000000 O
   0.8181940300000000    0.0512028800000000    0.9275017100000000 O
   0.6818059700000000    0.4487971200000000    0.4275017100000000 O
   0.3181940300000000    0.5512028800000000    0.5724982900000000 O
   0.1818059700000000    0.9487971200000000    0.0724982900000000 O
   0.8181940300000000    0.9487971200000000    0.4275017100000000 O
   0.6818059700000000    0.5512028800000000    0.9275017100000000 O
