Cs4 Au4 O4
1.0
  -5.0391325599999996    5.0391325599999996    3.0769309699999998
   5.0391325599999996   -5.0391325599999996    3.0769309699999998
   5.0391325599999996    5.0391325599999996   -3.0769309699999998
Cs Au O
4 4 4
direct
   0.5000000000000000    0.7997659300000000    0.2997659300000000 Cs
   0.7997659300000000    0.5000000000000000    0.2997659300000000 Cs
   0.2002340700000000    0.5000000000000000    0.7002340700000000 Cs
   0.5000000000000000    0.2002340700000000    0.7002340700000000 Cs
   0.1455591300000000    0.1455591300000000    0.2911182600000000 Au
   0.1455591300000000    0.8544408700000000    0.0000000000000000 Au
   0.8544408700000000    0.1455591300000000    0.0000000000000000 Au
   0.8544408700000000    0.8544408700000000    0.7088817400000000 Au
   0.0000000000000000    0.2829067400000000    0.2829067400000000 O
   0.2829067400000000    0.0000000000000000    0.2829067400000000 O
   0.7170932600000000    0.0000000000000000    0.7170932600000000 O
   0.0000000000000000    0.7170932600000000    0.7170932600000000 O
