Cd4 P6 S1 N12
1.0
  -4.2426659799999999    4.2426659799999999    4.2426659799999999
   4.2426659799999999   -4.2426659799999999    4.2426659799999999
   4.2426659799999999    4.2426659799999999   -4.2426659799999999
Cd P S N
4 6 1 12
direct
   0.6653209200000000    0.0000000000000000    0.0000000000000000 Cd
   0.0000000000000000    0.0000000000000000    0.6653209200000000 Cd
   0.0000000000000000    0.6653209200000000    0.0000000000000000 Cd
   0.3346790800000000    0.3346790800000000    0.3346790800000000 Cd
   0.2500000000000000    0.7500000000000000    0.5000000000000000 P
   0.7500000000000000    0.2500000000000000    0.5000000000000000 P
   0.7500000000000000    0.5000000000000000    0.2500000000000000 P
   0.2500000000000000    0.5000000000000000    0.7500000000000000 P
   0.5000000000000000    0.7500000000000000    0.2500000000000000 P
   0.5000000000000000    0.2500000000000000    0.7500000000000000 P
   0.0000000000000000    0.0000000000000000    0.0000000000000000 S
   0.7111419400000000    0.2832355400000000    0.2832355400000000 N
   0.2832355400000000    0.7111419400000000    0.2832355400000000 N
   0.2888580600000000    0.5720936000000000    0.5720936000000000 N
   0.5720936000000000    0.5720936000000000    0.2888580600000000 N
   0.4279064000000000    0.7167644600000000    0.0000000000000000 N
   0.0000000000000000    0.7167644600000000    0.4279064000000000 N
   0.5720936000000000    0.2888580600000000    0.5720936000000000 N
   0.7167644600000000    0.0000000000000000    0.4279064000000000 N
   0.4279064000000000    0.0000000000000000    0.7167644600000000 N
   0.7167644600000000    0.4279064000000000    0.0000000000000000 N
   0.2832355400000000    0.2832355400000000    0.7111419400000000 N
   0.0000000000000000    0.4279064000000000    0.7167644600000000 N
