Ba6 Bi4 Te2 O18
1.0
   6.2008958500000002    0.0000000000000000    0.0000000000000000
  -3.1004479200000001    5.3701333599999996    0.0000000000000000
   0.0000000000000000    0.0000000000000000   14.7630993099999994
Ba Bi Te O
6 4 2 18
direct
   0.3333330000000000    0.6666670000000000    0.0839365100000000 Ba
   0.6666670000000000    0.3333330000000000    0.9160634900000000 Ba
   0.3333330000000000    0.6666670000000000    0.5839365100000000 Ba
   0.6666670000000000    0.3333330000000000    0.4160634900000000 Ba
   0.0000000000000000    0.0000000000000000    0.2500000000000000 Ba
   0.0000000000000000    0.0000000000000000    0.7500000000000000 Ba
   0.3333330000000000    0.6666670000000000    0.8343145600000000 Bi
   0.6666670000000000    0.3333330000000000    0.1656854400000000 Bi
   0.3333330000000000    0.6666670000000000    0.3343145600000000 Bi
   0.6666670000000000    0.3333330000000000    0.6656854400000000 Bi
   0.0000000000000000    0.0000000000000000    0.0000000000000000 Te
   0.0000000000000000    0.0000000000000000    0.5000000000000000 Te
   0.9219333300000000    0.7111433400000000    0.5758669900000000 O
   1.0000000000000000    0.5575293900000000    0.2500000000000000 O
   0.2107899900000000    0.2888566600000000    0.9241330100000000 O
   0.9219333300000000    0.2107899900000000    0.0758669900000000 O
   0.7892100100000000    0.0780666700000000    0.5758669900000000 O
   0.7892100100000000    0.7111433400000000    0.0758669900000000 O
   0.7111433400000000    0.7892100100000000    0.4241330100000000 O
   0.4424706100000000    0.0000000000000000    0.7500000000000000 O
   0.5575293900000000    0.5575293900000000    0.7500000000000000 O
   0.2888566600000000    0.2107899900000000    0.5758669900000000 O
   0.0780666700000000    0.2888566600000000    0.4241330100000000 O
   0.2107899900000000    0.9219333300000000    0.4241330100000000 O
   0.2888566600000000    0.0780666700000000    0.0758669900000000 O
   0.5575293900000000    0.0000000000000000    0.2500000000000000 O
   0.4424706100000000    0.4424706100000000    0.2500000000000000 O
   0.0000000000000000    0.4424706100000000    0.7500000000000000 O
   0.0780666700000000    0.7892100100000000    0.9241330100000000 O
   0.7111433400000000    0.9219333300000000    0.9241330100000000 O
