Li2 Sc2 O4
1.0
  -2.0831819000000000    2.0831819000000000    4.5832096800000004
   2.0831819000000000   -2.0831819000000000    4.5832096800000004
   2.0831819000000000    2.0831819000000000   -4.5832096800000004
Li Sc O
2 2 4
direct
   0.0000000000000000    0.0000000000000000    0.0000000000000000 Li
   0.7500000000000000    0.2500000000000000    0.5000000000000000 Li
   0.2500000000000000    0.7500000000000000    0.5000000000000000 Sc
   0.5000000000000000    0.5000000000000000    0.0000000000000000 Sc
   0.2702211600000000    0.2702211600000000    0.0000000000000000 O
   0.0202211600000000    0.5202211600000000    0.5000000000000000 O
   0.7297788400000000    0.7297788400000000    0.0000000000000000 O
   0.4797788400000000    0.9797788400000000    0.5000000000000000 O
