Cs8 S4 O16
1.0
   8.2047223000000002    0.0000000000000000    0.0000000000000000
   0.0000000000000000    6.2031369600000001    0.0000000000000000
   0.0000000000000000    0.0000000000000000   10.8712616900000008
Cs S O
8 4 16
direct
   0.3277359300000000    0.7500000000000000    0.5908334400000000 Cs
   0.6722640700000000    0.2500000000000000    0.4091665600000000 Cs
   0.8277359300000000    0.7500000000000000    0.9091665600000000 Cs
   0.1722640700000000    0.2500000000000000    0.0908334400000000 Cs
   0.9882518100000000    0.2500000000000000    0.6980775800000000 Cs
   0.0117481900000000    0.7500000000000000    0.3019224200000000 Cs
   0.4882518100000000    0.2500000000000000    0.8019224200000000 Cs
   0.5117481900000000    0.7500000000000000    0.1980775800000000 Cs
   0.7602016200000000    0.7500000000000000    0.5828139500000000 S
   0.2397983800000000    0.2500000000000000    0.4171860500000000 S
   0.2602016200000000    0.7500000000000000    0.9171860500000000 S
   0.7397983800000000    0.2500000000000000    0.0828139500000000 S
   0.9413592200000001    0.7500000000000000    0.5877455600000000 O
   0.0586407800000000    0.2500000000000000    0.4122544400000000 O
   0.4413592200000000    0.7500000000000000    0.9122544400000000 O
   0.5586407799999999    0.2500000000000000    0.0877455600000000 O
   0.7027479900000000    0.7500000000000000    0.4521318300000000 O
   0.2972520100000000    0.2500000000000000    0.5478681700000000 O
   0.2027479900000000    0.7500000000000000    0.0478681700000000 O
   0.7972520100000000    0.2500000000000000    0.9521318300000000 O
   0.6956583300000000    0.9465063800000000    0.6456851100000000 O
   0.3043416700000000    0.4465063800000000    0.3543148900000000 O
   0.1956583300000000    0.5534936200000000    0.8543148900000000 O
   0.8043416700000000    0.0534936200000000    0.1456851100000000 O
   0.3043416700000000    0.0534936200000000    0.3543148900000000 O
   0.6956583300000000    0.5534936200000000    0.6456851100000000 O
   0.8043416700000000    0.4465063800000000    0.1456851100000000 O
   0.1956583300000000    0.9465063800000000    0.8543148900000000 O
