Rb2 Li2 Mo2 O8
1.0
   4.8603759799999997   -2.8326638700000002   -0.0255959300000000
   4.8603759799999997    2.8326638700000002   -0.0255959300000000
  -3.5957113399999998    0.0000000000000000    9.3812384800000004
Rb Li Mo O
2 2 2 8
direct
   0.5311713400000000    0.9614346499999999    0.4987310500000000 Rb
   0.9614346499999999    0.5311713400000000    0.9987310500000000 Rb
   0.3845947100000000    0.8677228200000000    0.1281630900000000 Li
   0.8677228200000000    0.3845947100000000    0.6281630900000000 Li
   0.2522580800000000    0.7490792300000000    0.7517362000000000 Mo
   0.7490792300000000    0.2522580800000000    0.2517362000000000 Mo
   0.0904215600000000    0.9922751700000000    0.2260603000000000 O
   0.3002519400000000    0.7137413400000000    0.9300774400000000 O
   0.6936043500000000    0.5741492900000000    0.2214561000000000 O
   0.5741492900000000    0.6936043500000000    0.7214561000000000 O
   0.7137413400000000    0.3002519400000000    0.4300774400000000 O
   0.1395163100000000    0.4999812100000000    0.6287768100000000 O
   0.4999812100000000    0.1395163100000000    0.1287768100000000 O
   0.9922751700000000    0.0904215600000000    0.7260603000000000 O
