Sr3 Ta2 Zn1 O9
1.0
   5.6436194600000000    0.0000000000000000    0.0000000000000000
  -2.8218102300000001    4.8875177000000001    0.0000000000000000
   0.0000000000000000    0.0000000000000000    6.9559517499999997
Sr Ta Zn O
3 2 1 9
direct
   0.0000000000000000    0.0000000000000000    0.0000000000000000 Sr
   0.6666670000000000    0.3333330000000000    0.3445028300000000 Sr
   0.3333330000000000    0.6666670000000000    0.6554971700000000 Sr
   0.6666670000000000    0.3333330000000000    0.8230369199999999 Ta
   0.3333330000000000    0.6666670000000000    0.1769630800000000 Ta
   0.0000000000000000    0.0000000000000000    0.5000000000000000 Zn
   0.5000000000000000    0.0000000000000000    0.0000000000000000 O
   0.5000000000000000    0.5000000000000000    0.0000000000000000 O
   0.0000000000000000    0.5000000000000000    0.0000000000000000 O
   0.8316372600000000    0.6632755200000000    0.6710825600000000 O
   0.8316372600000000    0.1683627400000000    0.6710825600000000 O
   0.3367244800000000    0.1683627400000000    0.6710825600000000 O
   0.1683627400000000    0.3367244800000000    0.3289174400000000 O
   0.1683627400000000    0.8316372600000000    0.3289174400000000 O
   0.6632755200000000    0.8316372600000000    0.3289174400000000 O
