Ti2 P4 Pb2 O16
1.0
   8.3049457899999997   -2.6026311899999999   -0.0177664500000000
   8.3049457899999997    2.6026311899999999   -0.0177664500000000
  -3.6593540899999999    0.0000000000000000    7.3621952799999999
Ti P Pb O
2 4 2 16
direct
   0.0000000000000000    0.5000000000000000    0.0000000000000000 Ti
   0.5000000000000000    0.0000000000000000    0.5000000000000000 Ti
   0.3788839300000000    0.9062692600000000    0.7576200199999999 P
   0.0937307400000000    0.6211160700000000    0.7423799800000001 P
   0.6211160700000000    0.0937307400000000    0.2423799800000000 P
   0.9062692600000000    0.3788839300000000    0.2576200200000000 P
   0.3426888800000000    0.6573111200000000    0.2500000000000000 Pb
   0.6573111200000000    0.3426888800000000    0.7500000000000000 Pb
   0.6202640500000000    0.7119383400000000    0.9033783700000000 O
   0.2880616600000000    0.3797359500000000    0.5966216300000000 O
   0.3797359500000000    0.2880616600000000    0.0966216300000000 O
   0.7119383400000000    0.6202640500000000    0.4033783700000000 O
   0.3403453400000000    0.7564463500000000    0.6077825300000000 O
   0.2435536500000000    0.6596546599999999    0.8922174700000000 O
   0.6596546599999999    0.2435536500000000    0.3922174700000000 O
   0.7564463500000000    0.3403453400000000    0.1077825300000000 O
   0.1182528300000000    0.1706556800000000    0.8502066100000000 O
   0.8293443200000000    0.8817471700000000    0.6497933900000000 O
   0.8817471700000000    0.8293443200000000    0.1497933900000000 O
   0.1706556800000000    0.1182528300000000    0.3502066100000000 O
   0.4451044800000000    0.9877031800000000    0.6935585900000000 O
   0.0122968200000000    0.5548955200000000    0.8064414100000000 O
   0.5548955200000000    0.0122968200000000    0.3064414100000000 O
   0.9877031800000000    0.4451044800000000    0.1935585900000000 O
