Na2 V6 Pb8 O24
1.0
   9.9295231899999994    0.0000218700000000    0.0000000000000000
  -4.9647800699999998    8.5992080600000005    0.0000000000000000
   0.0000000000000000    0.0000000000000000    7.2939341400000002
Na V Pb O
2 6 8 24
direct
   0.6666670000000000    0.3333330000000000    0.4984862400000000 Na
   0.3333330000000000    0.6666670000000000    0.9984862400000000 Na
   0.6244925700000000    0.0196341000000000    0.2507399800000000 V
   0.3951415300000000    0.3755074300000000    0.2507399800000000 V
   0.9803659000000000    0.6048584700000000    0.2507399800000000 V
   0.3755074300000000    0.9803659000000000    0.7507399800000000 V
   0.6048584700000000    0.6244925700000000    0.7507399800000000 V
   0.0196341000000000    0.3951415300000000    0.7507399800000000 V
   0.7491318300000001    0.7505871200000001    0.2567013600000000 Pb
   0.0014553000000000    0.2508681700000000    0.2567013600000000 Pb
   0.2494128800000000    0.9985447000000000    0.2567013600000000 Pb
   0.2508681700000000    0.2494128800000000    0.7567013600000000 Pb
   0.9985447000000000    0.7491318300000001    0.7567013600000000 Pb
   0.7505871200000001    0.0014553000000000    0.7567013600000000 Pb
   0.3333330000000000    0.6666670000000000    0.4793526100000000 Pb
   0.6666670000000000    0.3333330000000000    0.9793526100000000 Pb
   0.9013782500000000    0.6420362600000000    0.0599389600000000 O
   0.7406580100000000    0.0986217500000000    0.0599389600000000 O
   0.3579637400000000    0.2593419900000000    0.0599389600000000 O
   0.0986217500000000    0.3579637400000000    0.5599389600000000 O
   0.2593419900000000    0.9013782500000000    0.5599389600000000 O
   0.6420362600000000    0.7406580100000000    0.5599389600000000 O
   0.0737502800000000    0.3181381500000000    0.9284839300000000 O
   0.2443878700000000    0.9262497200000001    0.9284839300000000 O
   0.6818618500000000    0.7556121300000000    0.9284839300000000 O
   0.9262497200000001    0.6818618500000000    0.4284839300000000 O
   0.7556121300000000    0.0737502800000000    0.4284839300000000 O
   0.3181381500000000    0.2443878700000000    0.4284839300000000 O
   0.5966142400000000    0.4889873400000000    0.2717435600000000 O
   0.8923731000000000    0.4033857600000000    0.2717435600000000 O
   0.5110126600000000    0.1076269000000000    0.2717435600000000 O
   0.4033857600000000    0.5110126600000000    0.7717435600000000 O
   0.1076269000000000    0.5966142400000000    0.7717435600000000 O
   0.4889873400000000    0.8923731000000000    0.7717435600000000 O
   0.5174629200000000    0.8193402400000001    0.2397192700000000 O
   0.3018763200000000    0.4825370800000000    0.2397192700000000 O
   0.1806597600000000    0.6981236800000000    0.2397192700000000 O
   0.4825370800000000    0.1806597600000000    0.7397192700000000 O
   0.6981236800000000    0.5174629200000000    0.7397192700000000 O
   0.8193402400000001    0.3018763200000000    0.7397192700000000 O
