Al1 Tl1 Mo2 O8
1.0
   5.5928917499999997    0.0000000000000000    0.0000000000000000
  -2.7964458799999998    4.8435866200000000    0.0000000000000000
   0.0000000000000000    0.0000000000000000    7.2809803500000001
Al Tl Mo O
1 1 2 8
direct
   0.0000000000000000    0.0000000000000000    0.0000000000000000 Al
   0.0000000000000000    0.0000000000000000    0.5000000000000000 Tl
   0.6666670000000000    0.3333330000000000    0.2295218600000000 Mo
   0.3333330000000000    0.6666670000000000    0.7704781400000000 Mo
   0.8430599500000000    0.1569400500000000    0.1535073200000000 O
   0.8430599500000000    0.6861199000000000    0.1535073200000000 O
   0.3138801000000000    0.1569400500000000    0.1535073200000000 O
   0.6861199000000000    0.8430599500000000    0.8464926800000000 O
   0.3333330000000000    0.6666670000000000    0.5310085500000000 O
   0.6666670000000000    0.3333330000000000    0.4689914500000000 O
   0.1569400500000000    0.8430599500000000    0.8464926800000000 O
   0.1569400500000000    0.3138801000000000    0.8464926800000000 O
