Rb4 Ti2 Cu4 S8
1.0
   5.5757289099999996    0.0000000000000000    0.0000000000000000
   0.0000000000000000    5.5757289099999996    0.0000000000000000
   0.0000000000000000    0.0000000000000000   13.0500407400000000
Rb Ti Cu S
4 2 4 8
direct
   0.7597962100000000    0.7597962100000000    0.0000000000000000 Rb
   0.2402037900000000    0.7597962100000000    0.5000000000000000 Rb
   0.7597962100000000    0.2402037900000000    0.5000000000000000 Rb
   0.2402037900000000    0.2402037900000000    0.0000000000000000 Rb
   0.5000000000000000    0.5000000000000000    0.7500000000000000 Ti
   0.5000000000000000    0.5000000000000000    0.2500000000000000 Ti
   0.0000000000000000    0.5000000000000000    0.7500000000000000 Cu
   0.5000000000000000    0.0000000000000000    0.7500000000000000 Cu
   0.0000000000000000    0.5000000000000000    0.2500000000000000 Cu
   0.5000000000000000    0.0000000000000000    0.2500000000000000 Cu
   0.7423659800000000    0.7423659800000000    0.6532811700000000 S
   0.2576340200000000    0.2576340200000000    0.6532811700000000 S
   0.7423659800000000    0.7423659800000000    0.3467188300000000 S
   0.7423659800000000    0.2576340200000000    0.1532811700000000 S
   0.2576340200000000    0.7423659800000000    0.8467188300000000 S
   0.2576340200000000    0.2576340200000000    0.3467188300000000 S
   0.2576340200000000    0.7423659800000000    0.1532811700000000 S
   0.7423659800000000    0.2576340200000000    0.8467188300000000 S
