Zr2 S6
1.0
   5.0990829700000004    0.0000000000000000    0.0090436600000000
   0.0000000000000000    3.6522247999999999    0.0000000000000000
  -1.1842201200000000    0.0000000000000000    9.0045248000000004
Zr S
2 6
direct
   0.2852269300000000    0.2500000000000000    0.6539474700000000 Zr
   0.7147730700000000    0.7500000000000000    0.3460525300000000 Zr
   0.1217442700000000    0.7500000000000000    0.8286045100000000 S
   0.8782557300000000    0.2500000000000000    0.1713954900000000 S
   0.5301575700000000    0.7500000000000000    0.8279808000000000 S
   0.4698424300000000    0.2500000000000000    0.1720192000000000 S
   0.2375093400000000    0.7500000000000000    0.4456265700000000 S
   0.7624906600000000    0.2500000000000000    0.5543734299999999 S
