Al4 Zn2 O8
1.0
   0.0000000000000000    4.0240128799999999    4.0240128799999999
   4.0240128799999999    0.0000000000000000    4.0240128799999999
   4.0240128799999999    4.0240128799999999    0.0000000000000000
Al Zn O
4 2 8
direct
   0.1250000000000000    0.6250000000000000    0.6250000000000000 Al
   0.6250000000000000    0.1250000000000000    0.6250000000000000 Al
   0.6250000000000000    0.6250000000000000    0.1250000000000000 Al
   0.6250000000000000    0.6250000000000000    0.6250000000000000 Al
   0.2500000000000000    0.2500000000000000    0.2500000000000000 Zn
   0.0000000000000000    0.0000000000000000    0.0000000000000000 Zn
   0.8365478600000000    0.3878173800000000    0.3878173800000000 O
   0.3878173800000000    0.8365478600000000    0.3878173800000000 O
   0.3878173800000000    0.3878173800000000    0.8365478600000000 O
   0.3878173800000000    0.3878173800000000    0.3878173800000000 O
   0.4134521400000000    0.8621826200000000    0.8621826200000000 O
   0.8621826200000000    0.4134521400000000    0.8621826200000000 O
   0.8621826200000000    0.8621826200000000    0.4134521400000000 O
   0.8621826200000000    0.8621826200000000    0.8621826200000000 O
