Li4 In4 Si4 O16
1.0
  10.5788311200000003    0.0000000000000000    0.0000000000000000
   0.0000000000000000    6.0997988400000001    0.0000000000000000
   0.0000000000000000    0.0000000000000000    4.8699501300000003
Li In Si O
4 4 4 16
direct
   0.0000000000000000    0.0000000000000000    0.0000000000000000 Li
   0.5000000000000000    0.0000000000000000    0.5000000000000000 Li
   0.0000000000000000    0.5000000000000000    0.0000000000000000 Li
   0.5000000000000000    0.5000000000000000    0.5000000000000000 Li
   0.7253474000000000    0.7500000000000000    0.0211526700000000 In
   0.2253474000000000    0.7500000000000000    0.4788473300000000 In
   0.2746526000000000    0.2500000000000000    0.9788473300000000 In
   0.7746526000000000    0.2500000000000000    0.5211526700000000 In
   0.9127296100000000    0.7500000000000000    0.5770711200000000 Si
   0.4127296100000000    0.7500000000000000    0.9229288800000000 Si
   0.0872703900000000    0.2500000000000000    0.4229288800000000 Si
   0.5872703900000000    0.2500000000000000    0.0770711200000000 Si
   0.3383017600000000    0.5414208100000000    0.7691712200000000 O
   0.6616982400000000    0.4585791900000000    0.2308287800000000 O
   0.8383017600000000    0.5414208100000000    0.7308287800000000 O
   0.3383017600000000    0.9585791900000000    0.7691712200000000 O
   0.1616982400000000    0.0414208100000000    0.2691712200000000 O
   0.0951734400000000    0.2500000000000000    0.7548314500000000 O
   0.1616982400000000    0.4585791900000000    0.2691712200000000 O
   0.6616982400000000    0.0414208100000000    0.2308287800000000 O
   0.9048265599999999    0.7500000000000000    0.2451685500000000 O
   0.5951734400000001    0.2500000000000000    0.7451685500000000 O
   0.0542236000000000    0.7500000000000000    0.7112780000000000 O
   0.4048265600000000    0.7500000000000000    0.2548314500000000 O
   0.5542236000000000    0.7500000000000000    0.7887220000000000 O
   0.4457764000000000    0.2500000000000000    0.2112780000000000 O
   0.9457764000000000    0.2500000000000000    0.2887220000000000 O
   0.8383017600000000    0.9585791900000000    0.7308287800000000 O
