Bi8 O14
1.0
   6.7097905100000004   -0.0525183500000000    0.0077982900000000
   1.3784110100000000    6.7246781300000000    0.0105798300000000
   0.1022123600000000    2.3019728700000002    7.4800486299999998
Bi O
8 14
direct
   0.0000000000000000    0.0000000000000000    0.5000000000000000 Bi
   0.5295776100000000    0.9977471700000000    0.7446899400000000 Bi
   0.4704223900000000    0.0022528300000000    0.2553100600000000 Bi
   0.0000000000000000    0.0000000000000000    0.0000000000000000 Bi
   0.7365986500000000    0.5227163100000000    0.1163422400000000 Bi
   0.2634013500000000    0.4772836900000000    0.8836577600000000 Bi
   0.2694002500000000    0.4950657100000000    0.3833070800000000 Bi
   0.7305997500000000    0.5049342900000000    0.6166929200000000 Bi
   0.5363633700000000    0.6296331800000000    0.8182870400000000 O
   0.4636366300000000    0.3703668200000000    0.1817129600000000 O
   0.7048369000000000    0.9464635700000000    0.0543209600000000 O
   0.2951631000000000    0.0535364300000000    0.9456790400000000 O
   0.7138465600000000    0.9120809400000000    0.4842034900000000 O
   0.2861534400000000    0.0879190600000000    0.5157965100000000 O
   0.4685369900000000    0.3493346800000000    0.6399508300000000 O
   0.5314630100000000    0.6506653200000000    0.3600491700000000 O
   0.0849387900000000    0.6756375999999999    0.0357320200000000 O
   0.9150612100000000    0.3243624000000000    0.9642679800000000 O
   0.8935479100000000    0.3225385100000000    0.3732442500000000 O
   0.1064520900000000    0.6774614900000000    0.6267557499999999 O
   0.1151274800000000    0.9095766600000000    0.2731281400000000 O
   0.8848725200000001    0.0904233400000000    0.7268718600000000 O
