Rb12 In4 O12
1.0
   7.7100627700000004    0.0000000000000000    0.0130175000000000
   0.0000000000000000    7.1034644800000004    0.0000000000000000
  -0.8073811100000000    0.0000000000000000   11.3532172300000003
Rb In O
12 4 12
direct
   0.6413274799999999    0.8263428500000000    0.5756244500000000 Rb
   0.0590349200000000    0.1268692200000000    0.6560759700000000 Rb
   0.6297920900000000    0.3038600300000000    0.6911101300000000 Rb
   0.3702079100000000    0.8038600299999999    0.8088898700000000 Rb
   0.9409650800000000    0.6268692200000000    0.8439240300000000 Rb
   0.3586725200000000    0.3263428500000000    0.9243755500000000 Rb
   0.6413274799999999    0.6736571500000000    0.0756244500000000 Rb
   0.0590349200000000    0.3731307800000000    0.1560759700000000 Rb
   0.6297920900000000    0.1961399700000000    0.1911101300000000 Rb
   0.3702079100000000    0.6961399700000001    0.3088898700000000 Rb
   0.9409650800000000    0.8731307800000000    0.3439240300000000 Rb
   0.3586725200000000    0.1736571500000000    0.4243755500000000 Rb
   0.1611942700000000    0.5894095900000000    0.5682878400000000 In
   0.8388057300000000    0.0894095900000000    0.9317121600000000 In
   0.1611942700000000    0.9105904100000000    0.0682878400000000 In
   0.8388057300000000    0.4105904100000000    0.4317121600000000 In
   0.2552304500000000    0.8590274900000000    0.5404409300000000 O
   0.8900499700000000    0.5451468100000000    0.6008517200000000 O
   0.3055095000000000    0.4385503700000000    0.6964006600000000 O
   0.6944905000000000    0.9385503700000000    0.8035993400000000 O
   0.1099500300000000    0.0451468100000000    0.8991482800000000 O
   0.7447695500000000    0.3590274900000000    0.9595590700000000 O
   0.2552304500000000    0.6409725100000000    0.0404409300000000 O
   0.8900499700000000    0.9548531900000000    0.1008517200000000 O
   0.3055095000000000    0.0614496300000000    0.1964006600000000 O
   0.6944905000000000    0.5614496300000000    0.3035993400000000 O
   0.1099500300000000    0.4548531900000000    0.3991482800000000 O
   0.7447695500000000    0.1409725100000000    0.4595590700000000 O
