Ba5 Ta4 O15
1.0
   5.7952289600000002    0.0000000000000000    0.0000000000000000
  -2.8976144800000001    5.0188150699999996    0.0000000000000000
   0.0000000000000000    0.0000000000000000   11.8587119399999992
Ba Ta O
5 4 15
direct
   0.3333330000000000    0.6666670000000000    0.7858042100000000 Ba
   0.0000000000000000    0.0000000000000000    0.0000000000000000 Ba
   0.6666670000000000    0.3333330000000000    0.5669012100000000 Ba
   0.3333330000000000    0.6666670000000000    0.4330987900000000 Ba
   0.6666670000000000    0.3333330000000000    0.2141957900000000 Ba
   0.6666670000000000    0.3333330000000000    0.8971819900000000 Ta
   0.3333330000000000    0.6666670000000000    0.1028180100000000 Ta
   0.0000000000000000    0.0000000000000000    0.6878884900000000 Ta
   0.0000000000000000    0.0000000000000000    0.3121115100000000 Ta
   0.3286420700000000    0.1643210400000000    0.3866971000000000 O
   0.8324035800000000    0.6648071600000000    0.8090389600000000 O
   0.8356789600000000    0.1643210400000000    0.3866971000000000 O
   0.8324035800000000    0.1675964200000000    0.8090389600000000 O
   0.1643210400000000    0.3286420700000000    0.6133029000000000 O
   0.5000000000000000    0.5000000000000000    0.0000000000000000 O
   0.0000000000000000    0.5000000000000000    0.0000000000000000 O
   0.8356789600000000    0.6713579300000000    0.3866971000000000 O
   0.5000000000000000    0.0000000000000000    0.0000000000000000 O
   0.6648071600000000    0.8324035800000000    0.1909610400000000 O
   0.3351928400000000    0.1675964200000000    0.8090389600000000 O
   0.1675964200000000    0.8324035800000000    0.1909610400000000 O
   0.1675964200000000    0.3351928400000000    0.1909610400000000 O
   0.1643210400000000    0.8356789600000000    0.6133029000000000 O
   0.6713579300000000    0.8356789600000000    0.6133029000000000 O
