In6 Te1 O12
1.0
   4.7644316800000004    2.7507453499999999    3.0244951400000000
  -4.7644314300000001    2.7507457799999999    3.0244951400000000
  -0.0000002500000000   -5.5014921299999999    3.0244951400000000
In Te O
6 1 12
direct
   0.3902082200000000    0.6842822300000000    0.8593143000000000 In
   0.6097917800000000    0.3157177700000000    0.1406857000000000 In
   0.3157177700000000    0.1406857000000000    0.6097917800000000 In
   0.6842822300000000    0.8593143000000000    0.3902082200000000 In
   0.8593143000000000    0.3902082200000000    0.6842822300000000 In
   0.1406857000000000    0.6097917800000000    0.3157177700000000 In
   0.0000000000000000    0.0000000000000000    0.0000000000000000 Te
   0.0764947300000000    0.9624762200000000    0.3034770900000000 O
   0.6965229100000000    0.9235052700000000    0.0375237800000000 O
   0.9624762200000000    0.3034770900000000    0.0764947300000000 O
   0.5759812600000001    0.4052940500000000    0.8241671100000000 O
   0.1758328900000000    0.4240187400000000    0.5947059500000000 O
   0.4052940500000000    0.8241671100000000    0.5759812600000001 O
   0.8241671100000000    0.5759812600000001    0.4052940500000000 O
   0.3034770900000000    0.0764947300000000    0.9624762200000000 O
   0.0375237800000000    0.6965229100000000    0.9235052700000000 O
   0.5947059500000000    0.1758328900000000    0.4240187400000000 O
   0.9235052700000000    0.0375237800000000    0.6965229100000000 O
   0.4240187400000000    0.5947059500000000    0.1758328900000000 O
