Na4 Cd2 Ge4 S12
1.0
   3.6304475400000000   -6.3219078099999999    0.0029482100000000
   3.6304475400000000    6.3219078099999999    0.0029482100000000
  -1.7932507600000001    0.0000000000000000   11.3919208699999999
Na Cd Ge S
4 2 4 12
direct
   0.7626846400000000    0.1636901700000000    0.8764527300000000 Na
   0.1636901700000000    0.7626846400000000    0.3764527300000000 Na
   0.5625232100000001    0.5792008600000000    0.0127587600000000 Na
   0.5792008600000000    0.5625232100000001    0.5127587600000000 Na
   0.1520776500000000    0.6516502100000000    0.7203839500000000 Cd
   0.6516502100000000    0.1520776500000000    0.2203839500000000 Cd
   0.1891488100000000    0.2356292900000000    0.2474181800000000 Ge
   0.2356292900000000    0.1891488100000000    0.7474181800000000 Ge
   0.8858414999999999    0.1644019600000000    0.4988799700000000 Ge
   0.1644019600000000    0.8858414999999999    0.9988799700000000 Ge
   0.0348246300000000    0.4100288900000000    0.1928221900000000 S
   0.4100288900000000    0.0348246300000000    0.6928221900000000 S
   0.6046672100000000    0.9164621200000000    0.3790852900000000 S
   0.9164621200000000    0.6046672100000000    0.8790852900000000 S
   0.8820261000000000    0.0183844900000000    0.6659879800000000 S
   0.0183844900000000    0.8820261000000000    0.1659879800000000 S
   0.4811116900000000    0.9155455900000000    0.0252745700000000 S
   0.9155455900000000    0.4811116900000000    0.5252745700000000 S
   0.4221011700000000    0.5345733300000000    0.7382245400000000 S
   0.5345733300000000    0.4221011700000000    0.2382245400000000 S
   0.1829712200000000    0.1781542500000000    0.4392818200000000 S
   0.1781542500000000    0.1829712200000000    0.9392818200000000 S
