Na5 Bi1 O5
1.0
   5.3983954199999999   -2.2555243599999999   -0.0016977800000000
   5.3983954199999999    2.2555243599999999   -0.0016977800000000
  -2.0743951300000001    0.0000000000000000    6.1478886099999999
Na Bi O
5 1 5
direct
   0.3205700000000000    0.3205700000000000    0.6420837000000000 Na
   0.3029436000000000    0.3029436000000000    0.1732850700000000 Na
   0.6970564000000000    0.6970564000000000    0.8267149300000000 Na
   0.6794300000000000    0.6794300000000000    0.3579163000000000 Na
   0.0000000000000000    0.0000000000000000    0.0000000000000000 Na
   0.0000000000000000    0.0000000000000000    0.5000000000000000 Bi
   0.8600539900000000    0.8600539900000000    0.6649889000000000 O
   0.8483906000000000    0.8483906000000000    0.1918766500000000 O
   0.1516094000000000    0.1516094000000000    0.8081233500000000 O
   0.1399460100000000    0.1399460100000000    0.3350111000000000 O
   0.5000000000000000    0.5000000000000000    0.5000000000000000 O
