Cs12 Bi4 Se12
1.0
  10.5380427300000008    0.0000000000000000    0.0000000000000000
   0.0000000000000000   10.5380427300000008    0.0000000000000000
   0.0000000000000000    0.0000000000000000   10.5380427300000008
Cs Bi Se
12 4 12
direct
   0.1785668200000000    0.6785668200000000    0.8214331800000000 Cs
   0.3118137200000000    0.6881862800000000    0.1881862800000000 Cs
   0.9291350900000001    0.4291350900000000    0.0708649100000000 Cs
   0.8118137200000000    0.8118137200000000    0.8118137200000000 Cs
   0.4291350900000000    0.0708649100000000    0.9291350900000001 Cs
   0.6785668200000000    0.8214331800000000    0.1785668200000000 Cs
   0.5708649099999999    0.5708649099999999    0.5708649099999999 Cs
   0.8214331800000000    0.1785668200000000    0.6785668200000000 Cs
   0.6881862800000000    0.1881862800000000    0.3118137200000000 Cs
   0.0708649100000000    0.9291350900000001    0.4291350900000000 Cs
   0.1881862800000000    0.3118137200000000    0.6881862800000000 Cs
   0.3214331800000000    0.3214331800000000    0.3214331800000000 Cs
   0.5294726199999999    0.4705273800000000    0.9705273800000001 Bi
   0.0294726200000000    0.0294726200000000    0.0294726200000000 Bi
   0.9705273800000001    0.5294726199999999    0.4705273800000000 Bi
   0.4705273800000000    0.9705273800000001    0.5294726199999999 Bi
   0.2890706400000000    0.3945641300000000    0.9970892099999999 Se
   0.7890706400000000    0.1054358700000000    0.0029107900000000 Se
   0.7109293600000000    0.8945641300000000    0.5029107900000001 Se
   0.9970892099999999    0.2890706400000000    0.3945641300000000 Se
   0.8945641300000000    0.5029107900000001    0.7109293600000000 Se
   0.1054358700000000    0.0029107900000000    0.7890706400000000 Se
   0.2109293600000000    0.6054358700000000    0.4970892100000000 Se
   0.3945641300000000    0.9970892099999999    0.2890706400000000 Se
   0.6054358700000000    0.4970892100000000    0.2109293600000000 Se
   0.5029107900000001    0.7109293600000000    0.8945641300000000 Se
   0.0029107900000000    0.7890706400000000    0.1054358700000000 Se
   0.4970892100000000    0.2109293600000000    0.6054358700000000 Se
