Cd2 Te2 Mo2 O12
1.0
   5.2813551800000003    0.0000000000000000    0.0000000000000000
   0.0000000000000000    5.2813551800000003    0.0000000000000000
   0.0000000000000000    0.0000000000000000    8.9888568499999995
Cd Te Mo O
2 2 2 12
direct
   0.0000000000000000    0.0000000000000000    0.5000000000000000 Cd
   0.5000000000000000    0.5000000000000000    0.5000000000000000 Cd
   0.5000000000000000    0.0000000000000000    0.7640435800000001 Te
   0.0000000000000000    0.5000000000000000    0.2359564200000000 Te
   0.5000000000000000    0.0000000000000000    0.1854693300000000 Mo
   0.0000000000000000    0.5000000000000000    0.8145306700000000 Mo
   0.6828761100000000    0.1828761100000000    0.0661444900000000 O
   0.3171238900000000    0.8171238900000000    0.0661444900000000 O
   0.1962976500000000    0.6962976500000000    0.3728011500000000 O
   0.8037023500000000    0.3037023500000000    0.3728011500000000 O
   0.7795355899999999    0.2795355900000000    0.7133099800000000 O
   0.2204644100000000    0.7204644100000001    0.7133099800000000 O
   0.6962976500000000    0.8037023500000000    0.6271988500000000 O
   0.2795355900000000    0.2204644100000000    0.2866900200000000 O
   0.3037023500000000    0.1962976500000000    0.6271988500000000 O
   0.8171238900000000    0.6828761100000000    0.9338555100000000 O
   0.1828761100000000    0.3171238900000000    0.9338555100000000 O
   0.7204644100000001    0.7795355899999999    0.2866900200000000 O
