Ba8 Sn4 S16
1.0
   8.1955678100000000    0.0000000000000000   -0.0624920200000000
   0.0000000000000000    8.8754534199999995    0.0000000000000000
  -4.8964436500000001    0.0000000000000000   10.9648295699999991
Ba Sn S
8 4 16
direct
   0.8975640900000000    0.8859034400000000    0.1535962500000000 Ba
   0.1024359100000000    0.3859034400000000    0.3464037500000000 Ba
   0.1024359100000000    0.1140965600000000    0.8464037500000000 Ba
   0.8975640900000000    0.6140965600000000    0.6535962500000000 Ba
   0.5315722000000001    0.8470149300000001    0.3392707400000000 Ba
   0.4684278000000000    0.3470149300000000    0.1607292600000000 Ba
   0.4684278000000000    0.1529850700000000    0.6607292600000000 Ba
   0.5315722000000001    0.6529850699999999    0.8392707400000000 Ba
   0.1925961400000000    0.8125074200000000    0.5042023700000000 Sn
   0.8074038600000000    0.3125074200000000    0.9957976300000000 Sn
   0.8074038600000000    0.1874925800000000    0.4957976300000000 Sn
   0.1925961400000000    0.6874925800000000    0.0042023700000000 Sn
   0.2343495800000000    0.8819959900000000    0.7077223499999999 S
   0.7656504200000001    0.3819959900000000    0.7922776500000001 S
   0.7656504200000001    0.1180040100000000    0.2922776500000000 S
   0.2343495800000000    0.6180040100000000    0.2077223500000000 S
   0.2356124000000000    0.0208084400000000    0.3906572900000000 S
   0.7643875999999999    0.5208084400000000    0.1093427100000000 S
   0.7643875999999999    0.9791915600000000    0.6093427100000000 S
   0.2356124000000000    0.4791915600000000    0.8906572900000000 S
   0.9086025700000000    0.6888098300000000    0.3920205500000000 S
   0.0913974300000000    0.1888098300000000    0.1079794500000000 S
   0.0913974300000000    0.3111901700000000    0.6079794500000000 S
   0.9086025700000000    0.8111901700000000    0.8920205500000000 S
   0.4238125700000000    0.6302903399999999    0.5406904900000000 S
   0.5761874299999999    0.1302903400000000    0.9593095100000000 S
   0.5761874299999999    0.3697096600000000    0.4593095100000000 S
   0.4238125700000000    0.8697096600000001    0.0406904900000000 S
