Rb4 Ag8 S6
1.0
   8.7923283199999993   -2.1270292199999998   -0.0079862200000000
   8.7923283199999993    2.1270292199999998   -0.0079862200000000
  -3.6621067799999998    0.0000000000000000   10.9804702800000005
Rb Ag S
4 8 6
direct
   0.1902100700000000    0.1902100700000000    0.8433615100000000 Rb
   0.8097899300000000    0.8097899300000000    0.1566384900000000 Rb
   0.3322087000000000    0.3322087000000000    0.6588581700000000 Rb
   0.6677913000000000    0.6677913000000000    0.3411418300000000 Rb
   0.4129198900000000    0.4129198900000000    0.9906420400000000 Ag
   0.5870801100000000    0.5870801100000000    0.0093579600000000 Ag
   0.0083962900000000    0.0083962900000000    0.3736345600000000 Ag
   0.9916037100000000    0.9916037100000000    0.6263654400000001 Ag
   0.0152857200000000    0.0152857200000000    0.1306145800000000 Ag
   0.9847142800000001    0.9847142800000001    0.8693854200000000 Ag
   0.4148457400000000    0.4148457400000000    0.4144989100000000 Ag
   0.5851542600000000    0.5851542600000000    0.5855010899999999 Ag
   0.4664316200000000    0.4664316200000000    0.2251044700000000 S
   0.5335683800000000    0.5335683800000000    0.7748955300000000 S
   0.1375977900000000    0.1375977900000000    0.5403584700000000 S
   0.8624022099999999    0.8624022099999999    0.4596415300000000 S
   0.1514536300000000    0.1514536300000000    0.1070438700000000 S
   0.8485463700000000    0.8485463700000000    0.8929561300000000 S
