Ba4 Hg4 S8
1.0
   4.2038990299999996    0.0000000000000000    0.0000000000000000
   0.0000000000000000   14.2792526899999999    0.0000000000000000
   0.0000000000000000    0.0000000000000000    7.2917002999999996
Ba Hg S
4 4 8
direct
   0.0000000000000000    0.1017018600000000    0.0047521000000000 Ba
   0.0000000000000000    0.3915648300000000    0.6825576500000000 Ba
   0.0000000000000000    0.8982981400000000    0.5047521000000000 Ba
   0.0000000000000000    0.6084351700000000    0.1825576500000000 Ba
   0.5000000000000000    0.6483071500000001    0.6656660900000000 Hg
   0.5000000000000000    0.3516928500000000    0.1656660900000000 Hg
   0.5000000000000000    0.8581458000000000    0.9983047800000000 Hg
   0.5000000000000000    0.1418542000000000    0.4983047800000000 Hg
   0.5000000000000000    0.4699402200000000    0.3908086000000000 S
   0.5000000000000000    0.5300597800000000    0.8908086000000000 S
   0.0000000000000000    0.7762302000000000    0.8877588400000000 S
   0.0000000000000000    0.2237698000000000    0.3877588400000000 S
   0.5000000000000000    0.7385810600000000    0.3955609000000000 S
   0.5000000000000000    0.0162662500000000    0.7309930400000000 S
   0.5000000000000000    0.9837337500000000    0.2309930400000000 S
   0.5000000000000000    0.2614189400000000    0.8955609000000000 S
