Sc2 Ag2 O4
1.0
   3.1772354500000000    0.0000000000000000    0.0000000000000000
  -1.5886177200000000    2.7515658400000000    0.0000000000000000
   0.0000000000000000    0.0000000000000000   12.2559577100000006
Sc Ag O
2 2 4
direct
   0.0000000000000000    0.0000000000000000    0.5000000000000000 Sc
   0.0000000000000000    0.0000000000000000    0.0000000000000000 Sc
   0.3333330000000000    0.6666670000000000    0.2500000000000000 Ag
   0.6666670000000000    0.3333330000000000    0.7500000000000000 Ag
   0.6666670000000000    0.3333330000000000    0.9166149000000000 O
   0.3333330000000000    0.6666670000000000    0.4166149000000000 O
   0.6666670000000000    0.3333330000000000    0.5833851000000000 O
   0.3333330000000000    0.6666670000000000    0.0833851000000000 O
