Sr4 C4 O12
1.0
   5.9523620700000004    0.0000000000000000    0.0000000000000000
   0.0000000000000000    5.1016941899999999    0.0000000000000000
   0.0000000000000000    0.0000000000000000    8.4150753799999993
Sr C O
4 4 12
direct
   0.7563085899999999    0.2500000000000000    0.9162804200000000 Sr
   0.2436914100000000    0.7500000000000000    0.0837195800000000 Sr
   0.2563085900000000    0.2500000000000000    0.5837195800000000 Sr
   0.7436914100000001    0.7500000000000000    0.4162804200000000 Sr
   0.9131982300000000    0.2500000000000000    0.2582244700000000 C
   0.0868017700000000    0.7500000000000000    0.7417755300000000 C
   0.4131982300000000    0.2500000000000000    0.2417755300000000 C
   0.5868017700000000    0.7500000000000000    0.7582244700000000 C
   0.4122426500000000    0.4698333000000000    0.3191699000000000 O
   0.5877573500000000    0.9698333000000000    0.6808301000000000 O
   0.9122426500000000    0.0301667000000000    0.1808301000000000 O
   0.0877573500000000    0.5301667000000000    0.8191699000000000 O
   0.5962475200000000    0.7500000000000000    0.9118301900000000 O
   0.4037524800000000    0.2500000000000000    0.0881698100000000 O
   0.0962475200000000    0.7500000000000000    0.5881698100000000 O
   0.9037524800000000    0.2500000000000000    0.4118301900000000 O
   0.5877573500000000    0.5301667000000000    0.6808301000000000 O
   0.4122426500000000    0.0301667000000000    0.3191699000000000 O
   0.0877573500000000    0.9698333000000000    0.8191699000000000 O
   0.9122426500000000    0.4698333000000000    0.1808301000000000 O
