Na12 Ga4 Se12
1.0
   7.4051072600000003    0.0000000000000000    0.0259651400000000
   0.0000000000000000    7.1834084400000000    0.0000000000000000
  -7.2723409800000001    0.0000000000000000   13.0509224300000000
Na Ga Se
12 4 12
direct
   0.0575850200000000    0.0272125600000000    0.2846316800000000 Na
   0.9424149800000000    0.5272125600000001    0.2153683200000000 Na
   0.9424149800000000    0.9727874399999999    0.7153683199999999 Na
   0.0575850200000000    0.4727874400000000    0.7846316800000001 Na
   0.2753888700000000    0.0011615400000000    0.1066932800000000 Na
   0.7246111300000000    0.5011615400000000    0.3933067200000000 Na
   0.7246111300000000    0.9988384600000000    0.8933067200000000 Na
   0.2753888700000000    0.4988384600000000    0.6066932800000000 Na
   0.6827112700000000    0.0011595700000000    0.3982883000000000 Na
   0.3172887300000000    0.5011595700000000    0.1017117000000000 Na
   0.3172887300000000    0.9988404300000000    0.6017117000000000 Na
   0.6827112700000000    0.4988404300000000    0.8982883000000000 Na
   0.3316679500000000    0.6435636100000000    0.4171147000000000 Ga
   0.6683320500000000    0.1435636100000000    0.0828853000000000 Ga
   0.6683320500000000    0.3564363900000000    0.5828853000000001 Ga
   0.3316679500000000    0.8564363900000000    0.9171146999999999 Ga
   0.6532121000000000    0.7994292800000000    0.0731023400000000 Se
   0.3467879000000000    0.2994292800000000    0.4268976600000000 Se
   0.3467879000000000    0.2005707200000000    0.9268976600000000 Se
   0.6532121000000000    0.7005707200000000    0.5731023400000000 Se
   0.6560509600000000    0.2451761000000000    0.2307012800000000 Se
   0.3439490400000000    0.7451761000000000    0.2692987200000000 Se
   0.3439490400000000    0.7548239000000000    0.7692987200000000 Se
   0.6560509600000000    0.2548239000000000    0.7307012800000000 Se
   0.0444219700000000    0.7602955600000000    0.4279959200000000 Se
   0.9555780300000000    0.2602955600000000    0.0720040800000000 Se
   0.9555780300000000    0.2397044400000000    0.5720040800000000 Se
   0.0444219700000000    0.7397044400000000    0.9279959200000000 Se
