La2 Nb2 O8
1.0
   3.6040169999999998   -5.6937499999999996    0.0000000000000000
   3.6040169999999998    5.6937499999999996    0.0000000000000000
  -3.2698980000000000    0.0000000000000000    4.0111600000000003
La Nb O
2 2 8
direct
   0.8669380000000000    0.1330620000000000    0.2500000000000000 La
   0.1330620000000000    0.8669380000000000    0.7500000000000000 La
   0.4048340000000000    0.5951660000000000    0.2500000000000000 Nb
   0.5951660000000000    0.4048340000000000    0.7500000000000000 Nb
   0.8563720000000000    0.4438640000000000    0.6606320000000000 O
   0.5561360000000000    0.1436280000000000    0.8393680000000000 O
   0.1436280000000000    0.5561360000000000    0.3393680000000000 O
   0.4438640000000000    0.8563720000000000    0.1606320000000000 O
   0.2373510000000000    0.2980070000000000    0.7912730000000000 O
   0.7019930000000000    0.7626490000000000    0.7087270000000000 O
   0.7626490000000000    0.7019930000000000    0.2087270000000000 O
   0.2980070000000000    0.2373510000000000    0.2912730000000000 O
