Zn1 Ga2 S4
1.0
  -2.6163181799999999    2.6163181500000001    5.1531873199999998
   2.6163181799999999   -2.6163181500000001    5.1531873199999998
   2.6163181500000001    2.6163181799999999   -5.1531873199999998
Zn Ga S
1 2 4
direct
   0.0000000000000000    0.0000000000000000    0.0000000000000000 Zn
   0.5000000000000000    0.5000000000000000    0.0000000000000000 Ga
   0.2500000000000000    0.7500000000000000    0.5000000000000000 Ga
   0.3938279800000000    0.8899094500000000    0.0206814800000000 S
   0.1100905500000000    0.1307720300000000    0.5039185300000000 S
   0.6268535000000000    0.6061720200000000    0.4960814700000000 S
   0.8692279700000000    0.3731465000000000    0.9793185200000000 S
