Ba4 Y8 O16
1.0
  10.3428588099999992    0.0000000000000000    0.0000000000000000
   0.0000000000000000    3.4397603399999999    0.0000000000000000
   0.0000000000000000    0.0000000000000000   12.0497921600000009
Ba Y O
4 8 16
direct
   0.7471333400000000    0.2500000000000000    0.8504162700000000 Ba
   0.2471333400000000    0.2500000000000000    0.6495837300000000 Ba
   0.2528666600000000    0.7500000000000000    0.1495837300000000 Ba
   0.7528666600000000    0.7500000000000000    0.3504162700000000 Ba
   0.5774044699999999    0.2500000000000000    0.1091297300000000 Y
   0.0774044700000000    0.2500000000000000    0.3908702700000000 Y
   0.4225955300000000    0.7500000000000000    0.8908702700000000 Y
   0.9225955300000001    0.7500000000000000    0.6091297300000000 Y
   0.0744179200000000    0.2500000000000000    0.8893327200000000 Y
   0.5744179200000000    0.2500000000000000    0.6106672800000000 Y
   0.9255820800000000    0.7500000000000000    0.1106672800000000 Y
   0.4255820800000000    0.7500000000000000    0.3893327200000000 Y
   0.5697970300000000    0.2500000000000000    0.4254604300000000 O
   0.0697970300000000    0.2500000000000000    0.0745395700000000 O
   0.4302029700000000    0.7500000000000000    0.5745395700000000 O
   0.9302029700000000    0.7500000000000000    0.9254604300000000 O
   0.7901368000000000    0.2500000000000000    0.1598060100000000 O
   0.2901368000000000    0.2500000000000000    0.3401939900000000 O
   0.2098632000000000    0.7500000000000000    0.8401939899999999 O
   0.7098632000000000    0.7500000000000000    0.6598060100000001 O
   0.8839012700000000    0.2500000000000000    0.4823414800000000 O
   0.3839012700000000    0.2500000000000000    0.0176585200000000 O
   0.1160987300000000    0.7500000000000000    0.5176585200000000 O
   0.6160987300000000    0.7500000000000000    0.9823414800000000 O
   0.9818359200000000    0.2500000000000000    0.7172150800000000 O
   0.4818359200000000    0.2500000000000000    0.7827849200000000 O
   0.0181640800000000    0.7500000000000000    0.2827849200000000 O
   0.5181640800000000    0.7500000000000000    0.2172150800000000 O
