Ba2 Y2 Cu2 S6
1.0
   1.9874716200000000   -6.6698172400000004    0.0000000000000000
   1.9874716200000000    6.6698172400000004    0.0000000000000000
   0.0000000000000000    0.0000000000000000   10.1028365499999992
Ba Y Cu S
2 2 2 6
direct
   0.2557231400000000    0.7442768600000000    0.2500000000000000 Ba
   0.7442768600000000    0.2557231400000000    0.7500000000000000 Ba
   0.0000000000000000    0.0000000000000000    0.5000000000000000 Y
   0.0000000000000000    0.0000000000000000    0.0000000000000000 Y
   0.5317465400000000    0.4682534600000000    0.2500000000000000 Cu
   0.4682534600000000    0.5317465400000000    0.7500000000000000 Cu
   0.6321750300000000    0.3678249700000000    0.4367984000000000 S
   0.3678249700000000    0.6321750300000000    0.5632016000000000 S
   0.6321750300000000    0.3678249700000000    0.0632016000000000 S
   0.3678249700000000    0.6321750300000000    0.9367984000000000 S
   0.9343817400000000    0.0656182600000000    0.2500000000000000 S
   0.0656182600000000    0.9343817400000000    0.7500000000000000 S
