Ba2 Zn2 Te4 O14
1.0
   5.5355359899999996    0.0000000000000000    0.0000000000000000
   0.0000000000000000    7.6707193299999998    3.6372787400000002
   0.0000000000000000   -7.6707193299999998    3.6372787400000002
Ba Zn Te O
2 2 4 14
direct
   0.7500000000000000    0.9184622400000000    0.3389722500000000 Ba
   0.2500000000000000    0.3389722500000000    0.9184622400000000 Ba
   0.7500000000000000    0.5275858700000000    0.7588636700000000 Zn
   0.2500000000000000    0.7588636700000000    0.5275858700000000 Zn
   0.7500000000000000    0.9680234000000000    0.8120051200000000 Te
   0.2500000000000000    0.8120051200000000    0.9680234000000000 Te
   0.7500000000000000    0.4468191300000000    0.3036478800000000 Te
   0.2500000000000000    0.3036478800000000    0.4468191300000000 Te
   0.7500000000000000    0.2676449900000000    0.9940577700000000 O
   0.2500000000000000    0.9940577700000000    0.2676449900000000 O
   0.4903079900000000    0.5838213100000000    0.2967763500000000 O
   0.5096920100000000    0.2967763500000000    0.5838213100000000 O
   0.0096920100000000    0.5838213100000000    0.2967763500000000 O
   0.9903079900000000    0.2967763500000000    0.5838213100000000 O
   0.7500000000000000    0.6732472900000001    0.6455009000000000 O
   0.2500000000000000    0.6455009000000000    0.6732472900000001 O
   0.5023459900000000    0.9727107500000000    0.6604767499999999 O
   0.4976540100000000    0.6604767499999999    0.9727107500000000 O
   0.9976540100000000    0.9727107500000000    0.6604767499999999 O
   0.0023459900000000    0.6604767499999999    0.9727107500000000 O
   0.5000000000000000    0.0056580900000000    0.0056580900000000 O
   0.0000000000000000    0.0056580900000000    0.0056580900000000 O
