Cd6 Te2 O12
1.0
   5.5168106400000001    0.0000000000000000   -0.0062889100000000
   0.0000000000000000    5.6654483600000001    0.0000000000000000
  -5.5057267300000001    0.0000000000000000    8.0732723300000000
Cd Te O
6 2 12
direct
   0.2464412800000000    0.9530671200000000    0.7591115400000000 Cd
   0.7535587200000000    0.4530671200000000    0.7408884600000000 Cd
   0.7535587200000000    0.0469328800000000    0.2408884600000000 Cd
   0.2464412800000000    0.5469328800000000    0.2591115400000000 Cd
   0.5000000000000000    0.0000000000000000    0.5000000000000000 Cd
   0.5000000000000000    0.5000000000000000    0.0000000000000000 Cd
   0.0000000000000000    0.0000000000000000    0.0000000000000000 Te
   0.0000000000000000    0.5000000000000000    0.5000000000000000 Te
   0.9153104000000000    0.2798221800000000    0.0828284100000000 O
   0.0846896000000000    0.7798221800000000    0.4171715900000000 O
   0.0846896000000000    0.7201778200000000    0.9171715900000000 O
   0.9153104000000000    0.2201778200000000    0.5828284100000000 O
   0.2399824800000000    0.1772126200000000    0.9494173800000000 O
   0.7600175200000000    0.6772126200000000    0.5505826200000000 O
   0.7600175200000000    0.8227873800000000    0.0505826200000000 O
   0.2399824800000000    0.3227873800000000    0.4494173800000000 O
   0.6559478300000000    0.4247724600000000    0.2771429200000000 O
   0.3440521700000000    0.9247724600000000    0.2228570800000000 O
   0.3440521700000000    0.5752275400000000    0.7228570800000000 O
   0.6559478300000000    0.0752275400000000    0.7771429200000000 O
