Ga4 Se4
1.0
   3.7466082799999998   -0.0000000000000000    0.0000000000000000
  -1.8733036400000000    3.2446576299999998    0.0000000000000000
   0.0000000000000000    0.0000000000000000   16.1828423000000008
Ga Se
4 4
direct
   0.6666670000000000    0.3333330000000000    0.6749369100000000 Ga
   0.3333330000000000    0.6666670000000000    0.1749369100000000 Ga
   0.3333330000000000    0.6666670000000000    0.3250630900000000 Ga
   0.6666670000000000    0.3333330000000000    0.8250630900000000 Ga
   0.6666670000000000    0.3333330000000000    0.1024222100000000 Se
   0.3333330000000000    0.6666670000000000    0.6024222100000000 Se
   0.3333330000000000    0.6666670000000000    0.8975777900000000 Se
   0.6666670000000000    0.3333330000000000    0.3975777900000000 Se
