Al2 Cu2 O4
1.0
   2.8529805300000000    0.0000000000000000    0.0000000000000000
  -1.4264902600000000    2.4707538900000001    0.0000000000000000
   0.0000000000000000    0.0000000000000000   11.2183946700000003
Al Cu O
2 2 4
direct
   0.0000000000000000    0.0000000000000000    0.5000000000000000 Al
   0.0000000000000000    0.0000000000000000    0.0000000000000000 Al
   0.3333330000000000    0.6666670000000000    0.2500000000000000 Cu
   0.6666670000000000    0.3333330000000000    0.7500000000000000 Cu
   0.6666670000000000    0.3333330000000000    0.9138532000000000 O
   0.3333330000000000    0.6666670000000000    0.4138532000000000 O
   0.6666670000000000    0.3333330000000000    0.5861468000000000 O
   0.3333330000000000    0.6666670000000000    0.0861468000000000 O
