Ca2 Ge2 P4 O16
1.0
   7.8635306700000003   -2.5516479799999998   -0.0361595200000000
   7.8635306700000003    2.5516479799999998   -0.0361595200000000
  -3.5290564299999998    0.0000000000000000    6.9524851300000003
Ca Ge P O
2 2 4 16
direct
   0.1661834400000000    0.8338165600000000    0.2500000000000000 Ca
   0.8338165600000000    0.1661834400000000    0.7500000000000000 Ca
   0.0000000000000000    0.5000000000000000    0.0000000000000000 Ge
   0.5000000000000000    0.0000000000000000    0.5000000000000000 Ge
   0.4055175100000000    0.8774146100000000    0.7548047600000000 P
   0.1225853900000000    0.5944824900000000    0.7451952400000000 P
   0.5944824900000000    0.1225853900000000    0.2451952400000000 P
   0.8774146100000000    0.4055175100000000    0.2548047600000000 P
   0.1942881300000000    0.1249314700000000    0.9023854100000001 O
   0.8750685300000000    0.8057118700000000    0.5976145899999999 O
   0.8057118700000000    0.8750685300000000    0.0976145900000000 O
   0.1249314700000000    0.1942881300000000    0.4023854100000000 O
   0.6718494100000000    0.6105464100000000    0.8558526400000001 O
   0.3894535900000000    0.3281505900000000    0.6441473599999999 O
   0.3281505900000000    0.3894535900000000    0.1441473600000000 O
   0.6105464100000000    0.6718494100000000    0.3558526400000000 O
   0.4992544900000000    0.9544649600000000    0.7106673500000000 O
   0.0455350400000000    0.5007455100000000    0.7893326500000000 O
   0.5007455100000000    0.0455350400000000    0.2893326500000000 O
   0.9544649600000000    0.4992544900000000    0.2106673500000000 O
   0.2647473900000000    0.8219602499999999    0.5888065700000000 O
   0.1780397500000000    0.7352526100000000    0.9111934300000000 O
   0.7352526100000000    0.1780397500000000    0.4111934300000000 O
   0.8219602499999999    0.2647473900000000    0.0888065700000000 O
