Cs4 B4 Se12
1.0
   7.5225400000000002    0.0000000000000000    0.0663641600000000
   0.0000000000000000   12.6643354000000006    0.0000000000000000
  -1.7067837600000000    0.0000000000000000    5.9292036200000000
Cs B Se
4 4 12
direct
   0.2596564100000000    0.5774076200000000    0.2070636500000000 Cs
   0.7403435900000001    0.4225923800000000    0.7929363500000000 Cs
   0.7403435900000001    0.0774076200000000    0.2929363500000000 Cs
   0.2596564100000000    0.9225923800000000    0.7070636500000000 Cs
   0.7071602800000000    0.7305527200000000    0.1726705500000000 B
   0.7071602800000000    0.7694472800000000    0.6726705500000000 B
   0.2928397200000000    0.2305527200000000    0.3273294500000000 B
   0.2928397200000000    0.2694472800000000    0.8273294500000000 B
   0.9415156099999999    0.6824215300000001    0.6720703800000000 Se
   0.5507149400000000    0.6942992400000000    0.8559625000000000 Se
   0.1983246200000000    0.4079526500000000    0.6695441100000000 Se
   0.1983246200000000    0.0920473500000000    0.1695441100000000 Se
   0.5507149400000000    0.8057007600000000    0.3559625000000000 Se
   0.9415156099999999    0.8175784699999999    0.1720703800000000 Se
   0.4492850600000000    0.3057007600000000    0.1440375000000000 Se
   0.8016753800000000    0.9079526500000000    0.8304558900000000 Se
   0.4492850600000000    0.1942992400000000    0.6440375000000000 Se
   0.0584843900000000    0.3175784700000000    0.3279296200000000 Se
   0.0584843900000000    0.1824215300000000    0.8279296200000000 Se
   0.8016753800000000    0.5920473500000000    0.3304558900000000 Se
