Ca1 Sn1 B2 O6
1.0
   2.4367482699999998    1.4068576699999999    5.3489664299999999
  -2.4367483100000000    1.4068575999999999    5.3489664299999999
   0.0000000400000000   -2.8137142900000001    5.3489664299999999
Ca Sn B O
1 1 2 6
direct
   0.0000000000000000    0.0000000000000000    0.0000000000000000 Ca
   0.5000000000000000    0.5000000000000000    0.5000000000000000 Sn
   0.7604582500000000    0.7604582500000000    0.7604582500000000 B
   0.2395417500000000    0.2395417500000000    0.2395417500000000 B
   0.7324700600000000    0.0530480000000000    0.4876316900000000 O
   0.0530480000000000    0.4876316900000000    0.7324700600000000 O
   0.5123683100000000    0.2675299400000000    0.9469520000000000 O
   0.2675299400000000    0.9469520000000000    0.5123683100000000 O
   0.9469520000000000    0.5123683100000000    0.2675299400000000 O
   0.4876316900000000    0.7324700600000000    0.0530480000000000 O
