Cs4 Sr2 P4 O14
1.0
   5.2557020999999997   -3.0172219199999999   -0.0310251400000000
   5.2557020999999997    3.0172219199999999   -0.0310251400000000
  -3.7680195099999998    0.0000000000000000   13.0006269499999991
Cs Sr P O
4 2 4 14
direct
   0.6301764399999999    0.0793709100000000    0.8339702600000000 Cs
   0.9206290900000000    0.3698235600000000    0.6660297400000000 Cs
   0.3698235600000000    0.9206290900000000    0.1660297400000000 Cs
   0.0793709100000000    0.6301764399999999    0.3339702600000000 Cs
   0.0000000000000000    0.5000000000000000    0.0000000000000000 Sr
   0.5000000000000000    0.0000000000000000    0.5000000000000000 Sr
   0.3028549600000000    0.7642048500000000    0.8674053100000000 P
   0.2357951500000000    0.6971450400000000    0.6325946900000000 P
   0.6971450400000000    0.2357951500000000    0.1325946900000000 P
   0.7642048500000000    0.3028549600000000    0.3674053100000000 P
   0.1691348800000000    0.8308651200000000    0.7500000000000000 O
   0.8308651200000000    0.1691348800000000    0.2500000000000000 O
   0.5960510300000000    0.6143550000000000    0.8694536800000000 O
   0.3856450000000000    0.4039489700000000    0.6305463200000000 O
   0.4039489700000000    0.3856450000000000    0.1305463200000000 O
   0.6143550000000000    0.5960510300000000    0.3694536800000000 O
   0.2050339000000000    0.0338974700000000    0.9299493000000000 O
   0.9661025300000000    0.7949661000000000    0.5700507000000000 O
   0.7949661000000000    0.9661025300000000    0.0700507000000000 O
   0.0338974700000000    0.2050339000000000    0.4299493000000000 O
   0.6049688400000000    0.1911202100000000    0.3878008700000000 O
   0.8088797900000000    0.3950311600000000    0.1121991300000000 O
   0.3950311600000000    0.8088797900000000    0.6121991300000000 O
   0.1911202100000000    0.6049688400000000    0.8878008700000000 O
