Ge1 Bi12 O20
1.0
  -5.0514446399999997    5.0514446399999997    5.0514446399999997
   5.0514446399999997   -5.0514446399999997    5.0514446399999997
   5.0514446399999997    5.0514446399999997   -5.0514446399999997
Ge Bi O
1 12 20
direct
   0.0000000000000000    0.0000000000000000    0.0000000000000000 Ge
   0.1897337900000000    0.6945797100000000    0.8546785400000000 Bi
   0.8399011700000000    0.3350562400000000    0.1453214600000000 Bi
   0.8102662100000000    0.6649437600000000    0.5048449200000000 Bi
   0.1453214600000000    0.8399011700000000    0.3350562400000000 Bi
   0.6945797100000000    0.8546785400000000    0.1897337900000000 Bi
   0.3054202900000000    0.4951550800000000    0.1600988300000000 Bi
   0.4951550800000000    0.1600988300000000    0.3054202900000000 Bi
   0.3350562400000000    0.1453214600000000    0.8399011700000000 Bi
   0.5048449200000000    0.8102662100000000    0.6649437600000000 Bi
   0.6649437600000000    0.5048449200000000    0.8102662100000000 Bi
   0.8546785400000000    0.1897337900000000    0.6945797100000000 Bi
   0.1600988300000000    0.3054202900000000    0.4951550800000000 Bi
   0.7941895600000000    0.0000000000000000    0.0000000000000000 O
   0.2058104400000000    0.2058104400000000    0.2058104400000000 O
   0.0000000000000000    0.7941895600000000    0.0000000000000000 O
   0.0000000000000000    0.0000000000000000    0.7941895600000000 O
   0.3938802200000000    0.0000000000000000    0.0000000000000000 O
   0.6061197800000000    0.6061197800000000    0.6061197800000000 O
   0.0000000000000000    0.3938802200000000    0.0000000000000000 O
   0.0000000000000000    0.0000000000000000    0.3938802200000000 O
   0.6221023200000000    0.2356001800000000    0.8764877300000000 O
   0.3591134500000000    0.7456145900000000    0.1235122700000000 O
   0.3778976800000000    0.2543854100000000    0.6134988500000000 O
   0.1235122700000000    0.3591134500000000    0.7456145900000000 O
   0.2356001800000000    0.8764877300000000    0.6221023200000000 O
   0.6408865500000001    0.7643998200000000    0.3865011500000000 O
   0.8764877300000000    0.6221023200000000    0.2356001800000000 O
   0.2543854100000000    0.6134988500000000    0.3778976800000000 O
   0.6134988500000000    0.3778976800000000    0.2543854100000000 O
   0.7456145900000000    0.1235122700000000    0.3591134500000000 O
   0.3865011500000000    0.6408865500000001    0.7643998200000000 O
   0.7643998200000000    0.3865011500000000    0.6408865500000001 O
