Hg2 As2 O6
1.0
   4.9056930400000001    0.0000000000000000    0.0000000000000000
  -2.4528465200000000    4.2484549700000001    0.0000000000000000
   0.0000000000000000    0.0000000000000000    7.6259024699999998
Hg As O
2 2 6
direct
   0.0000000000000000    0.0000000000000000    0.8319875300000000 Hg
   0.0000000000000000    0.0000000000000000    0.1680124700000000 Hg
   0.3333330000000000    0.6666670000000000    0.5000000000000000 As
   0.6666670000000000    0.3333330000000000    0.5000000000000000 As
   0.3791604700000000    0.0000000000000000    0.6363429900000001 O
   0.0000000000000000    0.3791604700000000    0.6363429900000001 O
   0.6208395300000000    0.6208395300000000    0.6363429900000001 O
   1.0000000000000000    0.6208395300000000    0.3636570100000000 O
   0.3791604700000000    0.3791604700000000    0.3636570100000000 O
   0.6208395300000000    0.0000000000000000    0.3636570100000000 O
