Ca8 Si4 O16
1.0
  11.1726090100000004    0.0000000000000000    0.0000000000000000
   0.0000000000000000    6.7134641100000003    0.0000000000000000
   0.0000000000000000    0.0000000000000000    5.0654321800000002
Ca Si O
8 4 16
direct
   0.0000000000000000    0.5000000000000000    0.0000000000000000 Ca
   0.5000000000000000    0.0000000000000000    0.5000000000000000 Ca
   0.0000000000000000    0.0000000000000000    0.0000000000000000 Ca
   0.5000000000000000    0.5000000000000000    0.5000000000000000 Ca
   0.7803606100000000    0.7500000000000000    0.4912013200000000 Ca
   0.2803606100000000    0.7500000000000000    0.0087986800000000 Ca
   0.2196393900000000    0.2500000000000000    0.5087986799999999 Ca
   0.7196393900000000    0.2500000000000000    0.9912013200000001 Ca
   0.5961646800000000    0.7500000000000000    0.9273222000000000 Si
   0.0961646800000000    0.7500000000000000    0.5726778000000000 Si
   0.4038353200000000    0.2500000000000000    0.0726778000000000 Si
   0.9038353200000000    0.2500000000000000    0.4273222000000000 Si
   0.5927088400000000    0.7500000000000000    0.2502531800000000 O
   0.0927088400000000    0.7500000000000000    0.2497468200000000 O
   0.4072911600000000    0.2500000000000000    0.7497468200000000 O
   0.9072911600000000    0.2500000000000000    0.7502531800000000 O
   0.4595591400000000    0.7500000000000000    0.7955265500000001 O
   0.9595591400000000    0.7500000000000000    0.7044734499999999 O
   0.5404408600000000    0.2500000000000000    0.2044734500000000 O
   0.0404408600000000    0.2500000000000000    0.2955265500000000 O
   0.6626450100000000    0.5534662900000000    0.7950061600000000 O
   0.1626450100000000    0.9465337100000000    0.7049938400000000 O
   0.3373549900000000    0.0534662900000000    0.2049938400000000 O
   0.8373549900000000    0.4465337100000000    0.2950061600000000 O
   0.3373549900000000    0.4465337100000000    0.2049938400000000 O
   0.8373549900000000    0.0534662900000000    0.2950061600000000 O
   0.6626450100000000    0.9465337100000000    0.7950061600000000 O
   0.1626450100000000    0.5534662900000000    0.7049938400000000 O
