As8 Pb4 S16
1.0
   8.9524300100000005    0.0000000000000000    0.0000000000000000
   0.0000000000000000    3.7055065100000002    0.0000000000000000
   0.0000000000000000    0.0000000000000000   17.9331737000000011
As Pb S
8 4 16
direct
   0.3344662400000000    0.2500000000000000    0.4885026500000000 As
   0.8344662400000000    0.2500000000000000    0.0114973500000000 As
   0.6655337600000000    0.7500000000000000    0.5114973500000000 As
   0.1655337600000000    0.7500000000000000    0.9885026500000000 As
   0.0072764900000000    0.7500000000000000    0.3870630800000000 As
   0.5072764900000000    0.7500000000000000    0.1129369200000000 As
   0.9927235100000000    0.2500000000000000    0.6129369200000000 As
   0.4927235100000000    0.2500000000000000    0.8870630800000000 As
   0.6539711499999999    0.2500000000000000    0.3097959400000000 Pb
   0.1539711500000000    0.2500000000000000    0.1902040600000000 Pb
   0.3460288500000000    0.7500000000000000    0.6902040600000000 Pb
   0.8460288500000001    0.7500000000000000    0.8097959400000000 Pb
   0.8177476000000000    0.2500000000000000    0.4548828000000000 S
   0.3177476000000000    0.2500000000000000    0.0451172000000000 S
   0.1822524000000000    0.7500000000000000    0.5451172000000000 S
   0.6822524000000000    0.7500000000000000    0.9548828000000000 S
   0.4846290700000000    0.7500000000000000    0.4162373400000000 S
   0.9846290700000000    0.7500000000000000    0.0837626600000000 S
   0.5153709300000000    0.2500000000000000    0.5837626600000000 S
   0.0153709300000000    0.2500000000000000    0.9162373400000000 S
   0.1707142700000000    0.2500000000000000    0.3549052900000000 S
   0.6707142699999999    0.2500000000000000    0.1450947100000000 S
   0.8292857300000001    0.7500000000000000    0.6450947100000000 S
   0.3292857300000000    0.7500000000000000    0.8549052900000000 S
   0.6141444700000001    0.2500000000000000    0.7748436700000000 S
   0.1141444700000000    0.2500000000000000    0.7251563300000000 S
   0.3858555300000000    0.7500000000000000    0.2251563300000000 S
   0.8858555299999999    0.7500000000000000    0.2748436700000000 S
