Mg1 Re2 O8
1.0
   5.7565208900000000    0.0000000000000000    0.0000000000000000
  -2.8782609400000001    4.9852935799999996    0.0000000000000000
   0.0000000000000000    0.0000000000000000    6.4128281300000003
Mg Re O
1 2 8
direct
   0.0000000000000000    0.0000000000000000    0.0000000000000000 Mg
   0.3333330000000000    0.6666670000000000    0.2755223600000000 Re
   0.6666670000000000    0.3333330000000000    0.7244776400000000 Re
   0.1680984000000000    0.8319016000000000    0.1847082100000000 O
   0.1680984000000000    0.3361978100000000    0.1847082100000000 O
   0.3333330000000000    0.6666670000000000    0.5450323200000000 O
   0.3361978100000000    0.1680984000000000    0.8152917900000000 O
   0.6638021900000000    0.8319016000000000    0.1847082100000000 O
   0.6666670000000000    0.3333330000000000    0.4549676800000000 O
   0.8319016000000000    0.6638021900000000    0.8152917900000000 O
   0.8319016000000000    0.1680984000000000    0.8152917900000000 O
