Ba6 Na2 Bi2 O12
1.0
   5.2035590500000000    3.0042760099999999    4.0404166899999998
  -5.2035590500000000    3.0042760099999999    4.0404166899999998
   0.0000000000000000   -6.0085520199999998    4.0404166899999998
Ba Na Bi O
6 2 2 12
direct
   0.8981625600000001    0.6018374399999999    0.2500000000000000 Ba
   0.1018374400000000    0.3981625600000000    0.7500000000000000 Ba
   0.6018374399999999    0.2500000000000000    0.8981625600000001 Ba
   0.7500000000000000    0.1018374400000000    0.3981625600000000 Ba
   0.3981625600000000    0.7500000000000000    0.1018374400000000 Ba
   0.2500000000000000    0.8981625600000001    0.6018374399999999 Ba
   0.7500000000000000    0.7500000000000000    0.7500000000000000 Na
   0.2500000000000000    0.2500000000000000    0.2500000000000000 Na
   0.0000000000000000    0.0000000000000000    0.0000000000000000 Bi
   0.5000000000000000    0.5000000000000000    0.5000000000000000 Bi
   0.9172020500000000    0.0515981200000000    0.7195168800000000 O
   0.7195168800000000    0.9172020500000000    0.0515981200000000 O
   0.9484018800000000    0.2804831200000000    0.0827979500000000 O
   0.0515981200000000    0.7195168800000000    0.9172020500000000 O
   0.5827979500000000    0.7804831200000000    0.4484018800000000 O
   0.7804831200000000    0.4484018800000000    0.5827979500000000 O
   0.0827979500000000    0.9484018800000000    0.2804831200000000 O
   0.2804831200000000    0.0827979500000000    0.9484018800000000 O
   0.5515981200000000    0.4172020500000000    0.2195168800000000 O
   0.4172020500000000    0.2195168800000000    0.5515981200000000 O
   0.2195168800000000    0.5515981200000000    0.4172020500000000 O
   0.4484018800000000    0.5827979500000000    0.7804831200000000 O
