Rb4 Li6 Ga2 O8
1.0
  -2.4500591100000002    4.8649292300000004    5.6523782300000001
   2.4500591100000002   -4.8649292300000004    5.6523782300000001
   2.4500591100000002    4.8649292300000004   -5.6523782300000001
Rb Li Ga O
4 6 2 8
direct
   0.1293011600000000    0.2335086300000000    0.3628107900000000 Rb
   0.8706988400000000    0.7664913700000000    0.6371892100000000 Rb
   0.6293011600000000    0.2664913700000000    0.8957925200000000 Rb
   0.3706988400000000    0.7335086300000000    0.1042074800000000 Rb
   0.4900749300000000    0.2500000000000000    0.2400749300000000 Li
   0.5099250700000000    0.7500000000000000    0.7599250700000000 Li
   0.0099250700000000    0.2500000000000000    0.7599250700000000 Li
   0.9900749300000000    0.7500000000000000    0.2400749300000000 Li
   0.2500000000000000    0.2500000000000000    0.0000000000000000 Li
   0.7500000000000000    0.7500000000000000    0.0000000000000000 Li
   0.2500000000000000    0.7500000000000000    0.5000000000000000 Ga
   0.7500000000000000    0.2500000000000000    0.5000000000000000 Ga
   0.4502059600000000    0.5961165899999999    0.3841487400000000 O
   0.5497940400000000    0.4038834100000000    0.6158512600000000 O
   0.2119668500000000    0.0660572200000000    0.6158512600000000 O
   0.2880331500000000    0.9038834100000001    0.8540893700000000 O
   0.7880331500000000    0.9339427800000000    0.3841487400000000 O
   0.7119668500000000    0.0961165900000000    0.1459106300000000 O
   0.0497940400000000    0.4339427800000000    0.1459106300000000 O
   0.9502059600000000    0.5660572200000000    0.8540893700000000 O
