Zr4 Sn4 S12
1.0
   9.2061050600000005    0.0000000000000000    0.0000000000000000
   0.0000000000000000    3.7310114099999998    0.0000000000000000
   0.0000000000000000    0.0000000000000000   13.6859722900000005
Zr Sn S
4 4 12
direct
   0.6642047599999999    0.2500000000000000    0.4519281700000000 Zr
   0.3357952400000000    0.7500000000000000    0.5480718300000000 Zr
   0.1642047600000000    0.2500000000000000    0.0480718300000000 Zr
   0.8357952400000001    0.7500000000000000    0.9519281700000000 Zr
   0.9638977399999999    0.7500000000000000    0.3303325300000000 Sn
   0.0361022600000000    0.2500000000000000    0.6696674700000000 Sn
   0.4638977400000000    0.7500000000000000    0.1696674700000000 Sn
   0.5361022600000001    0.2500000000000000    0.8303325300000000 Sn
   0.5096465700000000    0.2500000000000000    0.6098918300000000 S
   0.4903534300000000    0.7500000000000000    0.3901081700000000 S
   0.0096465700000000    0.2500000000000000    0.8901081700000000 S
   0.9903534300000000    0.7500000000000000    0.1098918300000000 S
   0.8343164199999999    0.7500000000000000    0.5104973300000000 S
   0.1656835800000000    0.2500000000000000    0.4895026700000000 S
   0.3343164200000000    0.7500000000000000    0.9895026700000000 S
   0.6656835800000001    0.2500000000000000    0.0104973300000000 S
   0.7231565100000000    0.7500000000000000    0.7826068400000000 S
   0.2768434900000000    0.2500000000000000    0.2173931600000000 S
   0.2231565100000000    0.7500000000000000    0.7173931600000000 S
   0.7768434900000000    0.2500000000000000    0.2826068400000000 S
