Cs8 S20
1.0
   6.7175782999999996    0.0000000000000000    0.0000000000000000
   0.0000000000000000    7.1515870200000000    0.0000000000000000
   0.0000000000000000    0.0000000000000000   18.1915319999999987
Cs S
8 20
direct
   0.6124298800000000    0.4233144500000000    0.5157006600000000 Cs
   0.1124298800000000    0.0766855500000000    0.4842993400000000 Cs
   0.3875701200000000    0.9233144500000000    0.9842993400000000 Cs
   0.8875701200000000    0.5766855500000000    0.0157006600000000 Cs
   0.0764067000000000    0.2456407300000000    0.8359968100000000 Cs
   0.5764067000000000    0.2543592700000000    0.1640031900000000 Cs
   0.9235933000000000    0.7456407300000000    0.6640031900000000 Cs
   0.4235933000000000    0.7543592700000000    0.3359968100000000 Cs
   0.5920275699999999    0.9251432200000000    0.5262394800000000 S
   0.0920275700000000    0.5748567800000000    0.4737605200000000 S
   0.4079724300000000    0.4251432200000000    0.9737605200000000 S
   0.9079724300000001    0.0748567800000000    0.0262394800000000 S
   0.4333732000000000    0.8860879000000000    0.6206879800000000 S
   0.9333732000000000    0.6139121000000000    0.3793120200000000 S
   0.5666268000000000    0.3860879000000000    0.8793120200000000 S
   0.0666268000000000    0.1139121000000000    0.1206879800000000 S
   0.4379346600000000    0.1205128900000000    0.6885409200000000 S
   0.9379346600000000    0.3794871100000000    0.3114590800000000 S
   0.5620653400000000    0.6205128900000000    0.8114590800000000 S
   0.0620653400000000    0.8794871100000000    0.1885409200000000 S
   0.2439088800000000    0.3223905900000000    0.6467226800000000 S
   0.7439088800000000    0.1776094100000000    0.3532773200000000 S
   0.7560911200000000    0.8223905900000000    0.8532773200000000 S
   0.2560911200000000    0.6776094100000000    0.1467226800000000 S
   0.9537746600000000    0.2401612200000000    0.6538225800000000 S
   0.4537746600000000    0.2598387800000000    0.3461774200000000 S
   0.0462253400000000    0.7401612200000000    0.8461774200000000 S
   0.5462253400000000    0.7598387800000000    0.1538225800000000 S
