Tl8 Sn4 O12
1.0
  10.1858614099999993    0.0000000000000000    0.0000000000000000
   0.0000000000000000    3.2420583900000000    0.0000000000000000
   0.0000000000000000    0.0000000000000000   12.4538022799999997
Tl Sn O
8 4 12
direct
   0.1342079600000000    0.7500000000000000    0.8953783500000000 Tl
   0.8657920400000000    0.2500000000000000    0.1046216500000000 Tl
   0.6342079600000000    0.7500000000000000    0.6046216500000000 Tl
   0.3657920400000000    0.2500000000000000    0.3953783500000000 Tl
   0.2936608500000000    0.7500000000000000    0.6521739500000000 Tl
   0.7063391500000000    0.2500000000000000    0.3478260500000000 Tl
   0.7936608500000000    0.7500000000000000    0.8478260500000000 Tl
   0.2063391500000000    0.2500000000000000    0.1521739500000000 Tl
   0.4608460400000000    0.2500000000000000    0.8891336600000000 Sn
   0.5391539600000000    0.7500000000000000    0.1108663400000000 Sn
   0.9608460400000000    0.2500000000000000    0.6108663400000000 Sn
   0.0391539600000000    0.7500000000000000    0.3891336600000000 Sn
   0.3919719900000000    0.7500000000000000    0.9898983600000000 O
   0.6080280100000000    0.2500000000000000    0.0101016400000000 O
   0.8919719900000000    0.7500000000000000    0.5101016400000000 O
   0.1080280100000000    0.2500000000000000    0.4898983600000000 O
   0.0447625200000000    0.7500000000000000    0.6921152500000000 O
   0.9552374800000000    0.2500000000000000    0.3078847500000000 O
   0.5447625200000000    0.7500000000000000    0.8078847500000000 O
   0.4552374800000000    0.2500000000000000    0.1921152500000000 O
   0.2874642700000000    0.2500000000000000    0.8079417400000000 O
   0.7125357300000000    0.7500000000000000    0.1920582600000000 O
   0.7874642700000000    0.2500000000000000    0.6920582600000000 O
   0.2125357300000000    0.7500000000000000    0.3079417400000000 O
