Na1 Y1 Ti2 Si2 O10
1.0
   3.3074423400000001   -4.3321952499999998    0.0032108800000000
   3.3074423400000001    4.3321952499999998    0.0032108800000000
  -2.8823217900000002    0.0000000000000000    6.4601910599999997
Na Y Ti Si O
1 1 2 2 10
direct
   0.8325127500000000    0.1674872500000000    0.5000000000000000 Na
   0.1717810900000000    0.8282189100000000    0.0000000000000000 Y
   0.4964289800000000    0.4941549800000000    0.7452091199999999 Ti
   0.5058450200000000    0.5035710200000000    0.2547908800000000 Ti
   0.8201938100000000    0.1798061900000000    0.0000000000000000 Si
   0.1773157200000000    0.8226842800000000    0.5000000000000000 Si
   0.4226867200000000    0.5773132800000000    0.0000000000000000 O
   0.5748365500000000    0.4251634500000000    0.5000000000000000 O
   0.8301199900000000    0.4113461900000000    0.8875398100000000 O
   0.5886538100000001    0.1698800100000000    0.1124601900000000 O
   0.1959172000000000    0.6343209500000000    0.6500291000000000 O
   0.3656790500000000    0.8040828000000000    0.3499709000000000 O
   0.1207029500000000    0.2328439000000000    0.1597895500000000 O
   0.7671561000000000    0.8792970500000000    0.8402104500000001 O
   0.8755155300000000    0.7453432900000000    0.3371714900000000 O
   0.2546567100000000    0.1244844700000000    0.6628285100000000 O
