Ba3 Nb2 P4 O18
1.0
   4.9837059999999997    0.0000000000000000    0.0000000000000000
   1.7134320000000001    8.8029670000000007    0.0000000000000000
   1.5968380000000000    0.2465260000000000    9.4107199999999995
Ba Nb P O
3 2 4 18
direct
   0.9688150000000000    0.7341529999999999    0.0933060000000000 Ba
   0.5000000000000000    0.5000000000000000    0.5000000000000000 Ba
   0.0311850000000000    0.2658470000000000    0.9066940000000000 Ba
   0.7309900000000000    0.1200890000000000    0.2717380000000000 Nb
   0.2690100000000000    0.8799110000000000    0.7282620000000000 Nb
   0.8239870000000000    0.6167330000000000    0.7787790000000000 P
   0.7080880000000001    0.1314370000000000    0.6396970000000000 P
   0.2919120000000000    0.8685630000000000    0.3603030000000000 P
   0.1760130000000000    0.3832670000000000    0.2212210000000000 P
   0.5695820000000000    0.9904750000000000    0.6410610000000000 O
   0.0002200000000000    0.5022030000000000    0.3228400000000000 O
   0.7311100000000000    0.0747110000000000    0.0902630000000000 O
   0.2409580000000000    0.8072340000000000    0.5143620000000000 O
   0.9673110000000000    0.7569040000000000    0.7889860000000000 O
   0.9925389999999999    0.0732610000000000    0.6918890000000000 O
   0.4487580000000000    0.3182000000000000    0.2845190000000000 O
   0.2431670000000000    0.4431590000000000    0.0700320000000000 O
   0.2688900000000000    0.9252890000000000    0.9097370000000000 O
   0.4304180000000000    0.0095250000000000    0.3589390000000000 O
   0.4587590000000000    0.7446290000000000    0.2617440000000000 O
   0.7590420000000000    0.1927660000000000    0.4856380000000000 O
   0.0326890000000000    0.2430960000000000    0.2110140000000000 O
   0.0074610000000000    0.9267390000000000    0.3081110000000000 O
   0.7568330000000000    0.5568410000000000    0.9299680000000000 O
   0.9997800000000000    0.4977970000000000    0.6771600000000000 O
   0.5412410000000000    0.2553710000000000    0.7382560000000000 O
   0.5512420000000000    0.6818000000000000    0.7154810000000000 O
