Na6 V2 O8
1.0
   6.9908692500000003    0.0000000000000000    0.0000000000000000
   0.0000000000000000    6.0472697899999996    0.0000000000000000
   0.0000000000000000    0.0000000000000000    5.4909983899999997
Na V O
6 2 8
direct
   0.0000000000000000    0.6540462700000000    0.4879409800000000 Na
   0.7552063300000000    0.8256188300000000    0.9900502300000000 Na
   0.7447936700000000    0.1743811700000000    0.4900502300000000 Na
   0.5000000000000000    0.3459537300000000    0.9879409800000000 Na
   0.2552063300000000    0.1743811700000000    0.4900502300000000 Na
   0.2447936700000000    0.8256188300000000    0.9900502300000000 Na
   0.0000000000000000    0.3235374600000000    0.0001204400000000 V
   0.5000000000000000    0.6764625399999999    0.5001204400000000 V
   0.0000000000000000    0.5961725900000000    0.9021822600000000 O
   0.0000000000000000    0.3198111400000000    0.3136483700000000 O
   0.7950232400000000    0.1882840000000000    0.9003697500000000 O
   0.7049767600000000    0.8117160000000000    0.4003697500000000 O
   0.5000000000000000    0.6801888600000000    0.8136483700000000 O
   0.5000000000000000    0.4038274100000000    0.4021822600000000 O
   0.2950232400000000    0.8117160000000000    0.4003697500000000 O
   0.2049767600000000    0.1882840000000000    0.9003697500000000 O
