In2 Cu2 W4 O16
1.0
   4.7933414499999998   -5.8320571799999996    0.0145009100000000
   4.7933414499999998    5.8320571799999996    0.0145009100000000
  -0.1689760800000000    0.0000000000000000    4.9989736499999999
In Cu W O
2 2 4 16
direct
   0.8356766799999999    0.1643233200000000    0.2500000000000000 In
   0.1643233200000000    0.8356766799999999    0.7500000000000000 In
   0.3426964800000000    0.6573035200000000    0.2500000000000000 Cu
   0.6573035200000000    0.3426964800000000    0.7500000000000000 Cu
   0.6556295100000000    0.8265787400000000    0.7476919100000000 W
   0.3443704900000000    0.1734212600000000    0.2523080900000000 W
   0.8265787400000000    0.6556295100000000    0.2476919100000000 W
   0.1734212600000000    0.3443704900000000    0.7523080900000000 W
   0.3126244400000000    0.9468847500000001    0.1078252900000000 O
   0.6928559900000000    0.5905762600000000    0.5592362700000000 O
   0.4094237400000000    0.3071440100000000    0.9407637300000000 O
   0.4323430000000000    0.8047833100000000    0.5966195100000000 O
   0.5676570000000000    0.1952166900000000    0.4033804900000000 O
   0.8047833100000000    0.4323430000000000    0.0966195100000000 O
   0.9468847500000001    0.3126244400000000    0.6078252900000000 O
   0.0946075500000000    0.1973413000000000    0.0638914900000000 O
   0.5905762600000000    0.6928559900000000    0.0592362700000000 O
   0.9053924500000000    0.8026586999999999    0.9361085099999999 O
   0.3071440100000000    0.4094237400000000    0.4407637300000000 O
   0.0531152500000000    0.6873755600000000    0.3921747100000000 O
   0.6873755600000000    0.0531152500000000    0.8921747100000000 O
   0.1973413000000000    0.0946075500000000    0.5638914900000001 O
   0.1952166900000000    0.5676570000000000    0.9033804900000000 O
   0.8026586999999999    0.9053924500000000    0.4361085100000000 O
