Cd2 Sn2 O6
1.0
   2.7464946499999998    1.5856896500000000    5.0000293500000002
  -2.7464946499999998    1.5856896599999999    5.0000293500000002
  -0.0000000000000000   -3.1713793099999998    5.0000293500000002
Cd Sn O
2 2 6
direct
   0.6337524700000000    0.6337524700000000    0.6337524700000000 Cd
   0.3662475300000000    0.3662475300000000    0.3662475300000000 Cd
   0.8460208600000000    0.8460208600000000    0.8460208600000000 Sn
   0.1539791400000000    0.1539791400000000    0.1539791400000000 Sn
   0.2134642800000000    0.5558559900000000    0.9623300100000000 O
   0.0376699900000000    0.7865357200000000    0.4441440100000000 O
   0.4441440100000000    0.0376699900000000    0.7865357200000000 O
   0.5558559900000000    0.9623300100000000    0.2134642800000000 O
   0.9623300100000000    0.2134642800000000    0.5558559900000000 O
   0.7865357200000000    0.4441440100000000    0.0376699900000000 O
