Rb2 In4 O7
1.0
   5.6986827000000000    0.0000000000000000    0.0000000000000000
  -2.8493413500000000    4.9352040300000004    0.0000000000000000
   0.0000000000000000    0.0000000000000000    7.4007064600000003
Rb In O
2 4 7
direct
   0.3333330000000000    0.6666670000000000    0.0000000000000000 Rb
   0.6666670000000000    0.3333330000000000    0.0000000000000000 Rb
   0.0000000000000000    0.0000000000000000    0.7222075000000000 In
   0.6666670000000000    0.3333330000000000    0.5000000000000000 In
   0.0000000000000000    0.0000000000000000    0.2777925000000000 In
   0.3333330000000000    0.6666670000000000    0.5000000000000000 In
   0.3624188900000000    0.0000000000000000    0.6681243000000000 O
   0.6375811100000000    0.6375811100000000    0.6681243000000000 O
   0.3624188900000000    0.3624188900000000    0.3318757000000000 O
   1.0000000000000000    0.6375811100000000    0.3318757000000000 O
   0.0000000000000000    0.3624188900000000    0.6681243000000000 O
   0.0000000000000000    0.0000000000000000    0.0000000000000000 O
   0.6375811100000000    0.0000000000000000    0.3318757000000000 O
