Cs8 Mo4 S16
1.0
  10.0689302900000008    0.0000000000000000    0.0000000000000000
   0.0000000000000000    7.1187662999999999    0.0000000000000000
   0.0000000000000000    0.0000000000000000   12.6339522599999992
Cs Mo S
8 4 16
direct
   0.9625275400000000    0.7500000000000000    0.1674394100000000 Cs
   0.5374724600000000    0.2500000000000000    0.6674394100000000 Cs
   0.4625275400000000    0.7500000000000000    0.3325605900000000 Cs
   0.0374724600000000    0.2500000000000000    0.8325605900000000 Cs
   0.6555999300000001    0.7500000000000000    0.8960559600000000 Cs
   0.8444000699999999    0.2500000000000000    0.3960559600000000 Cs
   0.1555999300000000    0.7500000000000000    0.6039440400000000 Cs
   0.3444000700000000    0.2500000000000000    0.1039440400000000 Cs
   0.7478353100000000    0.7500000000000000    0.5777160900000000 Mo
   0.7521646900000000    0.2500000000000000    0.0777160900000000 Mo
   0.2478353100000000    0.7500000000000000    0.9222839100000000 Mo
   0.2521646900000000    0.2500000000000000    0.4222839100000000 Mo
   0.7873167700000000    0.7500000000000000    0.4071063600000000 S
   0.7126832300000000    0.2500000000000000    0.9071063600000000 S
   0.2873167700000000    0.7500000000000000    0.0928936400000000 S
   0.2126832300000000    0.2500000000000000    0.5928936400000000 S
   0.0327429500000000    0.7500000000000000    0.8920241800000001 S
   0.4672570500000000    0.2500000000000000    0.3920241800000000 S
   0.5327429500000000    0.7500000000000000    0.6079758199999999 S
   0.9672570500000000    0.2500000000000000    0.1079758200000000 S
   0.6625293600000000    0.5003551000000001    0.1482937500000000 S
   0.8374706400000000    0.4996449000000000    0.6482937500000000 S
   0.1625293600000000    0.9996448999999999    0.3517062500000000 S
   0.3374706400000000    0.0003551000000000    0.8517062500000000 S
   0.3374706400000000    0.4996449000000000    0.8517062500000000 S
   0.1625293600000000    0.5003551000000001    0.3517062500000000 S
   0.8374706400000000    0.0003551000000000    0.6482937500000000 S
   0.6625293600000000    0.9996448999999999    0.1482937500000000 S
