Rb1 Li1 Zn1 S2
1.0
  -1.9673264300000000    1.9673264300000000    6.6820522000000002
   1.9673264300000000   -1.9673264300000000    6.6820522000000002
   1.9673264300000000    1.9673264300000000   -6.6820522000000002
Rb Li Zn S
1 1 1 2
direct
   0.0000000000000000    0.0000000000000000    0.0000000000000000 Rb
   0.2500000000000000    0.7500000000000000    0.5000000000000000 Li
   0.7500000000000000    0.2500000000000000    0.5000000000000000 Zn
   0.6517904600000000    0.6517904600000000    0.0000000000000000 S
   0.3482095400000000    0.3482095400000000    0.0000000000000000 S
