Ba1 Hf1 P2 O8
1.0
   4.2775680300000003   -2.6606439000000002    0.0107773300000000
   4.2775680300000003    2.6606439000000002    0.0107773300000000
  -0.4685088900000000    0.0000000000000000    7.8852203599999999
Ba Hf P O
1 1 2 8
direct
   0.0000000000000000    0.0000000000000000    0.5000000000000000 Ba
   0.0000000000000000    0.0000000000000000    0.0000000000000000 Hf
   0.3634307900000000    0.3634307900000000    0.2206153400000000 P
   0.6365692100000000    0.6365692100000000    0.7793846600000000 P
   0.7711177700000000    0.2969784700000000    0.8081706100000000 O
   0.2301885100000000    0.2301885100000000    0.0816335300000000 O
   0.3109882100000000    0.3109882100000000    0.4010663900000000 O
   0.6890117900000000    0.6890117900000000    0.5989336100000000 O
   0.7698114900000000    0.7698114900000000    0.9183664700000000 O
   0.2969784700000000    0.7711177700000000    0.8081706100000000 O
   0.7030215300000000    0.2288822300000000    0.1918293900000000 O
   0.2288822300000000    0.7030215300000000    0.1918293900000000 O
