Cs4 Ag4 O4
1.0
  -5.0555065800000003    5.0555065800000003    3.0675097199999999
   5.0555065800000003   -5.0555065800000003    3.0675097199999999
   5.0555065800000003    5.0555065800000003   -3.0675097199999999
Cs Ag O
4 4 4
direct
   0.1932827500000000    0.5000000000000000    0.6932827499999999 Cs
   0.5000000000000000    0.1932827500000000    0.6932827499999999 Cs
   0.8067172500000001    0.5000000000000000    0.3067172500000000 Cs
   0.5000000000000000    0.8067172500000001    0.3067172500000000 Cs
   0.8593115099999999    0.1406884900000000    0.0000000000000000 Ag
   0.1406884900000000    0.8593115099999999    0.0000000000000000 Ag
   0.1406884900000000    0.1406884900000000    0.2813769900000000 Ag
   0.8593115099999999    0.8593115099999999    0.7186230100000000 Ag
   0.2841081300000000    0.0000000000000000    0.2841081300000000 O
   0.0000000000000000    0.2841081300000000    0.2841081300000000 O
   0.0000000000000000    0.7158918700000000    0.7158918700000000 O
   0.7158918700000000    0.0000000000000000    0.7158918700000000 O
