Ba4 Te4 O16
1.0
   5.9679136300000000    0.0000000000000000    0.0000000000000000
   0.0000000000000000   13.6455471599999996    0.0000000000000000
   0.0000000000000000    0.0000000000000000    5.0813101500000002
Ba Te O
4 4 16
direct
   0.0000000000000000    0.1641497700000000    0.2500000000000000 Ba
   0.0000000000000000    0.8358502300000000    0.7500000000000000 Ba
   0.5000000000000000    0.6641497700000000    0.2500000000000000 Ba
   0.5000000000000000    0.3358502300000000    0.7500000000000000 Ba
   0.0000000000000000    0.4326097400000000    0.2500000000000000 Te
   0.0000000000000000    0.5673902600000000    0.7500000000000000 Te
   0.5000000000000000    0.0673902600000000    0.7500000000000000 Te
   0.5000000000000000    0.9326097400000000    0.2500000000000000 Te
   0.2094635500000000    0.3383842100000000    0.3537875900000000 O
   0.2094635500000000    0.6616157900000000    0.8537875900000000 O
   0.1765806000000000    0.4593394700000000    0.9265489200000000 O
   0.1765806000000000    0.5406605300000000    0.4265489200000000 O
   0.3234194000000000    0.0406605300000000    0.4265489200000000 O
   0.3234194000000000    0.9593394700000000    0.9265489200000000 O
   0.2905364500000000    0.1616157900000000    0.8537875900000000 O
   0.2905364500000000    0.8383842100000000    0.3537875900000000 O
   0.7094635500000001    0.1616157900000000    0.6462124100000000 O
   0.7094635500000001    0.8383842100000000    0.1462124100000000 O
   0.6765806000000000    0.0406605300000000    0.0734510800000000 O
   0.6765806000000000    0.9593394700000000    0.5734510800000000 O
   0.8234194000000000    0.4593394700000000    0.5734510800000000 O
   0.8234194000000000    0.5406605300000000    0.0734510800000000 O
   0.7905364499999999    0.3383842100000000    0.1462124100000000 O
   0.7905364499999999    0.6616157900000000    0.6462124100000000 O
