Na4 Zr2 Si8 O22
1.0
   5.5401866999999996   -5.0804934599999996   -0.0083801800000000
   5.5401866999999996    5.0804934599999996   -0.0083801800000000
  -1.5800731800000001    0.0000000000000000    8.4866384200000002
Na Zr Si O
4 2 8 22
direct
   0.0758251300000000    0.9241748700000000    0.2500000000000000 Na
   0.9241748700000000    0.0758251300000000    0.7500000000000000 Na
   0.3881629900000000    0.6118370100000000    0.2500000000000000 Na
   0.6118370100000000    0.3881629900000000    0.7500000000000000 Na
   0.0000000000000000    0.5000000000000000    0.0000000000000000 Zr
   0.5000000000000000    0.0000000000000000    0.5000000000000000 Zr
   0.6634669000000000    0.8050727000000000    0.8595954500000000 Si
   0.3365331000000000    0.1949273000000000    0.1404045500000000 Si
   0.8050727000000000    0.6634669000000000    0.3595954500000000 Si
   0.8361900700000000    0.2648196100000000    0.4274138400000000 Si
   0.7351803900000000    0.1638099300000000    0.0725861600000000 Si
   0.1638099300000000    0.7351803900000000    0.5725861600000000 Si
   0.2648196100000000    0.8361900700000000    0.9274138400000000 Si
   0.1949273000000000    0.3365331000000000    0.6404045500000000 Si
   0.2085067300000000    0.3782943500000000    0.1480587100000000 O
   0.6217056500000000    0.7914932700000000    0.3519412900000000 O
   0.7914932700000000    0.6217056500000000    0.8519412900000000 O
   0.3782943500000000    0.2085067300000000    0.6480587100000000 O
   0.1055642700000000    0.3712780100000000    0.8020621600000000 O
   0.6287219900000000    0.8944357300000000    0.6979378400000000 O
   0.8944357300000000    0.6287219900000000    0.1979378400000000 O
   0.3712780100000000    0.1055642700000000    0.3020621600000000 O
   0.8260387800000000    0.2836914900000000    0.9673183500000000 O
   0.7163085100000000    0.1739612200000000    0.5326816500000000 O
   0.1739612200000000    0.7163085100000000    0.0326816500000000 O
   0.2836914900000000    0.8260387800000000    0.4673183500000000 O
   0.7580145000000000    0.4718412600000000    0.4140445700000000 O
   0.5281587400000000    0.2419855000000000    0.0859554300000000 O
   0.1556227900000000    0.8443772100000000    0.7500000000000000 O
   0.8443772100000000    0.1556227900000000    0.2500000000000000 O
   0.2420429300000000    0.0457813100000000    0.0038512100000000 O
   0.9542186900000000    0.7579570700000000    0.4961487900000000 O
   0.7579570700000000    0.9542186900000000    0.9961487900000000 O
   0.0457813100000000    0.2420429300000000    0.5038512100000000 O
   0.4718412600000000    0.7580145000000000    0.9140445699999999 O
   0.2419855000000000    0.5281587400000000    0.5859554300000001 O
