Rb8 In8 Se16
1.0
   5.7737317700000004   -5.7736928799999996   -0.0013733400000000
   5.7737317700000004    5.7736928799999996   -0.0013733400000000
  -2.8728989899999999    0.0000000000000000   16.0165423900000015
Rb In Se
8 8 16
direct
   0.2206376300000000    0.8476517200000000    0.3910559900000000 Rb
   0.3460630100000000    0.2197251100000000    0.8842113800000000 Rb
   0.2197251100000000    0.3460630100000000    0.3842113800000000 Rb
   0.6539369900000001    0.7802748900000001    0.1157886200000000 Rb
   0.8476517200000000    0.2206376300000000    0.8910559900000000 Rb
   0.7793623700000000    0.1523482800000000    0.6089440100000000 Rb
   0.1523482800000000    0.7793623700000000    0.1089440100000000 Rb
   0.7802748900000001    0.6539369900000001    0.6157886200000000 Rb
   0.0858519200000000    0.7102172400000000    0.8396999400000000 In
   0.2897827600000000    0.9141480800000000    0.6603000600000000 In
   0.9141480800000000    0.2897827600000000    0.1603000600000000 In
   0.7102172400000000    0.0858519200000000    0.3396999400000000 In
   0.2900420500000000    0.4158066800000000    0.6612882500000000 In
   0.5841933200000000    0.7099579499999999    0.8387117500000000 In
   0.7099579499999999    0.5841933200000000    0.3387117500000000 In
   0.4158066800000000    0.2900420500000000    0.1612882500000000 In
   0.4214310800000000    0.5785689200000000    0.2500000000000000 Se
   0.5785689200000000    0.4214310800000000    0.7500000000000000 Se
   0.9531317700000000    0.0468682300000000    0.2500000000000000 Se
   0.0468682300000000    0.9531317700000000    0.7500000000000000 Se
   0.4217760000000000    0.0469829400000000    0.2508757400000000 Se
   0.9530170600000000    0.5782240000000000    0.2491242600000000 Se
   0.5782240000000000    0.9530170600000000    0.7491242600000000 Se
   0.0469829400000000    0.4217760000000000    0.7508757400000000 Se
   0.7373021700000000    0.8591208000000000    0.4398098200000000 Se
   0.1408792000000000    0.2626978300000000    0.0601901800000000 Se
   0.2626978300000000    0.1408792000000000    0.5601901800000000 Se
   0.2636730600000000    0.6389700000000000    0.5602241700000000 Se
   0.6389700000000000    0.2636730600000000    0.0602241700000000 Se
   0.7363269400000000    0.3610300000000000    0.4397758300000000 Se
   0.3610300000000000    0.7363269400000000    0.9397758300000000 Se
   0.8591208000000000    0.7373021700000000    0.9398098200000000 Se
