Sr2 Mg1 Te1 O6
1.0
   4.8541414700000001   -2.7955447900000001   -0.0089289000000000
   4.8541414700000001    2.7955447900000001   -0.0089289000000000
  -3.2770495099999999    0.0000000000000000    4.5877404600000000
Sr Mg Te O
2 1 1 6
direct
   0.7499981700000000    0.7499981700000000    0.7470641300000000 Sr
   0.2500018300000000    0.2500018300000000    0.2529358700000000 Sr
   0.0000000000000000    0.0000000000000000    0.5000000000000000 Mg
   0.5000000000000000    0.5000000000000000    0.0000000000000000 Te
   0.2584861400000000    0.2584861400000000    0.8125283900000000 O
   0.7415138600000000    0.7415138600000000    0.1874716100000000 O
   0.2857059200000000    0.7714758500000000    0.2689339800000000 O
   0.2285241500000000    0.7142940800000001    0.7310660200000000 O
   0.7142940800000001    0.2285241500000000    0.7310660200000000 O
   0.7714758500000000    0.2857059200000000    0.2689339800000000 O
