Na8 Si2 O8
1.0
   5.5270826299999998   -0.0077343800000000    0.0043360900000000
   2.1004954200000001    5.1124835400000004    0.0065514500000000
   2.6201721000000000    0.3303070700000000    7.9288262600000001
Na Si O
8 2 8
direct
   0.9815205400000000    0.2327354900000000    0.0630155500000000 Na
   0.4521906500000000    0.7360568300000000    0.1076697900000000 Na
   0.8998380900000000    0.7651342400000000    0.3277268200000000 Na
   0.2635580400000000    0.7435722900000000    0.5168607800000000 Na
   0.7364419600000000    0.2564277100000000    0.4831392200000000 Na
   0.5478093500000000    0.2639431700000000    0.8923302100000000 Na
   0.0184794600000000    0.7672645100000000    0.9369844500000000 Na
   0.1001619100000000    0.2348657600000000    0.6722731800000000 Na
   0.3428635800000000    0.2232427100000000    0.2525230000000000 Si
   0.6571364200000001    0.7767572900000000    0.7474769999999999 Si
   0.3471664900000000    0.9608491300000001    0.8540148800000000 O
   0.7918985900000000    0.5341317300000000    0.8746837600000000 O
   0.2081014100000000    0.4658682700000000    0.1253162400000000 O
   0.8500342100000000    0.9612773999999999    0.6943567500000000 O
   0.1499657900000000    0.0387226000000000    0.3056432500000000 O
   0.6521703100000000    0.6485364600000000    0.5841543400000000 O
   0.6528335100000000    0.0391508700000000    0.1459851200000000 O
   0.3478296900000000    0.3514635400000000    0.4158456600000000 O
