Sr4 Mg2 Ge4 O14
1.0
   8.1925628600000007    0.0000000000000000    0.0000000000000000
   0.0000000000000000    8.1925628600000007    0.0000000000000000
   0.0000000000000000    0.0000000000000000    5.3330880199999999
Sr Mg Ge O
4 2 4 14
direct
   0.3348628800000000    0.8348628800000000    0.4911127400000000 Sr
   0.6651371200000000    0.1651371200000000    0.4911127400000000 Sr
   0.1651371200000000    0.3348628800000000    0.5088872600000000 Sr
   0.8348628800000000    0.6651371200000000    0.5088872600000000 Sr
   0.0000000000000000    0.0000000000000000    0.0000000000000000 Mg
   0.5000000000000000    0.5000000000000000    0.0000000000000000 Mg
   0.1436614500000000    0.6436614500000000    0.0497084800000000 Ge
   0.8563385500000000    0.3563385500000000    0.0497084800000000 Ge
   0.3563385500000000    0.1436614500000000    0.9502915199999999 Ge
   0.6436614500000000    0.8563385500000000    0.9502915199999999 Ge
   0.0000000000000000    0.5000000000000000    0.1898710300000000 O
   0.0822653600000000    0.8245279700000000    0.2094479500000000 O
   0.3245279700000000    0.5822653600000000    0.2094479500000000 O
   0.6754720300000000    0.4177346400000000    0.2094479500000000 O
   0.9177346400000000    0.1754720300000000    0.2094479500000000 O
   0.3618809900000000    0.1381190100000000    0.2796973200000000 O
   0.6381190100000000    0.8618809900000000    0.2796973200000000 O
   0.1381190100000000    0.6381190100000000    0.7203026800000000 O
   0.8618809900000000    0.3618809900000000    0.7203026800000000 O
   0.1754720300000000    0.0822653600000000    0.7905520500000000 O
   0.4177346400000000    0.3245279700000000    0.7905520500000000 O
   0.5822653600000000    0.6754720300000000    0.7905520500000000 O
   0.8245279700000000    0.9177346400000000    0.7905520500000000 O
   0.5000000000000000    0.0000000000000000    0.8101289699999999 O
