Mg2 Sb4 O12
1.0
   4.6785124600000003    0.0000000000000000    0.0000000000000000
   0.0000000000000000    4.6785124600000003    0.0000000000000000
   0.0000000000000000    0.0000000000000000    9.3150721900000004
Mg Sb O
2 4 12
direct
   0.0000000000000000    0.0000000000000000    0.0000000000000000 Mg
   0.5000000000000000    0.5000000000000000    0.5000000000000000 Mg
   0.5000000000000000    0.5000000000000000    0.8325260600000000 Sb
   0.0000000000000000    0.0000000000000000    0.3325260600000000 Sb
   0.5000000000000000    0.5000000000000000    0.1674739400000000 Sb
   0.0000000000000000    0.0000000000000000    0.6674739400000000 Sb
   0.6974179800000000    0.6974179800000000    0.6710025400000000 O
   0.3025820200000000    0.3025820200000000    0.6710025400000000 O
   0.6974179800000000    0.6974179800000000    0.3289974600000000 O
   0.1974179800000000    0.8025820200000000    0.1710025400000000 O
   0.8025820200000000    0.1974179800000000    0.1710025400000000 O
   0.8025820200000000    0.1974179800000000    0.8289974600000000 O
   0.3091886000000000    0.3091886000000000    0.0000000000000000 O
   0.1908114000000000    0.8091886000000000    0.5000000000000000 O
   0.8091886000000000    0.1908114000000000    0.5000000000000000 O
   0.6908114000000000    0.6908114000000000    0.0000000000000000 O
   0.3025820200000000    0.3025820200000000    0.3289974600000000 O
   0.1974179800000000    0.8025820200000000    0.8289974600000000 O
