Na1 Nb4 Bi5 O18
1.0
   2.7435011800000000  -12.5385415099999999    0.0082842000000000
   2.7435011800000000   12.5385415099999999    0.0082842000000000
  -0.0106935200000000    0.0000000000000000    5.5404419799999998
Na Nb Bi O
1 4 5 18
direct
   0.7380061100000000    0.7380061100000000    0.4780169300000000 Na
   0.6654831800000000    0.8310786999999999    0.9446729500000000 Nb
   0.8310786999999999    0.6654831800000000    0.9446729500000000 Nb
   0.3274154800000000    0.1606591900000000    0.4509870600000000 Nb
   0.1606591900000000    0.3274154800000000    0.4509870600000000 Nb
   0.4822556600000000    0.0832822500000000    0.0312497000000000 Bi
   0.0832822500000000    0.4822556600000000    0.0312497000000000 Bi
   0.5273236400000000    0.9275136400000000    0.5301136100000000 Bi
   0.9275136400000000    0.5273236400000000    0.5301136100000000 Bi
   0.2450680100000000    0.2450680100000000    0.9997309700000000 Bi
   0.5958619200000000    0.4726278000000000    0.2143112200000000 O
   0.4726278000000000    0.5958619200000000    0.2143112200000000 O
   0.3925084300000000    0.5201518800000000    0.7224680900000000 O
   0.5201518800000000    0.3925084300000000    0.7224680900000000 O
   0.5151931300000000    0.8291708900000000    0.9427571400000000 O
   0.8291708900000000    0.5151931300000000    0.9427571400000000 O
   0.4897769600000000    0.1765873700000000    0.4282102800000000 O
   0.1765873700000000    0.4897769600000000    0.4282102800000000 O
   0.1467819000000000    0.9736258000000000    0.1247895300000000 O
   0.9736258000000000    0.1467819000000000    0.1247895300000000 O
   0.8525464100000000    0.0357251100000000    0.6310898200000000 O
   0.0357251100000000    0.8525464100000000    0.6310898200000000 O
   0.8343818200000001    0.8343818200000001    0.9065607700000000 O
   0.1672040800000000    0.1672040800000000    0.4068690800000000 O
   0.2607476000000000    0.7640011200000000    0.2577767700000000 O
   0.7640011200000000    0.2607476000000000    0.2577767700000000 O
   0.7437516400000000    0.2412702800000000    0.7561849500000000 O
   0.2412702800000000    0.7437516400000000    0.7561849500000000 O
