Nb4 Bi4 Pb2 O18
1.0
  12.5633228500000005   -2.7940038399999998    0.0000000000000000
  12.5633228500000005    2.7940038399999998    0.0000000000000000
   0.0000000000000000    0.0000000000000000    5.5989350499999997
Nb Bi Pb O
4 4 2 18
direct
   0.1646784900000000    0.6656508700000000    0.7808793500000000 Nb
   0.3343491300000000    0.8353215100000000    0.7808793500000000 Nb
   0.6656508700000000    0.1646784900000000    0.2808793500000000 Nb
   0.8353215100000000    0.3343491300000000    0.2808793500000000 Nb
   0.9177468000000000    0.4836539400000000    0.6935758500000000 Bi
   0.4836539400000000    0.9177468000000000    0.1935758500000000 Bi
   0.0822532000000000    0.5163460600000001    0.1935758500000000 Bi
   0.5163460600000001    0.0822532000000000    0.6935758500000000 Bi
   0.2500556200000000    0.7499443800000000    0.2562824900000000 Pb
   0.7499443800000000    0.2500556200000000    0.7562824900000000 Pb
   0.1685959500000000    0.5140663700000000    0.7989440300000000 O
   0.5438470800000000    0.5917590100000000    0.5222266000000000 O
   0.1263626200000000    0.0505803000000000    0.0802733800000000 O
   0.8314040500000000    0.4859336300000000    0.2989440300000000 O
   0.2346815100000000    0.2613827500000000    0.4738355100000000 O
   0.8046824700000000    0.1953175300000000    0.3082490400000000 O
   0.5140663700000000    0.1685959500000000    0.2989440300000000 O
   0.0505803000000000    0.1263626200000000    0.5802733799999999 O
   0.4082409900000000    0.4561529200000000    0.5222266000000000 O
   0.7653184900000000    0.7386172500000000    0.9738355100000000 O
   0.9494197000000000    0.8736373800000000    0.0802733800000000 O
   0.2613827500000000    0.2346815100000000    0.9738355100000000 O
   0.4859336300000000    0.8314040500000000    0.7989440300000000 O
   0.7386172500000000    0.7653184900000000    0.4738355100000000 O
   0.8736373800000000    0.9494197000000000    0.5802733799999999 O
   0.4561529200000000    0.4082409900000000    0.0222266000000000 O
   0.1953175300000000    0.8046824700000000    0.8082490400000000 O
   0.5917590100000000    0.5438470800000000    0.0222266000000000 O
