Na12 Ga4 S12
1.0
   7.1044715099999998    0.0000000000000000    0.0152252500000000
   0.0000000000000000    6.8718819000000000    0.0000000000000000
  -6.9845949300000001    0.0000000000000000   12.5549294200000006
Na Ga S
12 4 12
direct
   0.0647959700000000    0.0345043300000000    0.2898941900000000 Na
   0.9352040300000000    0.5345043300000000    0.2101058100000000 Na
   0.9352040300000000    0.9654956700000000    0.7101058099999999 Na
   0.0647959700000000    0.4654956700000000    0.7898941900000001 Na
   0.2718820700000000    0.9976201300000000    0.1098773300000000 Na
   0.7281179300000000    0.4976201300000000    0.3901226700000000 Na
   0.7281179300000000    0.0023798700000000    0.8901226700000000 Na
   0.2718820700000000    0.5023798700000000    0.6098773300000000 Na
   0.6902706900000000    0.9979975300000000    0.3974971300000000 Na
   0.3097293100000000    0.4979975300000000    0.1025028700000000 Na
   0.3097293100000000    0.0020024700000000    0.6025028700000000 Na
   0.6902706900000000    0.5020024700000000    0.8974971300000000 Na
   0.3322987000000000    0.6436302500000000    0.4175090000000000 Ga
   0.6677013000000001    0.1436302500000000    0.0824910000000000 Ga
   0.6677013000000001    0.3563697500000000    0.5824910000000000 Ga
   0.3322987000000000    0.8563697500000000    0.9175090000000000 Ga
   0.6493791700000000    0.8037488400000000    0.0714166200000000 S
   0.3506208300000000    0.3037488400000000    0.4285833800000000 S
   0.3506208300000000    0.1962511600000000    0.9285833800000000 S
   0.6493791700000000    0.6962511600000000    0.5714166200000000 S
   0.6566509200000000    0.2441599400000000    0.2278962600000000 S
   0.3433490800000000    0.7441599400000000    0.2721037400000000 S
   0.3433490800000000    0.7558400600000000    0.7721037400000000 S
   0.6566509200000000    0.2558400600000000    0.7278962600000000 S
   0.0485711400000000    0.7580152100000001    0.4276415800000000 S
   0.9514288600000000    0.2580152100000000    0.0723584200000000 S
   0.9514288600000000    0.2419847900000000    0.5723584200000000 S
   0.0485711400000000    0.7419847899999999    0.9276415800000000 S
