Cs12 V4 S16
1.0
   9.6487715400000003    0.0000000000000000    0.0000000000000000
   0.0000000000000000   11.3916314599999993    0.0000000000000000
   0.0000000000000000    0.0000000000000000    9.6726480899999991
Cs V S
12 4 16
direct
   0.5447963500000000    0.9596109100000000    0.2077955700000000 Cs
   0.0447963500000000    0.5403890900000000    0.2922044300000000 Cs
   0.4552036500000000    0.4596109100000000    0.7922044300000000 Cs
   0.9552036500000000    0.0403890900000000    0.7077955700000000 Cs
   0.4552036500000000    0.0403890900000000    0.7922044300000000 Cs
   0.9552036500000000    0.4596109100000000    0.7077955700000000 Cs
   0.5447963500000000    0.5403890900000000    0.2077955700000000 Cs
   0.0447963500000000    0.9596109100000000    0.2922044300000000 Cs
   0.6488740600000000    0.2500000000000000    0.4112473900000000 Cs
   0.1488740600000000    0.2500000000000000    0.0887526100000000 Cs
   0.3511259400000000    0.7500000000000000    0.5887526100000000 Cs
   0.8511259400000000    0.7500000000000000    0.9112473900000000 Cs
   0.7231618100000000    0.2500000000000000    0.9823894900000000 V
   0.2231618100000000    0.2500000000000000    0.5176105100000000 V
   0.2768381900000000    0.7500000000000000    0.0176105100000000 V
   0.7768381900000000    0.7500000000000000    0.4823894900000000 V
   0.8305189900000000    0.4065624000000000    0.0471535700000000 S
   0.3305189900000000    0.0934376000000000    0.4528464300000000 S
   0.1694810100000000    0.9065624000000000    0.9528464300000000 S
   0.6694810100000000    0.5934376000000000    0.5471535700000000 S
   0.1694810100000000    0.5934376000000000    0.9528464300000000 S
   0.6694810100000000    0.9065624000000000    0.5471535700000000 S
   0.8305189900000000    0.0934376000000000    0.0471535700000000 S
   0.3305189900000000    0.4065624000000000    0.4528464300000000 S
   0.5154513500000000    0.2500000000000000    0.0669113900000000 S
   0.0154513500000000    0.2500000000000000    0.4330886100000000 S
   0.4845486500000000    0.7500000000000000    0.9330886100000000 S
   0.9845486500000000    0.7500000000000000    0.5669113900000000 S
   0.7106648300000000    0.2500000000000000    0.7598497200000000 S
   0.2106648300000000    0.2500000000000000    0.7401502800000000 S
   0.2893351700000000    0.7500000000000000    0.2401502800000000 S
   0.7893351700000000    0.7500000000000000    0.2598497200000000 S
