Ba3 Nb2 Zn1 O9
1.0
   5.7907283700000001    0.0000000000000000    0.0000000000000000
  -2.8953641900000000    5.0149176200000003    0.0000000000000000
   0.0000000000000000    0.0000000000000000    7.1179530499999997
Ba Nb Zn O
3 2 1 9
direct
   0.6666670000000000    0.3333330000000000    0.3378845500000000 Ba
   0.3333330000000000    0.6666670000000000    0.6621154500000000 Ba
   0.0000000000000000    0.0000000000000000    0.0000000000000000 Ba
   0.3333330000000000    0.6666670000000000    0.1777989500000000 Nb
   0.6666670000000000    0.3333330000000000    0.8222010500000000 Nb
   0.0000000000000000    0.0000000000000000    0.5000000000000000 Zn
   0.8304895200000000    0.1695104800000000    0.6721941600000000 O
   0.8304895200000000    0.6609790500000000    0.6721941600000000 O
   0.3390209500000000    0.1695104800000000    0.6721941600000000 O
   0.6609790500000000    0.8304895200000000    0.3278058400000000 O
   0.1695104800000000    0.3390209500000000    0.3278058400000000 O
   0.1695104800000000    0.8304895200000000    0.3278058400000000 O
   0.5000000000000000    0.0000000000000000    0.0000000000000000 O
   0.0000000000000000    0.5000000000000000    0.0000000000000000 O
   0.5000000000000000    0.5000000000000000    0.0000000000000000 O
