Sn4 P4 Se12
1.0
   6.8245624400000002    0.0000000000000000   -0.0005719600000000
   0.0000000000000000    7.6157448399999996    0.0000000000000000
  -6.5571287500000004    0.0000000000000000    9.4280629200000003
Sn P Se
4 4 12
direct
   0.7972829900000000    0.6189810200000000    0.7654910600000000 Sn
   0.2027170100000000    0.1189810200000000    0.7345089400000000 Sn
   0.7972829900000000    0.8810189800000000    0.2654910600000000 Sn
   0.2027170100000000    0.3810189800000000    0.2345089400000000 Sn
   0.8705154800000000    0.3931253100000000    0.4347327000000000 P
   0.8705154800000000    0.1068746900000000    0.9347327000000000 P
   0.1294845200000000    0.8931253100000000    0.0652673000000000 P
   0.1294845200000000    0.6068746900000000    0.5652673000000000 P
   0.8876781300000000    0.6904616099999999    0.0546921400000000 Se
   0.3866184700000000    0.4882863500000000    0.7751346000000000 Se
   0.7180842400000000    0.2034586800000000    0.0478202800000000 Se
   0.6133815300000000    0.9882863500000000    0.7248654000000000 Se
   0.8876781300000000    0.8095383900000001    0.5546921400000000 Se
   0.1123218700000000    0.3095383900000000    0.9453078600000000 Se
   0.2819157600000000    0.7965413200000000    0.9521797200000000 Se
   0.3866184700000000    0.0117136500000000    0.2751346000000000 Se
   0.2819157600000000    0.7034586800000000    0.4521797200000000 Se
   0.7180842400000000    0.2965413200000000    0.5478202800000000 Se
   0.1123218700000000    0.1904616100000000    0.4453078600000000 Se
   0.6133815300000000    0.5117136500000000    0.2248654000000000 Se
