Cs8 Si8 Se20
1.0
   8.1689895600000000   -8.1442617800000008   -0.0457587400000000
   8.1689895600000000    8.1442617800000008   -0.0457587400000000
  -2.0953252999999998    0.0000000000000000    9.4365148500000000
Cs Si Se
8 8 20
direct
   0.2936986200000000    0.0197901400000000    0.3683078000000000 Cs
   0.9802098600000000    0.7063013800000000    0.1316922000000000 Cs
   0.7063013800000000    0.9802098600000000    0.6316922000000000 Cs
   0.0197901400000000    0.2936986200000000    0.8683078000000000 Cs
   0.4504291600000000    0.2913305900000000    0.8782499200000000 Cs
   0.7086694100000001    0.5495708400000000    0.6217500800000000 Cs
   0.5495708400000000    0.7086694100000001    0.1217500800000000 Cs
   0.2913305900000000    0.4504291600000000    0.3782499200000000 Cs
   0.6397721200000001    0.2310061000000000    0.3840860800000000 Si
   0.7689939000000000    0.3602278800000000    0.1159139200000000 Si
   0.3602278800000000    0.7689939000000000    0.6159139200000000 Si
   0.2310061000000000    0.6397721200000001    0.8840860800000000 Si
   0.2312732900000000    0.9662436300000000    0.8896081400000000 Si
   0.0337563700000000    0.7687267100000000    0.6103918600000000 Si
   0.7687267100000000    0.0337563700000000    0.1103918600000000 Si
   0.9662436300000000    0.2312732900000000    0.3896081400000000 Si
   0.2522926400000000    0.1344469000000000    0.0319521600000000 Se
   0.8655531000000000    0.7477073600000000    0.4680478400000000 Se
   0.7477073600000000    0.8655531000000000    0.9680478400000000 Se
   0.1344469000000000    0.2522926400000000    0.5319521600000000 Se
   0.5071815000000000    0.2531896700000000    0.5254918800000000 Se
   0.7468103300000000    0.4928185000000000    0.9745081200000000 Se
   0.4928185000000000    0.7468103300000000    0.4745081200000000 Se
   0.2531896700000000    0.5071815000000000    0.0254918800000000 Se
   0.3826487800000000    0.9500757000000000    0.7557440300000000 Se
   0.0499243000000000    0.6173512200000000    0.7442559700000000 Se
   0.6173512200000000    0.0499243000000000    0.2442559700000000 Se
   0.9500757000000000    0.3826487800000000    0.2557440300000000 Se
   0.2519012100000000    0.8194931500000000    0.0298927000000000 Se
   0.1805068500000000    0.7480987900000000    0.4701073000000000 Se
   0.7480987900000000    0.1805068500000000    0.9701073000000000 Se
   0.8194931500000000    0.2519012100000000    0.5298927000000000 Se
   0.0494529200000000    0.9505470800000000    0.7500000000000000 Se
   0.9505470800000000    0.0494529200000000    0.2500000000000000 Se
   0.6183171400000000    0.3816828600000000    0.2500000000000000 Se
   0.3816828600000000    0.6183171400000000    0.7500000000000000 Se
