Cs4 Al4 B4 O14
1.0
   6.7159865700000001    0.0000000000000000    0.0157646500000000
   0.0000000000000000    7.0639308700000001    0.0000000000000000
  -4.0791720299999996    0.0000000000000000    8.7890090900000004
Cs Al B O
4 4 4 14
direct
   0.2214334300000000    0.8634023700000000    0.3776306700000000 Cs
   0.7785665700000000    0.3634023700000000    0.1223693300000000 Cs
   0.7785665700000000    0.1365976300000000    0.6223693300000001 Cs
   0.2214334300000000    0.6365976300000000    0.8776306699999999 Cs
   0.7615297599999999    0.6233098000000000    0.4623677200000000 Al
   0.2384702400000000    0.1233098000000000    0.0376322800000000 Al
   0.2384702400000000    0.3766902000000000    0.5376322800000000 Al
   0.7615297599999999    0.8766902000000000    0.9623677200000000 Al
   0.6476467000000000    0.8890027600000000    0.2251094500000000 B
   0.3523533000000000    0.3890027600000000    0.2748905500000000 B
   0.3523533000000000    0.1109972400000000    0.7748905500000000 B
   0.6476467000000000    0.6109972400000000    0.7251094500000000 B
   0.7429833900000000    0.8482610100000000    0.3789407900000000 O
   0.2570166100000000    0.3482610100000000    0.1210592100000000 O
   0.2570166100000000    0.1517389900000000    0.6210592100000000 O
   0.7429833900000000    0.6517389900000000    0.8789407900000000 O
   0.7465822200000000    0.8230100100000000    0.1354515000000000 O
   0.2534177800000000    0.3230100100000000    0.3645485000000000 O
   0.2534177800000000    0.1769899900000000    0.8645485000000001 O
   0.7465822200000000    0.6769899900000000    0.6354514999999999 O
   0.0000000000000000    0.5000000000000000    0.5000000000000000 O
   0.0000000000000000    0.0000000000000000    0.0000000000000000 O
   0.4621727300000000    0.9970564500000000    0.1676290800000000 O
   0.5378272700000000    0.4970564500000000    0.3323709200000000 O
   0.5378272700000000    0.0029435500000000    0.8323709200000000 O
   0.4621727300000000    0.5029435500000000    0.6676290800000000 O
