Bi4 Te4 N4 O24
1.0
   8.1905140299999992    0.0000000000000000    0.0004550000000000
   0.0000000000000000    9.0274949099999997    0.0000000000000000
  -2.9278808700000001    0.0000000000000000    6.6615054499999999
Bi Te N O
4 4 4 24
direct
   0.3033042000000000    0.3082664500000000    0.4835321600000000 Bi
   0.6966958000000000    0.8082664500000000    0.0164678400000000 Bi
   0.6966958000000000    0.6917335500000000    0.5164678400000000 Bi
   0.3033042000000000    0.1917335500000000    0.9835321600000000 Bi
   0.6531773900000000    0.4141371700000000    0.9029637900000000 Te
   0.3468226100000000    0.9141371700000001    0.5970362100000000 Te
   0.3468226100000000    0.5858628299999999    0.0970362100000000 Te
   0.6531773900000000    0.0858628300000000    0.4029637900000000 Te
   0.0480940100000000    0.6118332500000000    0.3613102400000000 N
   0.9519059900000000    0.1118332500000000    0.1386897600000000 N
   0.9519059900000000    0.3881667500000000    0.6386897600000000 N
   0.0480940100000000    0.8881667500000000    0.8613102400000000 N
   0.6433446900000001    0.6096898400000000    0.7992280100000000 O
   0.3566553100000000    0.1096898400000000    0.7007719900000000 O
   0.3566553100000000    0.3903101600000000    0.2007719900000000 O
   0.6433446900000001    0.8903101600000000    0.2992280100000000 O
   0.4023502400000000    0.3978645700000000    0.8521628000000000 O
   0.5976497600000000    0.8978645700000000    0.6478372000000000 O
   0.5976497600000000    0.6021354300000000    0.1478372000000000 O
   0.4023502400000000    0.1021354300000000    0.3521628000000000 O
   0.5969839200000000    0.3308952800000000    0.6438641800000000 O
   0.4030160800000000    0.8308952800000000    0.8561358200000000 O
   0.4030160800000000    0.6691047200000000    0.3561358200000000 O
   0.5969839200000000    0.1691047200000000    0.1438641800000000 O
   0.0508804000000000    0.2214473000000000    0.1387104800000000 O
   0.9491196000000000    0.7214473000000000    0.3612895200000000 O
   0.9491196000000000    0.7785527000000000    0.8612895200000000 O
   0.0508804000000000    0.2785527000000000    0.6387104800000000 O
   0.1676256300000000    0.5720540000000000    0.5263685500000000 O
   0.8323743700000000    0.0720540000000000    0.9736314500000000 O
   0.8323743700000000    0.4279460000000000    0.4736314500000000 O
   0.1676256300000000    0.9279460000000000    0.0263685500000000 O
   0.9737606400000000    0.4517077000000000    0.7996731600000000 O
   0.0262393600000000    0.9517077000000000    0.7003268400000000 O
   0.0262393600000000    0.5482923000000000    0.2003268400000000 O
   0.9737606400000000    0.0482923000000000    0.2996731600000000 O
