Sr4 Sc2 Ta2 O12
1.0
   5.6844031900000003    0.0000000000000000   -0.0015489500000000
   0.0000000000000000    5.6953460700000003    0.0000000000000000
  -5.6884534499999999    0.0000000000000000    8.0294591900000007
Sr Sc Ta O
4 2 2 12
direct
   0.2447403100000000    0.4763660600000000    0.2497692300000000 Sr
   0.7552596900000000    0.5236339400000000    0.7502307700000000 Sr
   0.7552596900000000    0.9763660600000000    0.2502307700000000 Sr
   0.2447403100000000    0.0236339400000000    0.7497692300000000 Sr
   0.0000000000000000    0.0000000000000000    0.0000000000000000 Sc
   0.0000000000000000    0.5000000000000000    0.5000000000000000 Sc
   0.5000000000000000    0.0000000000000000    0.5000000000000000 Ta
   0.5000000000000000    0.5000000000000000    0.0000000000000000 Ta
   0.3192254100000000    0.0120094500000000    0.2555892600000000 O
   0.6807745900000000    0.9879905500000000    0.7444107400000000 O
   0.6807745900000000    0.5120094500000000    0.2444107400000000 O
   0.3192254100000000    0.4879905500000000    0.7555892600000000 O
   0.8053069200000000    0.7165448200000000    0.0329315100000000 O
   0.1946930800000000    0.2834551800000000    0.9670684899999999 O
   0.1946930800000000    0.2165448200000000    0.4670684900000000 O
   0.8053069200000000    0.7834551800000000    0.5329315100000001 O
   0.7496181600000000    0.2267246600000000    0.0339556600000000 O
   0.2503818400000000    0.7732753400000000    0.9660443399999999 O
   0.2503818400000000    0.7267246600000000    0.4660443400000000 O
   0.7496181600000000    0.2732753400000000    0.5339556600000001 O
