Hg2 Bi4 S8
1.0
   7.0444532999999998   -2.0117406700000000   -0.0196562200000000
   7.0444532999999998    2.0117406700000000   -0.0196562200000000
  -6.7075454499999996    0.0000000000000000   12.2300362499999995
Hg Bi S
2 4 8
direct
   0.0000000000000000    0.0000000000000000    0.0000000000000000 Hg
   0.0000000000000000    0.0000000000000000    0.5000000000000000 Hg
   0.6519672000000000    0.6519672000000000    0.8581465900000000 Bi
   0.2196093700000000    0.2196093700000000    0.3654547500000000 Bi
   0.3480328000000000    0.3480328000000000    0.1418534100000000 Bi
   0.7803906300000000    0.7803906300000000    0.6345452499999999 Bi
   0.0014784300000000    0.0014784300000000    0.1710895100000000 S
   0.3115905900000000    0.3115905900000000    0.9378553500000000 S
   0.8432108400000000    0.8432108400000000    0.3247642100000000 S
   0.6884094100000000    0.6884094100000000    0.0621446500000000 S
   0.9985215700000000    0.9985215700000000    0.8289104900000001 S
   0.6232154200000000    0.6232154200000000    0.4252454000000000 S
   0.1567891600000000    0.1567891600000000    0.6752357900000000 S
   0.3767845800000000    0.3767845800000000    0.5747546000000000 S
