Zn2 Si2 Ag4 S8
1.0
   6.3255359000000002    0.0000000000000000   -0.0014883900000000
   0.0000000000000000    6.4841664200000002    0.0000000000000000
  -6.2766245999999999    0.0000000000000000    7.8067426600000003
Zn Si Ag S
2 2 4 8
direct
   0.5987881700000000    0.6854735400000000    0.3210407700000000 Zn
   0.5987881700000000    0.3145264600000000    0.8210407700000000 Zn
   0.3549605600000000    0.8171099800000000    0.5745347200000001 Si
   0.3549605600000000    0.1828900200000000    0.0745347200000000 Si
   0.0952789600000000    0.6759593300000000    0.8279837799999999 Ag
   0.0952789600000000    0.3240406700000000    0.3279837800000000 Ag
   0.8562466399999999    0.8468972200000000    0.0765317100000000 Ag
   0.8562466399999999    0.1531027800000000    0.5765317100000000 Ag
   0.4712845700000000    0.8695521500000000    0.0863329300000000 S
   0.4712845700000000    0.1304478500000000    0.5863329300000000 S
   0.2626523800000000    0.6842939800000000    0.3487087000000000 S
   0.2626523800000000    0.3157060200000000    0.8487087000000000 S
   0.0054724600000000    0.8012163200000000    0.5620398100000000 S
   0.0054724600000000    0.1987836800000000    0.0620398100000000 S
   0.6786582600000000    0.6576397000000000    0.8008755800000000 S
   0.6786582600000000    0.3423603000000000    0.3008755800000000 S
