Rb4 Nb2 Cu2 Se8
1.0
   0.0000000000000000    6.8955708500000004   12.1777865500000004
   2.8803046800000001    0.0000000000000000   12.1777865500000004
   2.8803046800000001    6.8955708500000004    0.0000000000000000
Rb Nb Cu Se
4 2 2 8
direct
   0.8207159800000000    0.8207159800000000    0.1792840200000000 Rb
   0.1792840200000000    0.1792840200000000    0.8207159800000000 Rb
   0.0707159800000000    0.0707159800000000    0.4292840200000000 Rb
   0.4292840200000000    0.4292840200000000    0.0707159800000000 Rb
   0.2500000000000000    0.2500000000000000    0.2500000000000000 Nb
   0.0000000000000000    0.0000000000000000    0.0000000000000000 Nb
   0.7500000000000000    0.7500000000000000    0.7500000000000000 Cu
   0.5000000000000000    0.5000000000000000    0.5000000000000000 Cu
   0.7067472700000000    0.4065898000000000    0.0912617100000000 Se
   0.7954022200000000    0.0912617100000000    0.4065898000000000 Se
   0.0912617100000000    0.7954022200000000    0.7067472700000000 Se
   0.4065898000000000    0.7067472700000000    0.7954022200000000 Se
   0.1587382900000000    0.4545977800000000    0.5432527300000000 Se
   0.8434102000000000    0.5432527300000000    0.4545977800000000 Se
   0.4545977800000000    0.1587382900000000    0.8434102000000000 Se
   0.5432527300000000    0.8434102000000000    0.1587382900000000 Se
