Ag16 As8 S16
1.0
   9.4947553300000003    0.0000000000000000   -0.0755890900000000
   0.0000000000000000   12.7997625999999993    0.0000000000000000
  -1.1071442400000000    0.0000000000000000    6.5849116900000002
Ag As S
16 8 16
direct
   0.7587313300000000    0.4071636000000000    0.0697888500000000 Ag
   0.7587313300000000    0.5928364000000000    0.5697888500000000 Ag
   0.9574319400000000    0.0918080800000000    0.7727332000000000 Ag
   0.9574319400000000    0.9081919200000000    0.2727332000000000 Ag
   0.3059555900000000    0.0956873000000000    0.3761663900000000 Ag
   0.3059555900000000    0.9043127000000000    0.8761663900000000 Ag
   0.6444089900000000    0.1058140300000000    0.8702622000000000 Ag
   0.6444089900000000    0.8941859700000000    0.3702622000000000 Ag
   0.4322452200000000    0.3917345600000000    0.5857354000000000 Ag
   0.4322452200000000    0.6082654400000000    0.0857354000000000 Ag
   0.0459233200000000    0.1995689000000000    0.1819832200000000 Ag
   0.0459233200000000    0.8004311000000000    0.6819832200000000 Ag
   0.1387795000000000    0.5321755700000000    0.9015815300000000 Ag
   0.1387795000000000    0.4678244300000000    0.4015815300000000 Ag
   0.0428214000000000    0.3288517600000000    0.7028836400000000 Ag
   0.0428214000000000    0.6711482400000000    0.2028836400000000 Ag
   0.6911759900000000    0.3148753600000000    0.5499250300000000 As
   0.6911759900000000    0.6851246400000000    0.0499250300000000 As
   0.3889155100000000    0.3172047700000000    0.1482566800000000 As
   0.3889155100000000    0.6827952300000000    0.6482566800000000 As
   0.6927588800000000    0.1668056500000000    0.3015680300000000 As
   0.6927588800000000    0.8331943500000000    0.8015680300000000 As
   0.3741095000000000    0.1763217300000000    0.8822999600000000 As
   0.3741095000000000    0.8236782700000000    0.3822999600000000 As
   0.8541108200000000    0.4224277300000000    0.4451273100000000 S
   0.8541108200000000    0.5775722700000000    0.9451273100000001 S
   0.2074023200000000    0.0776213100000000    0.9970310800000000 S
   0.2074023200000000    0.9223786899999999    0.4970310800000000 S
   0.8141823200000000    0.2544467500000000    0.8495526900000000 S
   0.8141823200000000    0.7455532499999999    0.3495526900000000 S
   0.2541289500000000    0.2505762700000000    0.5975196000000000 S
   0.2541289500000000    0.7494237300000000    0.0975196000000000 S
   0.1532049000000000    0.3685355200000000    0.0934787300000000 S
   0.1532049000000000    0.6314644800000000    0.5934787300000000 S
   0.4890979600000000    0.4331663700000000    0.9678395400000001 S
   0.4890979600000000    0.5668336300000000    0.4678395400000000 S
   0.9122851500000000    0.0973222800000000    0.3906519600000000 S
   0.9122851500000000    0.9026777200000000    0.8906519600000000 S
   0.5700264200000000    0.0674799000000000    0.4865129500000000 S
   0.5700264200000000    0.9325201000000000    0.9865129500000001 S
