Sr4 Nb8 O24
1.0
  11.1818181800000005    0.0000000000000000    0.0000000000000000
   0.0000000000000000    7.6983303599999999    0.0000000000000000
   0.0000000000000000    0.0000000000000000    5.6217002300000001
Sr Nb O
4 8 24
direct
   0.4589837100000000    0.2500000000000000    0.0404754600000000 Sr
   0.0410162900000000    0.7500000000000000    0.5404754600000000 Sr
   0.5410162900000000    0.7500000000000000    0.9595245400000000 Sr
   0.9589837100000000    0.2500000000000000    0.4595245400000000 Sr
   0.8582947000000000    0.9956657100000000    0.9619475300000000 Nb
   0.6417053000000000    0.0043342900000000    0.4619475300000000 Nb
   0.1417053000000000    0.0043342900000000    0.0380524700000000 Nb
   0.3582947000000000    0.9956657100000000    0.5380524700000000 Nb
   0.8582947000000000    0.5043342900000000    0.9619475300000000 Nb
   0.6417053000000000    0.4956657100000000    0.4619475300000000 Nb
   0.1417053000000000    0.4956657100000000    0.0380524700000000 Nb
   0.3582947000000000    0.5043342900000000    0.5380524700000000 Nb
   0.8727529600000000    0.7500000000000000    0.8520397300000000 O
   0.6272470400000000    0.2500000000000000    0.3520397300000000 O
   0.1272470400000000    0.2500000000000000    0.1479602700000000 O
   0.3727529600000000    0.7500000000000000    0.6479602700000000 O
   0.8538071600000000    0.2500000000000000    0.0400215100000000 O
   0.6461928400000000    0.7500000000000000    0.5400215100000000 O
   0.1461928400000000    0.7500000000000000    0.9599784900000000 O
   0.3538071600000000    0.2500000000000000    0.4599784900000000 O
   0.2874649500000000    0.4454308700000000    0.8637249800000000 O
   0.2125350500000000    0.5545691300000000    0.3637249800000000 O
   0.7125350499999999    0.5545691300000000    0.1362750200000000 O
   0.7874649500000001    0.4454308700000000    0.6362750200000000 O
   0.5237275900000000    0.0362259400000000    0.7221275100000000 O
   0.9762724100000000    0.9637740600000000    0.2221275100000000 O
   0.4762724100000000    0.9637740600000000    0.2778724900000000 O
   0.0237275900000000    0.0362259400000000    0.7778724900000000 O
   0.0237275900000000    0.4637740600000000    0.7778724900000000 O
   0.4762724100000000    0.5362259400000000    0.2778724900000000 O
   0.9762724100000000    0.5362259400000000    0.2221275100000000 O
   0.5237275900000000    0.4637740600000000    0.7221275100000000 O
   0.2874649500000000    0.0545691300000000    0.8637249800000000 O
   0.2125350500000000    0.9454308700000000    0.3637249800000000 O
   0.7125350499999999    0.9454308700000000    0.1362750200000000 O
   0.7874649500000001    0.0545691300000000    0.6362750200000000 O
