Ca4 V2 Bi2 O12
1.0
   4.4303575899999998   -5.8841518500000003    0.0000000000000000
   4.4303575899999998    5.8841518500000003    0.0000000000000000
   0.0000000000000000    0.0000000000000000    5.5341527499999996
Ca V Bi O
4 2 2 12
direct
   0.3016464100000000    0.0910392800000000    0.7586217900000000 Ca
   0.6983535900000000    0.9089607200000001    0.2586217900000000 Ca
   0.0910392800000000    0.3016464100000000    0.2586217900000000 Ca
   0.9089607200000001    0.6983535900000000    0.7586217900000000 Ca
   0.1847640800000000    0.8152359200000000    0.3051321700000000 V
   0.8152359200000000    0.1847640800000000    0.8051321700000000 V
   0.4074263500000000    0.5925736500000000    0.7395362500000000 Bi
   0.5925736500000000    0.4074263500000000    0.2395362500000000 Bi
   0.6484612300000000    0.6606591000000001    0.0016935000000000 O
   0.1877131800000000    0.8122868200000000    0.9917046300000000 O
   0.4055128000000000    0.9070261700000000    0.4314679000000000 O
   0.5944872000000000    0.0929738300000000    0.9314679000000000 O
   0.6606591000000001    0.6484612300000000    0.5016935000000000 O
   0.0502008100000000    0.9497991900000000    0.4320585700000000 O
   0.3393409000000000    0.3515387700000000    0.0016935000000000 O
   0.3515387700000000    0.3393409000000000    0.5016935000000000 O
   0.9497991900000000    0.0502008100000000    0.9320585700000000 O
   0.8122868200000000    0.1877131800000000    0.4917046300000000 O
   0.9070261700000000    0.4055128000000000    0.9314679000000000 O
   0.0929738300000000    0.5944872000000000    0.4314679000000000 O
