Ba2 La1 Nb1 O6
1.0
   5.2618637000000001   -3.0443154699999999   -0.0099390500000000
   5.2618637000000001    3.0443154699999999   -0.0099390500000000
  -3.5417731799999999    0.0000000000000000    5.0578892900000003
Ba La Nb O
2 1 1 6
direct
   0.2477443800000000    0.2477443800000000    0.2395305900000000 Ba
   0.7522556200000000    0.7522556200000000    0.7604694100000000 Ba
   0.0000000000000000    0.0000000000000000    0.5000000000000000 La
   0.5000000000000000    0.5000000000000000    0.0000000000000000 Nb
   0.7288580099999999    0.7288580099999999    0.3041804700000000 O
   0.2711419900000000    0.2711419900000000    0.6958195300000000 O
   0.6920242000000000    0.2238316300000000    0.1855268000000000 O
   0.7761683700000001    0.3079758000000000    0.8144732000000000 O
   0.3079758000000000    0.7761683700000001    0.8144732000000000 O
   0.2238316300000000    0.6920242000000000    0.1855268000000000 O
