Sc4 Tl2 Cu6 S10
1.0
   1.8665035200000000   -6.7148268800000004    0.0000000000000000
   1.8665035200000000    6.7148268800000004    0.0000000000000000
   0.0000000000000000    0.0000000000000000   15.4224325400000009
Sc Tl Cu S
4 2 6 10
direct
   0.6920331700000000    0.3079668300000000    0.5936996900000000 Sc
   0.3079668300000000    0.6920331700000000    0.4063003100000000 Sc
   0.3079668300000000    0.6920331700000000    0.0936996900000000 Sc
   0.6920331700000000    0.3079668300000000    0.9063003100000000 Sc
   0.5689029300000000    0.4310970700000000    0.2500000000000000 Tl
   0.4310970700000000    0.5689029300000000    0.7500000000000000 Tl
   0.9154257400000000    0.0845742600000000    0.5378254500000000 Cu
   0.0845742600000000    0.9154257400000000    0.4621745500000000 Cu
   0.0845742600000000    0.9154257400000000    0.0378254500000000 Cu
   0.9154257400000000    0.0845742600000000    0.9621745500000000 Cu
   0.8537510500000000    0.1462489500000000    0.2500000000000000 Cu
   0.1462489500000000    0.8537510500000000    0.7500000000000000 Cu
   0.2550940700000000    0.7449059300000000    0.2500000000000000 S
   0.7449059300000000    0.2550940700000000    0.7500000000000000 S
   0.9367935900000000    0.0632064100000000    0.1144551100000000 S
   0.0632064100000000    0.9367935900000000    0.8855448900000000 S
   0.0632064100000000    0.9367935900000000    0.6144551100000000 S
   0.9367935900000000    0.0632064100000000    0.3855448900000000 S
   0.6745136900000001    0.3254863100000000    0.0709236900000000 S
   0.3254863100000000    0.6745136900000001    0.9290763100000000 S
   0.3254863100000000    0.6745136900000001    0.5709236900000000 S
   0.6745136900000001    0.3254863100000000    0.4290763100000000 S
