Cs3 As5 O9
1.0
   8.4657732699999997    0.0000000000000000    0.0000000000000000
  -4.2328866300000003    7.3315748400000000    0.0000000000000000
   0.0000000000000000    0.0000000000000000    6.0726933599999997
Cs As O
3 5 9
direct
   0.6260664400000000    0.6260664400000000    0.9992505100000000 Cs
   0.0000000000000000    0.3739335600000000    0.9992505100000000 Cs
   0.3739335600000000    0.0000000000000000    0.9992505100000000 Cs
   0.6666670000000000    0.3333330000000000    0.4694186000000000 As
   0.3333330000000000    0.6666670000000000    0.4694186000000000 As
   0.2529871100000000    0.2529871100000000    0.4972061400000000 As
   0.0000000000000000    0.7470128900000000    0.4972061400000000 As
   0.7470128900000000    0.0000000000000000    0.4972061400000000 As
   0.7253611800000000    0.1891615900000000    0.6279332200000000 O
   0.8108384100000000    0.5361995899999999    0.6279332200000000 O
   0.4638004100000000    0.2746388200000000    0.6279332200000000 O
   0.1891615900000000    0.7253611800000000    0.6279332200000000 O
   0.5361995899999999    0.8108384100000000    0.6279332200000000 O
   0.2746388200000000    0.4638004100000000    0.6279332200000000 O
   0.3186944900000000    0.3186944900000000    0.2320971800000000 O
   1.0000000000000000    0.6813055099999999    0.2320971800000000 O
   0.6813055099999999    0.0000000000000000    0.2320971800000000 O
