Cs2 Si1 B4 O9
1.0
   4.6678620300000002   -5.0435397399999999   -0.0319128700000000
   4.6678620300000002    5.0435397399999999   -0.0319128700000000
  -4.6230612600000001    0.0000000000000000    4.8407198400000002
Cs Si B O
2 1 4 9
direct
   0.4774776100000000    0.5225223900000000    0.0000000000000000 Cs
   0.7578274600000000    0.2421725400000000    0.5000000000000000 Cs
   0.2433234300000000    0.7566765700000000    0.5000000000000000 Si
   0.1458397200000000    0.9782876700000001    0.8926747200000000 B
   0.0217123300000000    0.8541602800000000    0.1073252800000000 B
   0.1674687900000000    0.2814109400000000    0.3003079200000000 B
   0.7185890600000000    0.8325312100000000    0.6996920800000000 B
   0.0297839600000000    0.7096887700000000    0.2125690000000000 O
   0.2903112300000000    0.9702160399999999    0.7874310000000000 O
   0.4943682600000000    0.8209454800000000    0.5273073100000000 O
   0.1790545200000000    0.5056317400000000    0.4726926900000000 O
   0.8888503200000000    0.9043110200000000    0.6700635300000000 O
   0.0956889800000000    0.1111496800000000    0.3299364700000000 O
   0.2273948600000000    0.2389810200000000    0.1197800100000000 O
   0.7610189800000000    0.7726051400000000    0.8802199900000000 O
   0.1651904800000000    0.8348095200000000    0.0000000000000000 O
