La4 Sc4 S12
1.0
   7.1472421199999996    0.0000000000000000    0.0000000000000000
   0.0000000000000000    9.4974253799999993    0.0000000000000000
   0.0000000000000000    0.0000000000000000    6.4478687499999996
La Sc S
4 4 12
direct
   0.4020417100000000    0.7500000000000000    0.5355622100000000 La
   0.5979582900000000    0.2500000000000000    0.4644377900000000 La
   0.0979582900000000    0.2500000000000000    0.0355622100000000 La
   0.9020417100000000    0.7500000000000000    0.9644377900000000 La
   0.5000000000000000    0.0000000000000000    0.0000000000000000 Sc
   0.5000000000000000    0.5000000000000000    0.0000000000000000 Sc
   0.0000000000000000    0.5000000000000000    0.5000000000000000 Sc
   0.0000000000000000    0.0000000000000000    0.5000000000000000 Sc
   0.1881064900000000    0.5572619700000000    0.8218783500000000 S
   0.8118935100000000    0.0572619700000000    0.1781216500000000 S
   0.3118935100000000    0.0572619700000000    0.3218783500000000 S
   0.6881064900000000    0.5572619700000000    0.6781216500000000 S
   0.1881064900000000    0.9427380300000000    0.8218783500000000 S
   0.8118935100000000    0.4427380300000000    0.1781216500000000 S
   0.3118935100000000    0.4427380300000000    0.3218783500000000 S
   0.6881064900000000    0.9427380300000000    0.6781216500000000 S
   0.4710409300000000    0.2500000000000000    0.8832894600000000 S
   0.5289590700000000    0.7500000000000000    0.1167105400000000 S
   0.0289590700000000    0.7500000000000000    0.3832894600000000 S
   0.9710409300000000    0.2500000000000000    0.6167105400000000 S
