Na4 Mo4 Se4 O22
1.0
   8.3148872699999998   -3.2153566100000002    0.0037410400000000
   8.3148872699999998    3.2153566100000002    0.0037410400000000
  -3.8904207199999998    0.0000000000000000    8.4951728899999992
Na Mo Se O
4 4 4 22
direct
   0.0000000000000000    0.5000000000000000    0.0000000000000000 Na
   0.5000000000000000    0.0000000000000000    0.5000000000000000 Na
   0.2411010500000000    0.7588989500000000    0.2500000000000000 Na
   0.7588989500000000    0.2411010500000000    0.7500000000000000 Na
   0.3848898300000000    0.8212063400000000    0.7259801200000000 Mo
   0.1787936600000000    0.6151101700000000    0.7740198800000000 Mo
   0.6151101700000000    0.1787936600000000    0.2740198800000000 Mo
   0.8212063400000000    0.3848898300000000    0.2259801200000000 Mo
   0.9260908200000000    0.4099252700000000    0.6094087900000000 Se
   0.5900747300000000    0.0739091800000000    0.8905912100000000 Se
   0.0739091800000000    0.5900747300000000    0.3905912100000000 Se
   0.4099252700000000    0.9260908200000000    0.1094087900000000 Se
   0.2906039000000000    0.8238428900000000    0.5256725600000000 O
   0.1761571100000000    0.7093961000000000    0.9743274400000000 O
   0.7093961000000000    0.1761571100000000    0.4743274400000000 O
   0.8238428900000000    0.2906039000000000    0.0256725600000000 O
   0.1439220200000000    0.0730666500000000    0.8102330300000000 O
   0.9269333500000000    0.8560779800000000    0.6897669700000000 O
   0.8560779800000000    0.9269333500000000    0.1897669700000000 O
   0.0730666500000000    0.1439220200000000    0.3102330300000000 O
   0.3796063400000000    0.6203936600000000    0.7500000000000000 O
   0.6203936600000000    0.3796063400000000    0.2500000000000000 O
   0.0309813900000000    0.5165035900000000    0.7674457000000000 O
   0.4834964100000000    0.9690186100000000    0.7325543000000000 O
   0.9690186100000000    0.4834964100000000    0.2325543000000000 O
   0.5165035900000000    0.0309813900000000    0.2674457000000000 O
   0.7287620800000000    0.5123938300000001    0.7053383300000000 O
   0.4876061700000000    0.2712379200000000    0.7946616700000000 O
   0.2712379200000000    0.4876061700000000    0.2946616700000000 O
   0.5123938300000001    0.7287620800000000    0.2053383300000000 O
   0.7739495199999999    0.5831291700000000    0.4729467500000000 O
   0.4168708300000000    0.2260504800000000    0.0270532500000000 O
   0.2260504800000000    0.4168708300000000    0.5270532500000000 O
   0.5831291700000000    0.7739495199999999    0.9729467500000000 O
