Sc2 Cu2 Se4
1.0
   7.0586672799999999   -1.9228110899999999    0.0104402600000000
   7.0586672799999999    1.9228110899999999    0.0104402600000000
  -3.0479250699999998    0.0000000000000000    5.8328905100000004
Sc Cu Se
2 2 4
direct
   0.7587613400000000    0.7587613400000000    0.7676718600000000 Sc
   0.2412386600000000    0.2412386600000000    0.2323281400000000 Sc
   0.4368536100000000    0.4368536100000000    0.1032674400000000 Cu
   0.5631463900000000    0.5631463900000000    0.8967325600000000 Cu
   0.3714532200000000    0.3714532200000000    0.6936859399999999 Se
   0.8736353700000000    0.8736353700000000    0.2217072200000000 Se
   0.6285467800000000    0.6285467800000000    0.3063140600000000 Se
   0.1263646300000000    0.1263646300000000    0.7782927800000000 Se
