Rb12 Na4 Ti4 O16
1.0
  10.7189774700000005    0.0000000000000000    0.0097145700000000
   0.0000000000000000    6.4161751599999999    0.0000000000000000
  -4.1554420399999996    0.0000000000000000   10.0002136999999998
Rb Na Ti O
12 4 4 16
direct
   0.0367133400000000    0.6592603200000000    0.6697259300000000 Rb
   0.3191059100000000    0.1221704600000000    0.3936314400000000 Rb
   0.5437934600000000    0.3880971100000000    0.6892856500000000 Rb
   0.5437934600000000    0.1119028900000000    0.1892856500000000 Rb
   0.0367133400000000    0.8407396800000000    0.1697259300000000 Rb
   0.4562065400000000    0.6119028900000000    0.3107143500000000 Rb
   0.6808940900000000    0.8778295400000000    0.6063685599999999 Rb
   0.9632866600000000    0.1592603200000000    0.8302740700000000 Rb
   0.6808940900000000    0.6221704600000000    0.1063685600000000 Rb
   0.3191059100000000    0.3778295400000000    0.8936314400000001 Rb
   0.9632866600000000    0.3407396800000000    0.3302740700000000 Rb
   0.4562065400000000    0.8880971100000000    0.8107143500000000 Rb
   0.8739875499999999    0.6140018600000000    0.8918809500000000 Na
   0.1260124500000000    0.3859981400000000    0.1081190500000000 Na
   0.8739875499999999    0.8859981400000000    0.3918809500000000 Na
   0.1260124500000000    0.1140018600000000    0.6081190500000000 Na
   0.7590668800000000    0.3630427100000000    0.5137983100000000 Ti
   0.2409331200000000    0.6369572900000000    0.4862016900000000 Ti
   0.2409331200000000    0.8630427100000000    0.9862016900000000 Ti
   0.7590668800000000    0.1369572900000000    0.0137983100000000 Ti
   0.2067607200000000    0.9819071400000000    0.8191290300000000 O
   0.7932392800000000    0.4819071400000000    0.6808709700000000 O
   0.5859243100000000    0.2515025300000000    0.9532337400000001 O
   0.8894175200000000    0.1530558900000000    0.5398121299999999 O
   0.4140756900000000    0.7484974700000000    0.0467662600000000 O
   0.2320988000000000    0.4255839800000000    0.6025981600000000 O
   0.1105824800000000    0.6530558900000000    0.9601878700000001 O
   0.7932392800000000    0.0180928600000000    0.1808709700000000 O
   0.4140756900000000    0.7515025300000000    0.5467662599999999 O
   0.2320988000000000    0.0744160200000000    0.1025981600000000 O
   0.8894175200000000    0.3469441100000000    0.0398121300000000 O
   0.1105824800000000    0.8469441100000000    0.4601878700000000 O
   0.7679012000000000    0.5744160200000000    0.3974018400000000 O
   0.5859243100000000    0.2484974700000000    0.4532337400000000 O
   0.2067607200000000    0.5180928600000000    0.3191290300000000 O
   0.7679012000000000    0.9255839800000000    0.8974018400000000 O
