Li4 Si4 O10
1.0
   2.9189175999999999   -7.3457303300000003    0.0000000000000000
   2.9189175999999999    7.3457303300000003    0.0000000000000000
   0.0000000000000000    0.0000000000000000    4.7972607500000004
Li Si O
4 4 10
direct
   0.0946644500000000    0.2095353100000000    0.5962596100000001 Li
   0.2095353100000000    0.0946644500000000    0.0962596100000000 Li
   0.7904646900000000    0.9053355500000000    0.0962596100000000 Li
   0.9053355500000000    0.7904646900000000    0.5962596100000001 Li
   0.1962969600000000    0.4917947900000000    0.0936437200000000 Si
   0.8037030400000000    0.5082052100000000    0.0936437200000000 Si
   0.5082052100000000    0.8037030400000000    0.5936437200000000 Si
   0.4917947900000000    0.1962969600000000    0.5936437200000000 Si
   0.7609309500000000    0.9029843200000000    0.4989000200000000 O
   0.9029843200000000    0.7609309500000000    0.9989000200000000 O
   0.5000000000000000    0.0000000000000000    0.5355521300000000 O
   0.2390690500000000    0.0970156800000000    0.4989000200000000 O
   0.0000000000000000    0.5000000000000000    0.0355521300000000 O
   0.5428095900000000    0.2685814700000000    0.9299650800000000 O
   0.2685814700000000    0.5428095900000000    0.4299650800000000 O
   0.7314185300000000    0.4571904100000000    0.4299650800000000 O
   0.4571904100000000    0.7314185300000000    0.9299650800000000 O
   0.0970156800000000    0.2390690500000000    0.9989000200000000 O
