Ba1 Ge1 P2 O8
1.0
   4.0002038100000004   -2.5565777900000000   -0.0131930100000000
   4.0002038100000004    2.5565777900000000   -0.0131930100000000
  -0.6442874300000000    0.0000000000000000    7.7043069500000003
Ba Ge P O
1 1 2 8
direct
   0.0000000000000000    0.0000000000000000    0.5000000000000000 Ba
   0.0000000000000000    0.0000000000000000    0.0000000000000000 Ge
   0.3696334500000000    0.3696334500000000    0.1978921300000000 P
   0.6303665500000000    0.6303665500000000    0.8021078699999999 P
   0.2316213600000000    0.2316213600000000    0.0480792300000000 O
   0.7683786400000000    0.7683786400000000    0.9519207700000000 O
   0.3167717700000000    0.3167717700000000    0.3822342600000000 O
   0.6832282300000000    0.6832282300000000    0.6177657400000000 O
   0.7295308800000000    0.2349729000000000    0.1788842600000000 O
   0.2349729000000000    0.7295308800000000    0.1788842600000000 O
   0.2704691200000000    0.7650271000000000    0.8211157400000000 O
   0.7650271000000000    0.2704691200000000    0.8211157400000000 O
