Ba4 Li1 Sb3 O12
1.0
  -4.1186946000000004    4.1186946000000004    4.1186946000000004
   4.1186946000000004   -4.1186946000000004    4.1186946000000004
   4.1186946000000004    4.1186946000000004   -4.1186946000000004
Ba Li Sb O
4 1 3 12
direct
   0.0000000000000000    0.5000000000000000    0.0000000000000000 Ba
   0.5000000000000000    0.0000000000000000    0.0000000000000000 Ba
   0.0000000000000000    0.0000000000000000    0.5000000000000000 Ba
   0.5000000000000000    0.5000000000000000    0.5000000000000000 Ba
   0.0000000000000000    0.0000000000000000    0.0000000000000000 Li
   0.5000000000000000    0.0000000000000000    0.5000000000000000 Sb
   0.0000000000000000    0.5000000000000000    0.5000000000000000 Sb
   0.5000000000000000    0.5000000000000000    0.0000000000000000 Sb
   0.2500000000000000    0.7500000000000000    0.5000000000000000 O
   0.7330210000000000    0.0000000000000000    0.7330210000000000 O
   0.0000000000000000    0.7330210000000000    0.7330210000000000 O
   0.0000000000000000    0.2669790000000000    0.2669790000000000 O
   0.2669790000000000    0.2669790000000000    0.0000000000000000 O
   0.2669790000000000    0.0000000000000000    0.2669790000000000 O
   0.7330210000000000    0.7330210000000000    0.0000000000000000 O
   0.7500000000000000    0.2500000000000000    0.5000000000000000 O
   0.5000000000000000    0.2500000000000000    0.7500000000000000 O
   0.5000000000000000    0.7500000000000000    0.2500000000000000 O
   0.2500000000000000    0.5000000000000000    0.7500000000000000 O
   0.7500000000000000    0.5000000000000000    0.2500000000000000 O
