Ti3 Te1 Pb4 O13
1.0
   3.6580521799999999    2.1119769800000001    6.0223750000000003
  -3.6580521799999999    2.1119769800000001    6.0223750000000003
   0.0000000000000000   -4.2239549500000004    6.0223750000000003
Ti Te Pb O
3 1 4 13
direct
   0.5004859000000000    0.5004859000000000    0.9990682700000000 Ti
   0.5004859000000000    0.9990682700000000    0.5004859000000000 Ti
   0.9990682700000000    0.5004859000000000    0.5004859000000000 Ti
   0.5005402100000000    0.5005402100000000    0.5005402100000000 Te
   0.0032231400000000    0.0032231400000000    0.4910714100000000 Pb
   0.0032231400000000    0.4910714100000000    0.0032231400000000 Pb
   0.4910714100000000    0.0032231400000000    0.0032231400000000 Pb
   0.0009851500000000    0.0009851500000000    0.0009851500000000 Pb
   0.5691541000000000    0.1768131200000000    0.1768131200000000 O
   0.1856826100000000    0.5714365400000000    0.5714365400000000 O
   0.1768131200000000    0.5691541000000000    0.1768131200000000 O
   0.5714365400000000    0.1856826100000000    0.5714365400000000 O
   0.1768131200000000    0.1768131200000000    0.5691541000000000 O
   0.5714365400000000    0.5714365400000000    0.1856826100000000 O
   0.4361940300000000    0.8194548000000000    0.8194548000000000 O
   0.8129492800000000    0.4318160000000000    0.4318160000000000 O
   0.8194548000000000    0.4361940300000000    0.8194548000000000 O
   0.4318160000000000    0.8129492800000000    0.4318160000000000 O
   0.8194548000000000    0.8194548000000000    0.4361940300000000 O
   0.4318160000000000    0.4318160000000000    0.8129492800000000 O
   0.8728949499999999    0.8728949499999999    0.8728949499999999 O
