Rb8 Cd4 O8
1.0
  10.4900933300000005    0.0000000000000000    0.0000000000000000
   0.0000000000000000    6.3488033100000001    0.0000000000000000
   0.0000000000000000    0.0000000000000000    6.2799323800000000
Rb Cd O
8 4 8
direct
   0.6556005200000000    0.1090571500000000    0.3973158000000000 Rb
   0.1556005200000000    0.3909428500000000    0.6026842000000000 Rb
   0.6556005200000000    0.8909428500000000    0.8973158000000000 Rb
   0.1556005200000000    0.6090571500000000    0.1026842000000000 Rb
   0.3443994800000000    0.8909428500000000    0.6026842000000000 Rb
   0.8443994800000000    0.6090571500000000    0.3973158000000000 Rb
   0.8443994800000000    0.3909428500000000    0.8973158000000000 Rb
   0.3443994800000000    0.1090571500000000    0.1026842000000000 Rb
   0.5000000000000000    0.4632359800000000    0.7500000000000000 Cd
   0.5000000000000000    0.5367640200000000    0.2500000000000000 Cd
   0.0000000000000000    0.9632359800000000    0.7500000000000000 Cd
   0.0000000000000000    0.0367640200000000    0.2500000000000000 Cd
   0.9040394700000000    0.1911361400000000    0.5181715099999999 O
   0.9040394700000000    0.8088638600000000    0.0181715100000000 O
   0.5959605300000000    0.6911361400000000    0.5181715099999999 O
   0.4040394700000000    0.3088638600000000    0.4818284900000000 O
   0.0959605300000000    0.8088638600000000    0.4818284900000000 O
   0.0959605300000000    0.1911361400000000    0.9818284900000001 O
   0.5959605300000000    0.3088638600000000    0.0181715100000000 O
   0.4040394700000000    0.6911361400000000    0.9818284900000001 O
