Sr2 As4 O12
1.0
   4.8990818300000001    0.0000000000000000    0.0000000000000000
  -2.4495409200000000    4.2427291000000000    0.0000000000000000
   0.0000000000000000    0.0000000000000000   10.8679163100000000
Sr As O
2 4 12
direct
   0.0000000000000000    0.0000000000000000    0.7500000000000000 Sr
   0.0000000000000000    0.0000000000000000    0.2500000000000000 Sr
   0.3333330000000000    0.6666670000000000    0.5000000000000000 As
   0.6666670000000000    0.3333330000000000    0.5000000000000000 As
   0.3333330000000000    0.6666670000000000    0.0000000000000000 As
   0.6666670000000000    0.3333330000000000    0.0000000000000000 As
   0.6174504600000000    0.0000000000000000    0.5967368900000000 O
   0.0000000000000000    0.6174504600000000    0.5967368900000000 O
   0.3825495400000000    0.3825495400000000    0.5967368900000000 O
   0.6174504600000000    0.0000000000000000    0.9032631100000000 O
   0.0000000000000000    0.6174504600000000    0.9032631100000000 O
   0.3825495400000000    0.3825495400000000    0.9032631100000000 O
   1.0000000000000000    0.3825495400000000    0.0967368900000000 O
   0.3825495400000000    0.0000000000000000    0.0967368900000000 O
   0.6174504600000000    0.6174504600000000    0.0967368900000000 O
   0.3825495400000000    0.0000000000000000    0.4032631100000000 O
   1.0000000000000000    0.3825495400000000    0.4032631100000000 O
   0.6174504600000000    0.6174504600000000    0.4032631100000000 O
