Sr1 V4 Bi6 O20
1.0
   7.1194596800000003    0.0380947200000000   -0.0492652600000000
  -3.0157872499999998    7.3600834700000002    0.0315410700000000
  -0.7027578200000000   -3.1007507400000001    8.6589363200000005
Sr V Bi O
1 4 6 20
direct
   0.0000000000000000    0.5000000000000000    0.0000000000000000 Sr
   0.0530679600000000    0.7754611300000001    0.7555705200000000 V
   0.6529436199999999    0.1027766000000000    0.7387049700000000 V
   0.9469320400000000    0.2245388700000000    0.2444294800000000 V
   0.3470563800000000    0.8972234000000000    0.2612950300000000 V
   0.6588858100000000    0.3724058800000000    0.4886286700000000 Bi
   0.4347856700000000    0.3000383900000000    0.0856760300000000 Bi
   0.3411141900000000    0.6275941200000000    0.5113713300000000 Bi
   0.1942736200000000    0.2140979100000000    0.6692766800000000 Bi
   0.8057263800000000    0.7859020900000000    0.3307233200000000 Bi
   0.5652143300000000    0.6999616100000000    0.9143239700000000 Bi
   0.8374906600000001    0.9756138700000000    0.1689021500000000 O
   0.5366365900000000    0.8758483500000001    0.3749711400000000 O
   0.7613744500000000    0.3171772700000000    0.2446796400000000 O
   0.3734714800000000    0.1344333500000000    0.3113455300000000 O
   0.9409403900000000    0.6988578800000000    0.5621394700000000 O
   0.0590596100000000    0.3011421200000000    0.4378605300000000 O
   0.3517740400000000    0.8043241400000000    0.0717593700000000 O
   0.6482259600000000    0.1956758600000000    0.9282406300000000 O
   0.8901780100000000    0.2569347700000000    0.7216986600000000 O
   0.5469987200000000    0.5269721500000000    0.3631829400000000 O
   0.1098219900000000    0.7430652300000000    0.2783013400000000 O
   0.4530012800000000    0.4730278500000000    0.6368170600000000 O
   0.2386255500000000    0.6828227300000000    0.7553203600000000 O
   0.6751698600000000    0.5860347600000000    0.1000200200000000 O
   0.4633634100000000    0.1241516500000000    0.6250288600000000 O
   0.3248301400000000    0.4139652400000000    0.8999799800000000 O
   0.8696183199999999    0.6658666700000000    0.8501284400000000 O
   0.6265285200000000    0.8655666500000000    0.6886544700000000 O
   0.1625093400000000    0.0243861300000000    0.8310978500000000 O
   0.1303816800000000    0.3341333300000000    0.1498715600000000 O
