Nb2 B2 O8
1.0
  -3.1506875800000000    3.1506875800000000    2.7621171900000001
   3.1506875800000000   -3.1506875800000000    2.7621171900000001
   3.1506875800000000    3.1506875800000000   -2.7621171900000001
Nb B O
2 2 8
direct
   0.7500000000000000    0.2500000000000000    0.5000000000000000 Nb
   0.0000000000000000    0.0000000000000000    0.0000000000000000 Nb
   0.2500000000000000    0.7500000000000000    0.5000000000000000 B
   0.5000000000000000    0.5000000000000000    0.0000000000000000 B
   0.0758384300000000    0.3987291200000000    0.3228906900000000 O
   0.5029477500000000    0.3258384300000000    0.1771093100000000 O
   0.2470522500000000    0.9241615700000000    0.3228906900000000 O
   0.6741615700000000    0.8512708800000000    0.1771093100000000 O
   0.6741615700000000    0.4970522500000000    0.8228906900000000 O
   0.6012708800000000    0.9241615700000000    0.6771093100000000 O
   0.0758384300000000    0.7529477500000000    0.6771093100000000 O
   0.1487291200000000    0.3258384300000000    0.8228906900000000 O
