Li8 Hf1 O6
1.0
   2.7382393500000002    1.5809231900000000    5.1465915400000002
  -2.7382394099999998    1.5809230900000000    5.1465915400000002
   0.0000000600000000   -3.1618462799999998    5.1465915400000002
Li Hf O
8 1 6
direct
   0.2348932400000000    0.5021368899999999    0.8977940500000000 Li
   0.1022059500000000    0.7651067600000000    0.4978631100000000 Li
   0.4978631100000000    0.1022059500000000    0.7651067600000000 Li
   0.6547739500000000    0.6547739500000000    0.6547739500000000 Li
   0.3452260500000000    0.3452260500000000    0.3452260500000000 Li
   0.5021368899999999    0.8977940500000000    0.2348932400000000 Li
   0.8977940500000000    0.2348932400000000    0.5021368899999999 Li
   0.7651067600000000    0.4978631100000000    0.1022059500000000 Li
   0.0000000000000000    0.0000000000000000    0.0000000000000000 Hf
   0.0931728800000000    0.3866433300000000    0.7645461500000000 O
   0.2354538500000000    0.9068271200000000    0.6133566700000000 O
   0.6133566700000000    0.2354538500000000    0.9068271200000000 O
   0.3866433300000000    0.7645461500000000    0.0931728800000000 O
   0.7645461500000000    0.0931728800000000    0.3866433300000000 O
   0.9068271200000000    0.6133566700000000    0.2354538500000000 O
