Ba1 Ca2 Mg1 Si2 O8
1.0
   5.4175903500000002    0.0000000800000000    0.0000000000000000
  -2.7087947500000000    4.6917704699999998    0.0000000000000000
   0.0000000000000000    0.0000000000000000    6.7872102600000002
Ba Ca Mg Si O
1 2 1 2 8
direct
   0.0000000000000000    0.0000000000000000    0.5000000000000000 Ba
   0.3333330000000000    0.6666670000000000    0.8416387100000000 Ca
   0.6666670000000000    0.3333330000000000    0.1583612900000000 Ca
   0.0000000000000000    0.0000000000000000    0.0000000000000000 Mg
   0.3333330000000000    0.6666670000000000    0.2737889500000000 Si
   0.6666670000000000    0.3333330000000000    0.7262110500000000 Si
   0.3333330000000000    0.6666670000000000    0.5116386700000000 O
   0.6666670000000000    0.3333330000000000    0.4883613300000000 O
   0.6468011400000000    0.8880048200000000    0.1750376000000000 O
   0.1119951800000000    0.7587973099999999    0.1750376000000000 O
   0.2412026900000000    0.3531988600000000    0.1750376000000000 O
   0.3531988600000000    0.1119951800000000    0.8249624000000000 O
   0.8880048200000000    0.2412026900000000    0.8249624000000000 O
   0.7587973099999999    0.6468011400000000    0.8249624000000000 O
