Tl8 S20
1.0
   6.4409896800000004    0.0000000000000000    0.0000000000000000
   0.0000000000000000    6.5583143899999996    0.0000000000000000
   0.0000000000000000    0.0000000000000000   16.3826859700000007
Tl S
8 20
direct
   0.4228255600000000    0.2015157400000000    0.1486155800000000 Tl
   0.9228255600000000    0.2984842600000000    0.8513844200000000 Tl
   0.5771744400000000    0.7015157400000001    0.3513844200000000 Tl
   0.0771744400000000    0.7984842599999999    0.6486155800000000 Tl
   0.1668051100000000    0.6001474000000000    0.0300408700000000 Tl
   0.6668051100000000    0.8998526000000000    0.9699591300000000 Tl
   0.8331948900000000    0.1001474000000000    0.4699591300000000 Tl
   0.3331948900000000    0.3998526000000000    0.5300408700000000 Tl
   0.9277648600000000    0.7586415399999999    0.8268267300000000 S
   0.4277648600000000    0.7413584600000001    0.1731732700000000 S
   0.0722351400000000    0.2586415400000000    0.6731732700000000 S
   0.5722351400000000    0.2413584600000000    0.3268267300000000 S
   0.2290233200000000    0.8372407100000000    0.8539104400000000 S
   0.7290233200000000    0.6627592900000000    0.1460895600000000 S
   0.7709766800000000    0.3372407100000000    0.6460895600000000 S
   0.2709766800000000    0.1627592900000000    0.3539104400000000 S
   0.9201034800000000    0.5701353700000000    0.4800559900000000 S
   0.4201034800000000    0.9298646300000000    0.5199440100000000 S
   0.0798965200000000    0.0701353700000000    0.0199440100000000 S
   0.5798965200000000    0.4298646300000000    0.9800559900000000 S
   0.0801132300000000    0.6314548000000000    0.3747840200000000 S
   0.5801132300000000    0.8685452000000000    0.6252159800000000 S
   0.9198867700000000    0.1314548000000000    0.1252159800000000 S
   0.4198867700000000    0.3685452000000000    0.8747840200000000 S
   0.0714048400000000    0.3711007700000000    0.3012344000000000 S
   0.5714048400000000    0.1288992300000000    0.6987656000000000 S
   0.9285951600000000    0.8711007700000000    0.1987656000000000 S
   0.4285951600000000    0.6288992300000000    0.8012344000000000 S
