Hg4 O4
1.0
   6.6612732499999998    0.0000000000000000    0.0000000000000000
   0.0000000000000000    5.5079595200000000    0.0000000000000000
   0.0000000000000000    0.0000000000000000    3.5622695300000000
Hg O
4 4
direct
   0.1165407300000000    0.2500000000000000    0.2460168800000000 Hg
   0.8834592700000000    0.7500000000000000    0.7539831200000000 Hg
   0.6165407300000000    0.2500000000000000    0.2539831200000000 Hg
   0.3834592700000000    0.7500000000000000    0.7460168800000000 Hg
   0.1354718100000000    0.7500000000000000    0.0869192800000000 O
   0.8645281900000000    0.2500000000000000    0.9130807200000000 O
   0.3645281900000000    0.2500000000000000    0.5869192800000000 O
   0.6354718100000000    0.7500000000000000    0.4130807200000000 O
