Cs2 In2 O4
1.0
   3.4243346400000001   -0.0000000000000000    0.0000000000000000
  -1.7121668200000000    2.9655600000000000    0.0000000000000000
   0.0000000000000000    0.0000000000000000   13.2507694800000007
Cs In O
2 2 4
direct
   0.3333330000000000    0.6666670000000000    0.2500000000000000 Cs
   0.6666670000000000    0.3333330000000000    0.7500000000000000 Cs
   0.0000000000000000    0.0000000000000000    0.5000000000000000 In
   0.0000000000000000    0.0000000000000000    0.0000000000000000 In
   0.3333330000000000    0.6666670000000000    0.5837320300000000 O
   0.3333330000000000    0.6666670000000000    0.9162679700000000 O
   0.6666670000000000    0.3333330000000000    0.0837320300000000 O
   0.6666670000000000    0.3333330000000000    0.4162679700000000 O
