Li4 Sb4 O12
1.0
   5.2197214100000000    0.0000000000000000    0.0000000000000000
   0.0000000000000000    4.9217570999999998    0.0000000000000000
   0.0000000000000000    0.0000000000000000    8.5234003000000005
Li Sb O
4 4 12
direct
   0.7500000000000000    0.0000000000000000    0.3061986000000000 Li
   0.7500000000000000    0.5000000000000000    0.1938014000000000 Li
   0.2500000000000000    0.0000000000000000    0.6938014000000000 Li
   0.2500000000000000    0.5000000000000000    0.8061986000000000 Li
   0.7500000000000000    0.0000000000000000    0.9054147700000000 Sb
   0.2500000000000000    0.5000000000000000    0.4054147700000000 Sb
   0.2500000000000000    0.0000000000000000    0.0945852300000000 Sb
   0.7500000000000000    0.5000000000000000    0.5945852300000000 Sb
   0.5760437500000000    0.7073062200000000    0.4180098800000000 O
   0.5760437500000000    0.7926937800000000    0.0819901200000000 O
   0.9239562500000000    0.2926937800000000    0.4180098800000000 O
   0.4115450500000000    0.2500000000000000    0.2500000000000000 O
   0.5884549500000000    0.7500000000000000    0.7500000000000000 O
   0.9115450500000000    0.2500000000000000    0.7500000000000000 O
   0.0760437500000000    0.7926937800000000    0.9180098799999999 O
   0.0884549500000000    0.7500000000000000    0.2500000000000000 O
   0.4239562500000000    0.2073062200000000    0.9180098799999999 O
   0.4239562500000000    0.2926937800000000    0.5819901200000001 O
   0.0760437500000000    0.7073062200000000    0.5819901200000001 O
   0.9239562500000000    0.2073062200000000    0.0819901200000000 O
