Li5 Nb1 O5
1.0
   4.8667522600000002   -2.0242924400000000    0.0019515500000000
   4.8667522600000002    2.0242924400000000    0.0019515500000000
  -1.8782750900000000    0.0000000000000000    5.5185703699999999
Li Nb O
5 1 5
direct
   0.7123849900000000    0.7123849900000000    0.3450037600000000 Li
   0.6912439200000000    0.6912439200000000    0.8608172200000000 Li
   0.0000000000000000    0.0000000000000000    0.5000000000000000 Li
   0.3087560800000000    0.3087560800000000    0.1391827800000000 Li
   0.2876150100000000    0.2876150100000000    0.6549962400000000 Li
   0.0000000000000000    0.0000000000000000    0.0000000000000000 Nb
   0.8526227300000000    0.8526227300000000    0.1749338600000000 O
   0.8411998800000000    0.8411998800000000    0.6796644300000000 O
   0.5000000000000000    0.5000000000000000    0.0000000000000000 O
   0.1588001200000000    0.1588001200000000    0.3203355700000000 O
   0.1473772700000000    0.1473772700000000    0.8250661400000000 O
