Hg8 P4 O14
1.0
   9.1218805199999995    0.0000000000000000    0.0533373700000000
   0.0000000000000000    4.9065481499999999    0.0000000000000000
  -7.5925019200000001    0.0000000000000000    9.4700080199999999
Hg P O
8 4 14
direct
   0.9367324400000000    0.4422627400000000    0.1216324800000000 Hg
   0.0632675600000000    0.4422627400000000    0.3783675200000000 Hg
   0.0632675600000000    0.5577372600000000    0.8783675200000000 Hg
   0.9367324400000000    0.5577372600000000    0.6216324800000000 Hg
   0.4155152500000000    0.6748494800000000    0.4009946400000000 Hg
   0.5844847500000000    0.6748494800000000    0.0990053600000000 Hg
   0.5844847500000000    0.3251505200000000    0.5990053600000000 Hg
   0.4155152500000000    0.3251505200000000    0.9009946400000000 Hg
   0.7070912900000000    0.0980161900000000    0.3564244800000000 P
   0.2929087100000000    0.0980161900000000    0.1435755200000000 P
   0.2929087100000000    0.9019838100000001    0.6435755200000000 P
   0.7070912900000000    0.9019838100000001    0.8564244800000000 P
   0.1631920200000000    0.3473563200000000    0.0772782500000000 O
   0.8368079800000000    0.3473563200000000    0.4227217500000000 O
   0.8368079800000000    0.6526436799999999    0.9227217500000000 O
   0.1631920200000000    0.6526436799999999    0.5772782500000000 O
   0.5000000000000000    0.2355474200000000    0.2500000000000000 O
   0.5000000000000000    0.7644525800000000    0.7500000000000000 O
   0.7062133400000000    0.9217423400000000    0.4590593300000000 O
   0.2937866600000000    0.9217423400000000    0.0409406700000000 O
   0.2937866600000000    0.0782576600000000    0.5409406700000000 O
   0.7062133400000000    0.0782576600000000    0.9590593300000000 O
   0.7503884400000000    0.9521846500000000    0.2675276600000000 O
   0.2496115600000000    0.9521846500000000    0.2324723400000000 O
   0.7503884400000000    0.0478153500000000    0.7675276599999999 O
   0.2496115600000000    0.0478153500000000    0.7324723400000001 O
