Ba8 P4 O2
1.0
   3.5644581099999999   -8.1590017400000008    0.0000000000000000
   3.5644581099999999    8.1590017400000008    0.0000000000000000
   0.0000000000000000    0.0000000000000000    7.5343334500000001
Ba P O
8 4 2
direct
   0.6766286900000000    0.3233713100000000    0.4320046500000000 Ba
   0.3233713100000000    0.6766286900000000    0.5679953500000000 Ba
   0.1766286900000000    0.8233713100000000    0.0679953500000000 Ba
   0.8233713100000000    0.1766286900000000    0.9320046500000000 Ba
   0.7293772900000000    0.7706227100000000    0.2500000000000000 Ba
   0.7706227100000000    0.7293772900000000    0.7500000000000000 Ba
   0.2706227100000000    0.2293772900000000    0.7500000000000000 Ba
   0.2293772900000000    0.2706227100000000    0.2500000000000000 Ba
   0.1341252700000000    0.8658747300000000    0.4748723700000000 P
   0.8658747300000000    0.1341252700000000    0.5251276300000000 P
   0.3658747300000000    0.6341252700000000    0.9748723700000000 P
   0.6341252700000000    0.3658747300000000    0.0251276300000000 P
   0.5000000000000000    0.5000000000000000    0.5000000000000000 O
   0.0000000000000000    0.0000000000000000    0.0000000000000000 O
