Zn4 B6 Se1 O12
1.0
  -3.8158353599999999    3.8158353599999999    3.8158353599999999
   3.8158353599999999   -3.8158353599999999    3.8158353599999999
   3.8158353599999999    3.8158353599999999   -3.8158353599999999
Zn B Se O
4 6 1 12
direct
   0.0000000000000000    0.0000000000000000    0.3552889300000000 Zn
   0.3552889300000000    0.0000000000000000    0.0000000000000000 Zn
   0.0000000000000000    0.3552889300000000    0.0000000000000000 Zn
   0.6447110700000001    0.6447110700000001    0.6447110700000001 Zn
   0.2500000000000000    0.5000000000000000    0.7500000000000000 B
   0.5000000000000000    0.7500000000000000    0.2500000000000000 B
   0.5000000000000000    0.2500000000000000    0.7500000000000000 B
   0.7500000000000000    0.2500000000000000    0.5000000000000000 B
   0.2500000000000000    0.7500000000000000    0.5000000000000000 B
   0.7500000000000000    0.5000000000000000    0.2500000000000000 B
   0.0000000000000000    0.0000000000000000    0.0000000000000000 Se
   0.7185342100000000    0.7185342100000000    0.2862247300000000 O
   0.5676905200000000    0.2814657900000000    0.0000000000000000 O
   0.2814657900000000    0.5676905200000000    0.0000000000000000 O
   0.4323094800000000    0.7137752700000000    0.4323094800000000 O
   0.5676905200000000    0.0000000000000000    0.2814657900000000 O
   0.0000000000000000    0.5676905200000000    0.2814657900000000 O
   0.7137752700000000    0.4323094800000000    0.4323094800000000 O
   0.2862247300000000    0.7185342100000000    0.7185342100000000 O
   0.7185342100000000    0.2862247300000000    0.7185342100000000 O
   0.2814657900000000    0.0000000000000000    0.5676905200000000 O
   0.0000000000000000    0.2814657900000000    0.5676905200000000 O
   0.4323094800000000    0.4323094800000000    0.7137752700000000 O
