Ba2 Zr1 Sn1 O6
1.0
   0.0000000000000000    4.1737565400000003    4.1737565400000003
   4.1737565400000003    0.0000000000000000    4.1737565400000003
   4.1737565400000003    4.1737565400000003    0.0000000000000000
Ba Zr Sn O
2 1 1 6
direct
   0.7500000000000000    0.7500000000000000    0.7500000000000000 Ba
   0.2500000000000000    0.2500000000000000    0.2500000000000000 Ba
   0.0000000000000000    0.0000000000000000    0.0000000000000000 Zr
   0.5000000000000000    0.5000000000000000    0.5000000000000000 Sn
   0.7484603100000000    0.7484603100000000    0.2515396900000000 O
   0.2515396900000000    0.2515396900000000    0.7484603100000000 O
   0.7484603100000000    0.2515396900000000    0.7484603100000000 O
   0.2515396900000000    0.7484603100000000    0.2515396900000000 O
   0.2515396900000000    0.7484603100000000    0.7484603100000000 O
   0.7484603100000000    0.2515396900000000    0.2515396900000000 O
