Na12 Sb4 Se12
1.0
   8.8615154100000009    0.0000000000000000    0.0000000000000000
   0.0000000000000000    8.8615154100000009    0.0000000000000000
   0.0000000000000000    0.0000000000000000    8.8615154100000009
Na Sb Se
12 4 12
direct
   0.9184871300000000    0.4184871300000000    0.0815128700000000 Na
   0.4184871300000000    0.0815128700000000    0.9184871300000000 Na
   0.0815128700000000    0.9184871300000000    0.4184871300000000 Na
   0.5815128700000000    0.5815128700000000    0.5815128700000000 Na
   0.1761856900000000    0.6761856900000000    0.8238143100000000 Na
   0.6761856900000000    0.8238143100000000    0.1761856900000000 Na
   0.8238143100000000    0.1761856900000000    0.6761856900000000 Na
   0.3238143100000000    0.3238143100000000    0.3238143100000000 Na
   0.6847166700000000    0.1847166700000000    0.3152833300000000 Na
   0.1847166700000000    0.3152833300000000    0.6847166700000000 Na
   0.3152833300000000    0.6847166700000000    0.1847166700000000 Na
   0.8152833300000000    0.8152833300000000    0.8152833300000000 Na
   0.4589517100000000    0.9589517100000000    0.5410482900000000 Sb
   0.9589517100000000    0.5410482900000000    0.4589517100000000 Sb
   0.5410482900000000    0.4589517100000000    0.9589517100000000 Sb
   0.0410482900000000    0.0410482900000000    0.0410482900000000 Sb
   0.9985677400000000    0.7607550700000000    0.1172535300000000 Se
   0.8827464699999999    0.4985677400000000    0.7392449300000000 Se
   0.2607550700000000    0.3827464700000000    0.0014322600000000 Se
   0.4985677400000000    0.7392449300000000    0.8827464699999999 Se
   0.3827464700000000    0.0014322600000000    0.2607550700000000 Se
   0.7607550700000000    0.1172535300000000    0.9985677400000000 Se
   0.0014322600000000    0.2607550700000000    0.3827464700000000 Se
   0.1172535300000000    0.9985677400000000    0.7607550700000000 Se
   0.7392449300000000    0.8827464699999999    0.4985677400000000 Se
   0.5014322600000000    0.2392449300000000    0.6172535300000001 Se
   0.6172535300000001    0.5014322600000000    0.2392449300000000 Se
   0.2392449300000000    0.6172535300000001    0.5014322600000000 Se
