Ba4 Mo4 Se4 O24
1.0
   6.2169763199999997    0.0000000000000000   -0.0126100700000000
   0.0000000000000000   10.1895652400000003    0.0000000000000000
  -0.7277070000000000    0.0000000000000000    8.3472624999999994
Ba Mo Se O
4 4 4 24
direct
   0.2666058200000000    0.3097817500000000    0.9881477500000000 Ba
   0.2666058200000000    0.1902182500000000    0.4881477500000000 Ba
   0.7333941800000000    0.8097817500000000    0.5118522500000000 Ba
   0.7333941800000000    0.6902182500000000    0.0118522500000000 Ba
   0.7748069500000000    0.0785542100000000    0.2329680000000000 Mo
   0.2251930500000000    0.9214457900000000    0.7670320000000000 Mo
   0.2251930500000000    0.5785542100000000    0.2670320000000000 Mo
   0.7748069500000000    0.4214457900000000    0.7329680000000000 Mo
   0.7129404400000000    0.1002539700000000    0.8232473200000000 Se
   0.2870595600000000    0.6002539700000000    0.6767526800000000 Se
   0.2870595600000000    0.8997460300000000    0.1767526800000000 Se
   0.7129404400000000    0.3997460300000000    0.3232473200000000 Se
   0.8235988700000000    0.4095006700000000    0.9454214399999999 O
   0.0175326400000000    0.1492899600000000    0.1731269800000000 O
   0.3929296500000000    0.6126111600000000    0.4948431400000000 O
   0.3929296500000000    0.8873888400000000    0.9948431400000000 O
   0.1837950500000000    0.0920108300000000    0.7986379100000000 O
   0.5566840000000000    0.9820528600000000    0.7212626100000000 O
   0.1764011300000000    0.5904993300000000    0.0545785600000000 O
   0.8162049500000000    0.5920108300000000    0.7013620900000000 O
   0.4124610900000000    0.7395035100000000    0.7600434100000000 O
   0.9824673600000000    0.6492899600000001    0.3268730200000000 O
   0.5875389100000000    0.2604964900000000    0.2399565900000000 O
   0.4124610900000000    0.7604964900000000    0.2600434100000000 O
   0.6070703500000000    0.3873888400000000    0.5051568600000000 O
   0.0175326400000000    0.3507100400000000    0.6731269800000000 O
   0.5875389100000000    0.2395035100000000    0.7399565900000000 O
   0.8162049500000000    0.9079891700000000    0.2013620900000000 O
   0.6070703500000000    0.1126111600000000    0.0051568600000000 O
   0.4433160000000000    0.4820528600000000    0.7787373900000000 O
   0.8235988700000000    0.0904993300000000    0.4454214400000000 O
   0.5566840000000000    0.5179471400000000    0.2212626100000000 O
   0.1837950500000000    0.4079891700000000    0.2986379100000000 O
   0.1764011300000000    0.9095006700000000    0.5545785600000001 O
   0.4433160000000000    0.0179471400000000    0.2787373900000000 O
   0.9824673600000000    0.8507100399999999    0.8268730200000000 O
