Na12 Cu4 O8
1.0
   9.3178654999999999    0.0000000000000000    0.0000000000000000
   0.0000000000000000    9.3178654999999999    0.0000000000000000
   0.0000000000000000    0.0000000000000000    4.5078438199999997
Na Cu O
12 4 8
direct
   0.6529965700000000    0.9781864300000001    0.5000000000000000 Na
   0.5218135699999999    0.1529965700000000    0.0000000000000000 Na
   0.8538954500000000    0.1461045500000000    0.0000000000000000 Na
   0.3538954500000000    0.3538954500000000    0.5000000000000000 Na
   0.0218135700000000    0.3470034300000000    0.5000000000000000 Na
   0.1529965700000000    0.5218135699999999    0.0000000000000000 Na
   0.8470034300000000    0.4781864300000000    0.0000000000000000 Na
   0.9781864300000001    0.6529965700000000    0.5000000000000000 Na
   0.6461045500000000    0.6461045500000000    0.5000000000000000 Na
   0.1461045500000000    0.8538954500000000    0.0000000000000000 Na
   0.4781864300000000    0.8470034300000000    0.0000000000000000 Na
   0.3470034300000000    0.0218135700000000    0.5000000000000000 Na
   0.1711556000000000    0.1711556000000000    0.0000000000000000 Cu
   0.6711556000000000    0.3288444000000000    0.5000000000000000 Cu
   0.3288444000000000    0.6711556000000000    0.5000000000000000 Cu
   0.8288444000000000    0.8288444000000000    0.0000000000000000 Cu
   0.3028356200000000    0.0331781500000000    0.0000000000000000 O
   0.5331781500000000    0.1971643800000000    0.5000000000000000 O
   0.0331781500000000    0.3028356200000000    0.0000000000000000 O
   0.8028356200000000    0.4668218500000000    0.5000000000000000 O
   0.1971643800000000    0.5331781500000000    0.5000000000000000 O
   0.9668218500000000    0.6971643800000000    0.0000000000000000 O
   0.4668218500000000    0.8028356200000000    0.5000000000000000 O
   0.6971643800000000    0.9668218500000000    0.0000000000000000 O
