Cs6 Nb4 As2 Se22
1.0
   7.5602243500000004   -6.9289845000000003   -0.0302950600000000
   7.5602243500000004    6.9289845000000003   -0.0302950600000000
  -1.2731063100000000    0.0000000000000000   10.0132318900000001
Cs Nb As Se
6 4 2 22
direct
   0.6424610900000000    0.7982726900000000    0.6610662600000000 Cs
   0.7982726900000000    0.6424610900000000    0.1610662600000000 Cs
   0.0471986100000000    0.1882592400000000    0.3958231700000000 Cs
   0.1882592400000000    0.0471986100000000    0.8958231700000000 Cs
   0.4391843700000000    0.2954874100000000    0.5591120100000000 Cs
   0.2954874100000000    0.4391843700000000    0.0591120100000000 Cs
   0.5478803600000000    0.0768217700000000    0.1712527300000000 Nb
   0.7992674600000000    0.1847249700000000    0.9817888900000000 Nb
   0.0768217700000000    0.5478803600000000    0.6712527300000000 Nb
   0.1847249700000000    0.7992674600000000    0.4817888900000000 Nb
   0.4024160100000000    0.7541328800000000    0.2175583300000000 As
   0.7541328800000000    0.4024160100000000    0.7175583300000000 As
   0.5615683900000000    0.8898413100000000    0.3342005500000000 Se
   0.8740512000000000    0.9371594500000000    0.9297659200000000 Se
   0.6187383100000000    0.3768867400000000    0.9037786100000000 Se
   0.1011700100000000    0.5378937000000000    0.4120213800000000 Se
   0.1799867000000000    0.8447293200000000    0.2275994500000000 Se
   0.5120933900000000    0.8863977199999999    0.9861643500000000 Se
   0.3768867400000000    0.6187383100000000    0.4037786100000000 Se
   0.8447293200000000    0.1799867000000000    0.7275994500000000 Se
   0.3334555800000000    0.1597687200000000    0.2259239500000000 Se
   0.9823569500000000    0.3065050300000000    0.0628206100000000 Se
   0.3065050300000000    0.9823569500000000    0.5628206100000001 Se
   0.8863977199999999    0.5120933900000000    0.4861643500000000 Se
   0.3045467100000000    0.6580698600000000    0.6837306900000000 Se
   0.5378937000000000    0.1011700100000000    0.9120213800000000 Se
   0.8217158700000000    0.0055151900000000    0.1523055600000000 Se
   0.0055151900000000    0.8217158700000000    0.6523055600000000 Se
   0.1597687200000000    0.3334555800000000    0.7259239500000000 Se
   0.1764560000000000    0.7007880100000000    0.8725475499999999 Se
   0.7007880100000000    0.1764560000000000    0.3725475500000000 Se
   0.9371594500000000    0.8740512000000000    0.4297659200000000 Se
   0.6580698600000000    0.3045467100000000    0.1837306900000000 Se
   0.8898413100000000    0.5615683900000000    0.8342005500000000 Se
