Ga4 O6
1.0
   6.1414964699999999   -1.5249632300000000   -0.0026603800000000
   6.1414964699999999    1.5249632300000000   -0.0026603800000000
  -1.3743110900000000    0.0000000000000000    5.6477557200000001
Ga O
4 6
direct
   0.3412076700000000    0.3412076700000000    0.6859618200000001 Ga
   0.6587923300000000    0.6587923300000000    0.3140381800000000 Ga
   0.9097089000000000    0.9097089000000000    0.2050243000000000 Ga
   0.0902911000000000    0.0902911000000000    0.7949757000000000 Ga
   0.5036609700000000    0.5036609700000000    0.7438653400000000 O
   0.4963390300000000    0.4963390300000000    0.2561346600000000 O
   0.8267433000000000    0.8267433000000000    0.4371133100000000 O
   0.1732567000000000    0.1732567000000000    0.5628866900000000 O
   0.1651023000000000    0.1651023000000000    0.1090839800000000 O
   0.8348977000000000    0.8348977000000000    0.8909160200000000 O
