Bi8 S12
1.0
  11.1672390000000004    0.0000000000000000    0.0000000000000000
   0.0000000000000000    3.9597500000000001    0.0000000000000000
   0.0000000000000000    0.0000000000000000   10.9478399999999993
Bi S
8 12
direct
   0.0074410000000000    0.2500000000000000    0.8241460000000000 Bi
   0.4925590000000000    0.7500000000000000    0.3241460000000000 Bi
   0.1661710000000000    0.7500000000000000    0.5297840000000000 Bi
   0.3338290000000000    0.2500000000000000    0.0297840000000000 Bi
   0.9925590000000000    0.7500000000000000    0.1758540000000000 Bi
   0.5074410000000000    0.2500000000000000    0.6758540000000000 Bi
   0.8338290000000000    0.2500000000000000    0.4702160000000000 Bi
   0.6661710000000000    0.7500000000000000    0.9702160000000000 Bi
   0.1230840000000000    0.7500000000000000    0.9436580000000000 S
   0.3769160000000000    0.2500000000000000    0.4436580000000000 S
   0.2178100000000000    0.2500000000000000    0.6945270000000000 S
   0.2821900000000000    0.7500000000000000    0.1945270000000000 S
   0.9508110000000000    0.7500000000000000    0.6293510000000000 S
   0.5491890000000000    0.2500000000000000    0.1293510000000000 S
   0.8769160000000000    0.2500000000000000    0.0563420000000000 S
   0.6230840000000000    0.7500000000000000    0.5563420000000000 S
   0.7821900000000001    0.7500000000000000    0.3054730000000000 S
   0.7178099999999999    0.2500000000000000    0.8054730000000000 S
   0.0491890000000000    0.2500000000000000    0.3706490000000000 S
   0.4508110000000000    0.7500000000000000    0.8706490000000000 S
