Na4 Ag4 O4
1.0
  -4.6645300599999997    4.6645300599999997    2.2780427599999999
   4.6645300599999997   -4.6645300599999997    2.2780427599999999
   4.6645300599999997    4.6645300599999997   -2.2780427599999999
Na Ag O
4 4 4
direct
   0.8405385200000000    0.5000000000000000    0.3405385200000000 Na
   0.5000000000000000    0.1594614800000000    0.6594614800000000 Na
   0.5000000000000000    0.8405385200000000    0.3405385200000000 Na
   0.1594614800000000    0.5000000000000000    0.6594614800000000 Na
   0.8434937200000000    0.8434937200000000    0.6869874400000000 Ag
   0.8434937200000000    0.1565062800000000    0.0000000000000000 Ag
   0.1565062800000000    0.8434937200000000    0.0000000000000000 Ag
   0.1565062800000000    0.1565062800000000    0.3130125600000000 Ag
   0.3091741500000000    0.0000000000000000    0.3091741500000000 O
   0.0000000000000000    0.6908258500000000    0.6908258500000000 O
   0.0000000000000000    0.3091741500000000    0.3091741500000000 O
   0.6908258500000000    0.0000000000000000    0.6908258500000000 O
