Sb2 P2 O8
1.0
   4.7419886699999996    0.0000000000000000   -0.0131993000000000
   0.0000000000000000    6.8217451699999998    0.0000000000000000
  -0.6097091400000000    0.0000000000000000    5.0056323400000000
Sb P O
2 2 8
direct
   0.1852682300000000    0.7500000000000000    0.1660507300000000 Sb
   0.8147317700000000    0.2500000000000000    0.8339492700000000 Sb
   0.7208052200000000    0.7500000000000000    0.6098947500000000 P
   0.2791947800000000    0.2500000000000000    0.3901052500000000 P
   0.1661655800000000    0.4285584700000000    0.2240940300000000 O
   0.8338344200000000    0.9285584700000000    0.7759059699999999 O
   0.8338344200000000    0.5714415300000000    0.7759059699999999 O
   0.1661655800000000    0.0714415300000000    0.2240940300000000 O
   0.1880875000000000    0.2500000000000000    0.6781939500000000 O
   0.8119125000000000    0.7500000000000000    0.3218060500000000 O
   0.6093199000000000    0.2500000000000000    0.4415936700000000 O
   0.3906801000000000    0.7500000000000000    0.5584063300000000 O
