Li4 Al4 S8
1.0
   6.4936974699999999    0.0000000000000000    0.0000000000000000
   0.0000000000000000    7.8379917099999998    0.0000000000000000
   0.0000000000000000    0.0000000000000000    6.1783372500000002
Li Al S
4 4 8
direct
   0.5856454600000000    0.8782163300000000    0.0044103400000000 Li
   0.4143545400000000    0.1217836700000000    0.5044103400000000 Li
   0.9143545400000000    0.3782163300000000    0.5044103400000000 Li
   0.0856454600000000    0.6217836700000000    0.0044103400000000 Li
   0.5741265900000000    0.3739317400000000    0.9996606800000000 Al
   0.4258734100000000    0.6260682600000000    0.4996606800000000 Al
   0.9258734100000000    0.8739317400000000    0.4996606800000000 Al
   0.0741265900000000    0.1260682600000000    0.9996606800000000 Al
   0.9054805100000000    0.3621697600000000    0.1122896800000000 S
   0.0945194900000000    0.6378302400000000    0.6122896799999999 S
   0.5945194900000000    0.8621697600000000    0.6122896799999999 S
   0.4054805100000000    0.1378302400000000    0.1122896800000000 S
   0.5643418000000000    0.3847217100000000    0.6334383000000000 S
   0.4356582000000000    0.6152782900000000    0.1334383000000000 S
   0.9356582000000000    0.8847217100000000    0.1334383000000000 S
   0.0643418000000000    0.1152782900000000    0.6334383000000000 S
