Rb1 La1 O2
1.0
   1.8554733000000001    1.0712573299999999    6.4681473399999998
  -1.8554733000000001    1.0712573299999999    6.4681473399999998
   0.0000000000000000   -2.1425156699999999    6.4681473399999998
Rb La O
1 1 2
direct
   0.0000000000000000    0.0000000000000000    0.0000000000000000 Rb
   0.5000000000000000    0.5000000000000000    0.5000000000000000 La
   0.2273034500000000    0.2273034500000000    0.2273034500000000 O
   0.7726965500000000    0.7726965500000000    0.7726965500000000 O
