Sr4 Sc8 O16
1.0
   9.6155865899999995    0.0000000000000000    0.0000000000000000
   0.0000000000000000    3.1641588500000002    0.0000000000000000
   0.0000000000000000    0.0000000000000000   11.2124004399999997
Sr Sc O
4 8 16
direct
   0.7449590600000000    0.2500000000000000    0.8458666400000000 Sr
   0.2550409400000000    0.7500000000000000    0.1541333600000000 Sr
   0.2449590600000000    0.2500000000000000    0.6541333600000000 Sr
   0.7550409400000000    0.7500000000000000    0.3458666400000000 Sr
   0.0704954800000000    0.2500000000000000    0.8903807900000000 Sc
   0.9295045199999999    0.7500000000000000    0.1096192100000000 Sc
   0.5704954800000001    0.2500000000000000    0.6096192100000000 Sc
   0.4295045200000000    0.7500000000000000    0.3903807900000000 Sc
   0.0783352700000000    0.2500000000000000    0.3940164800000000 Sc
   0.9216647300000000    0.7500000000000000    0.6059835200000000 Sc
   0.5783352700000000    0.2500000000000000    0.1059835200000000 Sc
   0.4216647300000000    0.7500000000000000    0.8940164800000000 Sc
   0.0738577400000000    0.2500000000000000    0.0744099200000000 O
   0.9261422600000000    0.7500000000000000    0.9255900800000000 O
   0.5738577400000000    0.2500000000000000    0.4255900800000000 O
   0.4261422600000000    0.7500000000000000    0.5744099200000000 O
   0.9787329400000000    0.2500000000000000    0.7167815900000000 O
   0.0212670600000000    0.7500000000000000    0.2832184100000000 O
   0.4787329400000000    0.2500000000000000    0.7832184100000000 O
   0.5212670600000000    0.7500000000000000    0.2167815900000000 O
   0.3830232200000000    0.2500000000000000    0.0201940700000000 O
   0.6169767800000000    0.7500000000000000    0.9798059300000000 O
   0.8830232200000000    0.2500000000000000    0.4798059300000000 O
   0.1169767800000000    0.7500000000000000    0.5201940700000000 O
   0.2078742600000000    0.7500000000000000    0.8402406200000000 O
   0.7921257400000000    0.2500000000000000    0.1597593800000000 O
   0.7078742600000000    0.7500000000000000    0.6597593800000000 O
   0.2921257400000000    0.2500000000000000    0.3402406200000000 O
