Li2 Cu2 P4 O12
1.0
   5.0715559700000004   -4.9678391299999998   -0.0173894800000000
   5.0715559700000004    4.9678391299999998   -0.0173894800000000
  -1.7872549400000000    0.0000000000000000    4.5341920800000004
Li Cu P O
2 2 4 12
direct
   0.2166498900000000    0.7833501100000000    0.2500000000000000 Li
   0.7833501100000000    0.2166498900000000    0.7500000000000000 Li
   0.1228579300000000    0.8771420700000000    0.7500000000000000 Cu
   0.8771420700000000    0.1228579300000000    0.2500000000000000 Cu
   0.6208575700000000    0.7970826100000000    0.7341993000000000 P
   0.3791424300000000    0.2029173900000000    0.2658007000000000 P
   0.7970826100000000    0.6208575700000000    0.2341993000000000 P
   0.2029173900000000    0.3791424300000000    0.7658007000000000 P
   0.3125172500000000    0.3703297000000000    0.5137375700000000 O
   0.1661888500000000    0.5882799300000000    0.8846900500000000 O
   0.4117200700000000    0.8338111499999999    0.6153099500000000 O
   0.7723180500000000    0.9655621500000000    0.8489241600000000 O
   0.0344378500000000    0.2276819500000000    0.6510758400000000 O
   0.2276819500000000    0.0344378500000000    0.1510758400000000 O
   0.5882799300000000    0.1661888500000000    0.3846900500000000 O
   0.6296703000000000    0.6874827500000000    0.9862624300000000 O
   0.9655621500000000    0.7723180500000000    0.3489241600000000 O
   0.3703297000000000    0.3125172500000000    0.0137375700000000 O
   0.6874827500000000    0.6296703000000000    0.4862624300000000 O
   0.8338111499999999    0.4117200700000000    0.1153099500000000 O
