Na4 Ga4 Se6
1.0
   3.4042712300000000   -5.8950389999999997    0.0100721500000000
   3.4042712300000000    5.8950389999999997    0.0100721500000000
  -2.2956129199999999    0.0000000000000000    8.2527233500000001
Na Ga Se
4 4 6
direct
   0.3340390600000000    0.6659609399999999    0.0000000000000000 Na
   0.6659609399999999    0.3340390600000000    0.0000000000000000 Na
   0.0000000000000000    0.0000000000000000    0.0000000000000000 Na
   0.5000000000000000    0.5000000000000000    0.5000000000000000 Na
   0.1184362100000000    0.7851039800000000    0.3543981700000000 Ga
   0.2148960200000000    0.8815637900000000    0.6456018300000000 Ga
   0.7851039800000000    0.1184362100000000    0.3543981700000000 Ga
   0.8815637900000000    0.2148960200000000    0.6456018300000000 Ga
   0.5873432800000000    0.9232649900000000    0.7627936700000000 Se
   0.9232649900000000    0.5873432800000000    0.7627936700000000 Se
   0.0767350100000000    0.4126567200000000    0.2372063300000000 Se
   0.2511822700000000    0.2511822700000000    0.7638795600000000 Se
   0.4126567200000000    0.0767350100000000    0.2372063300000000 Se
   0.7488177300000000    0.7488177300000000    0.2361204400000000 Se
