Ba1 S1
1.0
   0.0000000000000000    3.1815618500000000    3.1815618500000000
   3.1815618500000000    0.0000000000000000    3.1815618500000000
   3.1815618500000000    3.1815618500000000    0.0000000000000000
Ba S
1 1
direct
   0.0000000000000000    0.0000000000000000    0.0000000000000000 Ba
   0.5000000000000000    0.5000000000000000    0.5000000000000000 S
