Li5 Bi1 O5
1.0
   4.9258834499999997   -2.1160243799999998   -0.0252274100000000
   4.9258834499999997    2.1160243799999998   -0.0252274100000000
  -1.9666423300000000    0.0000000000000000    5.6356587400000002
Li Bi O
5 1 5
direct
   0.7099733900000000    0.7099733900000000    0.3416021100000000 Li
   0.0000000000000000    0.0000000000000000    0.5000000000000000 Li
   0.3116553100000000    0.3116553100000000    0.1398875500000000 Li
   0.6883446900000000    0.6883446900000000    0.8601124500000000 Li
   0.2900266100000000    0.2900266100000000    0.6583978900000000 Li
   0.0000000000000000    0.0000000000000000    0.0000000000000000 Bi
   0.8499247599999999    0.8499247599999999    0.1798613000000000 O
   0.5000000000000000    0.5000000000000000    0.0000000000000000 O
   0.1657835700000000    0.1657835700000000    0.3280348100000000 O
   0.8342164300000000    0.8342164300000000    0.6719651900000000 O
   0.1500752400000000    0.1500752400000000    0.8201387000000000 O
