Ag4 Hg8 As4 O16
1.0
   8.7847344599999992    0.0000000000000000    0.0000000000000000
   0.0000000000000000    9.5720008900000000    0.0000000000000000
   0.0000000000000000    0.0000000000000000    6.2841064199999996
Ag Hg As O
4 8 4 16
direct
   0.0276629900000000    0.8567332100000000    0.5000000000000000 Ag
   0.4723370100000000    0.3567332100000000    0.5000000000000000 Ag
   0.5276629900000001    0.6432667900000000    0.5000000000000000 Ag
   0.9723370099999999    0.1432667900000000    0.5000000000000000 Ag
   0.7398660100000000    0.4684643300000000    0.2901273700000000 Hg
   0.2601339900000000    0.5315356700000000    0.7098726300000000 Hg
   0.2398660100000000    0.0315356700000000    0.2901273700000000 Hg
   0.2601339900000000    0.5315356700000000    0.2901273700000000 Hg
   0.2398660100000000    0.0315356700000000    0.7098726300000000 Hg
   0.7601339900000000    0.9684643300000000    0.7098726300000000 Hg
   0.7601339900000000    0.9684643300000000    0.2901273700000000 Hg
   0.7398660100000000    0.4684643300000000    0.7098726300000000 Hg
   0.9669087800000000    0.7133752600000000    0.0000000000000000 As
   0.4669087800000000    0.7866247400000000    0.0000000000000000 As
   0.0330912200000000    0.2866247400000000    0.0000000000000000 As
   0.5330912200000000    0.2133752600000000    0.0000000000000000 As
   0.6702416300000000    0.0829475400000000    0.0000000000000000 O
   0.4346111800000000    0.1996059500000000    0.2340352500000000 O
   0.8834873900000000    0.8762282800000000    0.0000000000000000 O
   0.3834873900000000    0.6237717200000000    0.0000000000000000 O
   0.3297583700000000    0.9170524600000000    0.0000000000000000 O
   0.5653888200000000    0.8003940500000000    0.2340352500000000 O
   0.1165126100000000    0.1237717200000000    0.0000000000000000 O
   0.9346111800000000    0.3003940500000000    0.2340352500000000 O
   0.6165126100000000    0.3762282800000000    0.0000000000000000 O
   0.0653888200000000    0.6996059500000000    0.2340352500000000 O
   0.0653888200000000    0.6996059500000000    0.7659647500000000 O
   0.1702416300000000    0.4170524600000000    0.0000000000000000 O
   0.4346111800000000    0.1996059500000000    0.7659647500000000 O
   0.8297583700000000    0.5829475400000000    0.0000000000000000 O
   0.5653888200000000    0.8003940500000000    0.7659647500000000 O
   0.9346111800000000    0.3003940500000000    0.7659647500000000 O
