Rb1 La1 Se2
1.0
   2.2053441899999999    1.2732559699999999    7.8293357700000001
  -2.2053441899999999    1.2732559699999999    7.8293357700000001
   0.0000000000000000   -2.5465119500000002    7.8293357700000001
Rb La Se
1 1 2
direct
   0.0000000000000000    0.0000000000000000    0.0000000000000000 Rb
   0.5000000000000000    0.5000000000000000    0.5000000000000000 La
   0.2343159400000000    0.2343159400000000    0.2343159400000000 Se
   0.7656840600000000    0.7656840600000000    0.7656840600000000 Se
