In16 O24
1.0
  -5.1254621800000004    5.1254621800000004    5.1254621800000004
   5.1254621800000004   -5.1254621800000004    5.1254621800000004
   5.1254621800000004    5.1254621800000004   -5.1254621800000004
In O
16 24
direct
   0.0354634100000000    0.7500000000000000    0.7854634100000000 In
   0.9645365900000000    0.2500000000000000    0.2145365900000000 In
   0.4645365900000000    0.2500000000000000    0.7145365900000000 In
   0.0000000000000000    0.0000000000000000    0.5000000000000000 In
   0.2500000000000000    0.7145365900000000    0.4645365900000000 In
   0.7854634100000000    0.0354634100000000    0.7500000000000000 In
   0.2854634100000000    0.5354634100000000    0.7500000000000000 In
   0.2145365900000000    0.9645365900000000    0.2500000000000000 In
   0.7500000000000000    0.2854634100000000    0.5354634100000000 In
   0.0000000000000000    0.5000000000000000    0.0000000000000000 In
   0.7500000000000000    0.7854634100000000    0.0354634100000000 In
   0.2500000000000000    0.2145365900000000    0.9645365900000000 In
   0.7145365900000000    0.4645365900000000    0.2500000000000000 In
   0.5354634100000000    0.7500000000000000    0.2854634100000000 In
   0.5000000000000000    0.0000000000000000    0.0000000000000000 In
   0.5000000000000000    0.5000000000000000    0.5000000000000000 In
   0.5368537100000000    0.7722279700000000    0.5445959100000000 O
   0.2646247400000000    0.7723669500000000    0.7277720300000000 O
   0.0445959100000000    0.2723669500000000    0.0077422000000000 O
   0.0077422000000000    0.0445959100000000    0.2723669500000000 O
   0.7723669500000000    0.7277720300000000    0.2646247400000000 O
   0.4554040900000000    0.4631462900000000    0.2277720300000000 O
   0.4922578000000000    0.7646247400000000    0.0368537100000000 O
   0.2353752600000000    0.9631462900000000    0.5077422000000000 O
   0.9554040900000000    0.7276330500000000    0.9922578000000000 O
   0.7646247400000000    0.0368537100000000    0.4922578000000000 O
   0.9631462900000000    0.5077422000000000    0.2353752600000000 O
   0.7722279700000000    0.5445959100000000    0.5368537100000000 O
   0.7276330500000000    0.9922578000000000    0.9554040900000000 O
   0.2723669500000000    0.0077422000000000    0.0445959100000000 O
   0.0368537100000000    0.4922578000000000    0.7646247400000000 O
   0.7353752600000000    0.2276330500000000    0.2722279700000000 O
   0.5445959100000000    0.5368537100000000    0.7722279700000000 O
   0.7277720300000000    0.2646247400000000    0.7723669500000000 O
   0.4631462900000000    0.2277720300000000    0.4554040900000000 O
   0.5077422000000000    0.2353752600000000    0.9631462900000000 O
   0.2277720300000000    0.4554040900000000    0.4631462900000000 O
   0.2276330500000000    0.2722279700000000    0.7353752600000000 O
   0.2722279700000000    0.7353752600000000    0.2276330500000000 O
   0.9922578000000000    0.9554040900000000    0.7276330500000000 O
