Sc4 Ge4 O14
1.0
   0.0000000000000000    4.8102564699999997    4.8102564699999997
   4.8102564699999997    0.0000000000000000    4.8102564699999997
   4.8102564699999997    4.8102564699999997    0.0000000000000000
Sc Ge O
4 4 14
direct
   0.6250000000000000    0.6250000000000000    0.1250000000000000 Sc
   0.6250000000000000    0.1250000000000000    0.6250000000000000 Sc
   0.6250000000000000    0.6250000000000000    0.6250000000000000 Sc
   0.1250000000000000    0.6250000000000000    0.6250000000000000 Sc
   0.1250000000000000    0.6250000000000000    0.1250000000000000 Ge
   0.6250000000000000    0.1250000000000000    0.1250000000000000 Ge
   0.1250000000000000    0.1250000000000000    0.6250000000000000 Ge
   0.1250000000000000    0.1250000000000000    0.1250000000000000 Ge
   0.0395788100000000    0.4604211900000000    0.0395788100000000 O
   0.2104211900000000    0.7895788100000000    0.7895788100000000 O
   0.4604211900000000    0.0395788100000000    0.0395788100000000 O
   0.4604211900000000    0.0395788100000000    0.4604211900000000 O
   0.4604211900000000    0.4604211900000000    0.0395788100000000 O
   0.2104211900000000    0.7895788100000000    0.2104211900000000 O
   0.5000000000000000    0.5000000000000000    0.5000000000000000 O
   0.0395788100000000    0.4604211900000000    0.4604211900000000 O
   0.2104211900000000    0.2104211900000000    0.7895788100000000 O
   0.7895788100000000    0.2104211900000000    0.2104211900000000 O
   0.7500000000000000    0.7500000000000000    0.7500000000000000 O
   0.7895788100000000    0.7895788100000000    0.2104211900000000 O
   0.7895788100000000    0.2104211900000000    0.7895788100000000 O
   0.0395788100000000    0.0395788100000000    0.4604211900000000 O
