Cs12 In4 O12
1.0
   8.1076839300000003    0.0000000000000000    0.0113702100000000
   0.0000000000000000    7.3187729099999999    0.0000000000000000
  -1.0810698000000001    0.0000000000000000   11.7203150399999991
Cs In O
12 4 12
direct
   0.3501303700000000    0.3327347100000000    0.9277568899999999 Cs
   0.6252548500000000    0.3188001100000000    0.6928172500000001 Cs
   0.3747451500000000    0.8188001100000000    0.8071827499999999 Cs
   0.6252548500000000    0.1811998900000000    0.1928172500000000 Cs
   0.0496630000000000    0.1248930000000000    0.6565952900000001 Cs
   0.6498696300000000    0.6672652900000000    0.0722431100000000 Cs
   0.0496630000000000    0.3751070000000000    0.1565952900000000 Cs
   0.3747451500000000    0.6811998900000000    0.3071827500000000 Cs
   0.3501303700000000    0.1672652900000000    0.4277568900000000 Cs
   0.9503370000000000    0.8751070000000000    0.3434047100000000 Cs
   0.9503370000000000    0.6248930000000000    0.8434047099999999 Cs
   0.6498696300000000    0.8327347100000000    0.5722431100000001 Cs
   0.1565848800000000    0.9137547600000000    0.0682962200000000 In
   0.1565848800000000    0.5862452400000000    0.5682962200000000 In
   0.8434151200000000    0.0862452400000000    0.9317037800000000 In
   0.8434151200000000    0.4137547600000000    0.4317037800000000 In
   0.2933938300000000    0.4427022100000000    0.6969919999999999 O
   0.2479366400000000    0.6523846000000000    0.0419805200000000 O
   0.8961599000000000    0.9494958100000001    0.0938393900000000 O
   0.2479366400000000    0.8476154000000000    0.5419805200000000 O
   0.2933938300000000    0.0572977900000000    0.1969920000000000 O
   0.1038401000000000    0.0505041900000000    0.9061606100000000 O
   0.7066061700000000    0.5572977900000000    0.3030080000000000 O
   0.7066061700000000    0.9427022100000000    0.8030080000000001 O
   0.7520633600000000    0.3476154000000000    0.9580194800000000 O
   0.7520633600000000    0.1523846000000000    0.4580194800000000 O
   0.8961599000000000    0.5505041899999999    0.5938393900000000 O
   0.1038401000000000    0.4494958100000000    0.4061606100000000 O
