Ba2 Ga4 B4 O14
1.0
   5.8693484700000003   -4.3574744299999999    0.0000000000000000
   5.8693484700000003    4.3574744299999999    0.0000000000000000
   0.0000000000000000    0.0000000000000000    5.8014669899999998
Ba Ga B O
2 4 4 14
direct
   0.1940878200000000    0.8059121800000000    0.2500000000000000 Ba
   0.8059121800000000    0.1940878200000000    0.7500000000000000 Ba
   0.7101217600000000    0.8721333900000000    0.2500000000000000 Ga
   0.8721333900000000    0.7101217600000000    0.7500000000000000 Ga
   0.1278666100000000    0.2898782400000000    0.2500000000000000 Ga
   0.2898782400000000    0.1278666100000000    0.7500000000000000 Ga
   0.2824273300000000    0.4950670100000000    0.7500000000000000 B
   0.7175726700000000    0.5049329900000000    0.2500000000000000 B
   0.4950670100000000    0.2824273300000000    0.2500000000000000 B
   0.5049329900000000    0.7175726700000000    0.7500000000000000 B
   0.8672596900000000    0.8672596900000000    0.5000000000000000 O
   0.6666538300000000    0.3333461700000000    0.2500000000000000 O
   0.1327403100000000    0.1327403100000000    0.0000000000000000 O
   0.5844305900000000    0.6816874600000000    0.2500000000000000 O
   0.1327403100000000    0.1327403100000000    0.5000000000000000 O
   0.8672596900000000    0.8672596900000000    0.0000000000000000 O
   0.3333461700000000    0.6666538300000000    0.7500000000000000 O
   0.4924143600000000    0.9068230900000001    0.7500000000000000 O
   0.4155694100000000    0.3183125400000000    0.7500000000000000 O
   0.9068230900000001    0.4924143600000000    0.2500000000000000 O
   0.5075856399999999    0.0931769100000000    0.2500000000000000 O
   0.3183125400000000    0.4155694100000000    0.2500000000000000 O
   0.6816874600000000    0.5844305900000000    0.7500000000000000 O
   0.0931769100000000    0.5075856399999999    0.7500000000000000 O
