Rb1 Sc1 Mo2 O8
1.0
   5.8217791600000002   -0.0000000000000000    0.0000000000000000
  -2.9108890900000000    5.0418086400000002    0.0000000000000000
   0.0000000000000000    0.0000000000000000    7.5306288199999996
Rb Sc Mo O
1 1 2 8
direct
   0.0000000000000000    0.0000000000000000    0.0000000000000000 Rb
   0.0000000000000000    0.0000000000000000    0.5000000000000000 Sc
   0.3333330000000000    0.6666670000000000    0.2597369800000000 Mo
   0.6666670000000000    0.3333330000000000    0.7402630200000000 Mo
   0.1637833600000000    0.8362166400000000    0.3339995600000000 O
   0.8362166400000000    0.1637833600000000    0.6660004400000000 O
   0.1637833600000000    0.3275667300000000    0.3339995600000000 O
   0.8362166400000000    0.6724332700000000    0.6660004400000000 O
   0.6724332700000000    0.8362166400000000    0.3339995600000000 O
   0.3275667300000000    0.1637833600000000    0.6660004400000000 O
   0.3333330000000000    0.6666670000000000    0.0286218000000000 O
   0.6666670000000000    0.3333330000000000    0.9713782000000000 O
