La2 Zr2 Ta6 O22
1.0
   3.1481470100000002   -5.4440930600000002   -0.0021769500000000
   3.1481470100000002    5.4440930600000002   -0.0021769500000000
  -0.0479652100000000    0.0000000000000000   12.5430268399999996
La Zr Ta O
2 2 6 22
direct
   0.6680078500000000    0.3319921500000000    0.5000000000000000 La
   0.3332610500000000    0.6667389500000001    0.0000000000000000 La
   0.6425564700000000    0.0015435900000000    0.2511201800000000 Zr
   0.9984564100000000    0.3574435300000000    0.7488798200000000 Zr
   0.0010674300000000    0.6375468800000000    0.2504253000000000 Ta
   0.3666853400000000    0.3673224800000000    0.2485799000000000 Ta
   0.3624531200000000    0.9989325700000000    0.7495747000000000 Ta
   0.6326775200000000    0.6333146600000000    0.7514201000000000 Ta
   0.6703931200000000    0.3296068800000000    0.0000000000000000 Ta
   0.3333586300000000    0.6666413700000000    0.5000000000000000 Ta
   0.2459598100000000    0.0028319900000000    0.2494311700000000 O
   0.0143322600000000    0.2722719200000000    0.2512043900000000 O
   0.7444829200000000    0.7327335800000000    0.2490509700000000 O
   0.7277280800000000    0.9856677400000000    0.7487956099999999 O
   0.9971680100000000    0.7540401900000000    0.7505688300000000 O
   0.2672664200000000    0.2555170800000000    0.7509490300000000 O
   0.5655672100000000    0.6237335100000000    0.5941520000000000 O
   0.3624251200000000    0.9389537100000001    0.5939477500000000 O
   0.0519879300000000    0.4231104700000000    0.5841509700000000 O
   0.9459479500000000    0.3703417300000000    0.9140953600000000 O
   0.4266887700000000    0.0578489400000000    0.9060899300000000 O
   0.6280753200000000    0.5700112200000000    0.9072664499999999 O
   0.4299887800000000    0.3719246800000000    0.0927335500000000 O
   0.6296582700000000    0.0540520500000000    0.0859046400000000 O
   0.9421510600000000    0.5733112299999999    0.0939100700000000 O
   0.0610462900000000    0.6375748800000000    0.4060522500000000 O
   0.5768895300000000    0.9480120700000000    0.4158490300000000 O
   0.3762664900000000    0.4344327900000000    0.4058480000000000 O
   0.6689335199999999    0.3380896700000000    0.2939773000000000 O
   0.3326489000000000    0.6664549000000000    0.2059138700000000 O
   0.3335451000000000    0.6673511000000000    0.7940861299999999 O
   0.6619103300000000    0.3310664800000000    0.7060227000000000 O
