Ba2 Al4 Si6 N8 O8
1.0
   2.8682737199999999   -6.7821543100000001    0.0000000000000000
   2.8682737199999999    6.7821543100000001    0.0000000000000000
   0.0000000000000000    0.0000000000000000    9.5240427800000003
Ba Al Si N O
2 4 6 8 8
direct
   0.9807512600000000    0.0192487400000000    0.0004207600000000 Ba
   0.0192487400000000    0.9807512600000000    0.5004207600000000 Ba
   0.4739891800000000    0.5260108200000000    0.7548281600000000 Al
   0.5260108200000000    0.4739891800000000    0.2548281600000000 Al
   0.2876469200000000    0.7123530800000000    0.5389859200000000 Al
   0.7123530800000000    0.2876469200000000    0.0389859200000000 Al
   0.2982872500000000    0.7017127500000000    0.9861041800000000 Si
   0.7017127500000000    0.2982872500000000    0.4861041800000000 Si
   0.4285453700000000    0.0818530300000000    0.7617395300000001 Si
   0.9181469700000000    0.5714546300000000    0.7617395300000001 Si
   0.5714546300000000    0.9181469700000000    0.2617395300000000 Si
   0.0818530300000000    0.4285453700000000    0.2617395300000000 Si
   0.2085331700000000    0.7914668300000000    0.8510056600000000 N
   0.7914668300000000    0.2085331700000000    0.3510056600000000 N
   0.7130854800000000    0.2869145200000000    0.8456258900000000 N
   0.2869145200000000    0.7130854800000000    0.3456258900000000 N
   0.4632569700000000    0.0429008800000000    0.5886795100000000 N
   0.9570991200000000    0.5367430300000000    0.5886795100000000 N
   0.5367430300000000    0.9570991200000000    0.0886795100000000 N
   0.0429008800000000    0.4632569700000000    0.0886795100000000 N
   0.2970511200000000    0.1974368800000000    0.7604337600000000 O
   0.8025631200000000    0.7029488800000000    0.7604337600000000 O
   0.7029488800000000    0.8025631200000000    0.2604337600000000 O
   0.1974368800000000    0.2970511200000000    0.2604337600000000 O
   0.4077002500000000    0.5922997500000000    0.9119295100000000 O
   0.5922997500000000    0.4077002500000000    0.4119295100000000 O
   0.4074398700000000    0.5925601300000000    0.6016923000000000 O
   0.5925601300000000    0.4074398700000000    0.1016923000000000 O
