Na1 Al1 O2
1.0
   1.4343532500000000    0.8281243500000000    5.2384774399999996
  -1.4343532500000000    0.8281243500000000    5.2384774399999996
   0.0000000000000000   -1.6562487100000001    5.2384774399999996
Na Al O
1 1 2
direct
   0.0000000000000000    0.0000000000000000    0.0000000000000000 Na
   0.5000000000000000    0.5000000000000000    0.5000000000000000 Al
   0.7691619100000000    0.7691619100000000    0.7691619100000000 O
   0.2308380900000000    0.2308380900000000    0.2308380900000000 O
