Rb4 Ti4 P4 S20
1.0
   9.0876146299999991   -3.5340359700000001   -0.0001975300000000
   9.0876146299999991    3.5340359700000001   -0.0001975300000000
  -8.3176621599999994    0.0000000000000000   12.8381863299999992
Rb Ti P S
4 4 4 20
direct
   0.6642170100000000    0.6642170100000000    0.8682700600000000 Rb
   0.7053860700000000    0.7053860700000000    0.3579619400000000 Rb
   0.2946139300000000    0.2946139300000000    0.6420380600000000 Rb
   0.3357829900000000    0.3357829900000000    0.1317299400000000 Rb
   0.2718403000000000    0.7281597000000000    0.0000000000000000 Ti
   0.7281597000000000    0.2718403000000000    0.0000000000000000 Ti
   0.2258570600000000    0.7741429399999999    0.5000000000000000 Ti
   0.7741429399999999    0.2258570600000000    0.5000000000000000 Ti
   0.3299292000000000    0.3299292000000000    0.4011797100000000 P
   0.0751569200000000    0.0751569200000000    0.8955541100000000 P
   0.9248430800000000    0.9248430800000000    0.1044458900000000 P
   0.6700708000000000    0.6700708000000000    0.5988202900000000 P
   0.1750008400000000    0.1750008400000000    0.8785956300000000 S
   0.1198534100000000    0.5888540100000000    0.3403787700000000 S
   0.5888540100000000    0.1198534100000000    0.3403787700000000 S
   0.9728232400000000    0.9728232400000000    0.5888579500000000 S
   0.4390833500000000    0.4390833500000000    0.5558807200000000 S
   0.1110516400000000    0.1110516400000000    0.0516752600000000 S
   0.2316068900000000    0.7600955800000000    0.8388535200000000 S
   0.7600955800000000    0.2316068900000000    0.8388535200000000 S
   0.6091100300000000    0.6091100300000000    0.0889894100000000 S
   0.2147048000000000    0.2147048000000000    0.3845978000000000 S
   0.7852952000000000    0.7852952000000000    0.6154022000000000 S
   0.3908899700000000    0.3908899700000000    0.9110105900000000 S
   0.7683931100000000    0.2399044200000000    0.1611464800000000 S
   0.2399044200000000    0.7683931100000000    0.1611464800000000 S
   0.8889483600000000    0.8889483600000000    0.9483247400000000 S
   0.5609166500000000    0.5609166500000000    0.4441192800000000 S
   0.0271767600000000    0.0271767600000000    0.4111420500000000 S
   0.4111459900000000    0.8801465900000000    0.6596212299999999 S
   0.8801465900000000    0.4111459900000000    0.6596212299999999 S
   0.8249991600000000    0.8249991600000000    0.1214043700000000 S
