Rb4 Sr2 P4 O14
1.0
   5.1257781299999996   -2.9323188500000001   -0.0174997300000000
   5.1257781299999996    2.9323188500000001   -0.0174997300000000
  -3.9369781300000000    0.0000000000000000   12.8955021300000006
Rb Sr P O
4 2 4 14
direct
   0.1329416200000000    0.5686999600000000    0.3346086100000000 Rb
   0.4313000400000000    0.8670583800000000    0.1653913900000000 Rb
   0.8670583800000000    0.4313000400000000    0.6653913900000000 Rb
   0.5686999600000000    0.1329416200000000    0.8346086100000000 Rb
   0.5000000000000000    0.0000000000000000    0.5000000000000000 Sr
   0.0000000000000000    0.5000000000000000    0.0000000000000000 Sr
   0.2001094400000000    0.7485792800000000    0.6351030700000000 P
   0.2514207200000000    0.7998905600000000    0.8648969300000000 P
   0.7998905600000000    0.2514207200000000    0.3648969300000000 P
   0.7485792800000000    0.2001094400000000    0.1351030700000000 P
   0.3446436100000000    0.6553563900000000    0.7500000000000000 O
   0.6553563900000000    0.3446436100000000    0.2500000000000000 O
   0.2980013000000000    0.4835580300000000    0.5630922400000000 O
   0.5164419700000000    0.7019987000000000    0.9369077600000000 O
   0.7019987000000000    0.5164419700000000    0.4369077600000000 O
   0.4835580300000000    0.2980013000000000    0.0630922400000000 O
   0.8998791100000000    0.8989584700000000    0.6352688700000000 O
   0.1010415300000000    0.1001208900000000    0.8647311300000000 O
   0.1001208900000000    0.1010415300000000    0.3647311300000000 O
   0.8989584700000000    0.8998791100000000    0.1352688700000000 O
   0.9248320799999999    0.3116082300000000    0.1247803000000000 O
   0.6883917700000000    0.0751679200000000    0.3752197000000000 O
   0.0751679200000000    0.6883917700000000    0.8752197000000000 O
   0.3116082300000000    0.9248320799999999    0.6247803000000000 O
