Ca4 N8 O24
1.0
   7.5111299100000002    0.0000000000000000    0.0000000000000000
   0.0000000000000000    7.5111299100000002    0.0000000000000000
   0.0000000000000000    0.0000000000000000    7.5111299100000002
Ca N O
4 8 24
direct
   0.0000000000000000    0.5000000000000000    0.5000000000000000 Ca
   0.5000000000000000    0.5000000000000000    0.0000000000000000 Ca
   0.5000000000000000    0.0000000000000000    0.5000000000000000 Ca
   0.0000000000000000    0.0000000000000000    0.0000000000000000 Ca
   0.3383571800000000    0.3383571800000000    0.3383571800000000 N
   0.3383571800000000    0.1616428200000000    0.8383571800000000 N
   0.1616428200000000    0.8383571800000000    0.3383571800000000 N
   0.8383571800000000    0.3383571800000000    0.1616428200000000 N
   0.6616428200000000    0.6616428200000000    0.6616428200000000 N
   0.1616428200000000    0.6616428200000000    0.8383571800000000 N
   0.8383571800000000    0.1616428200000000    0.6616428200000000 N
   0.6616428200000000    0.8383571800000000    0.1616428200000000 N
   0.7575289600000000    0.2825395100000000    0.0257566300000000 O
   0.2174604900000000    0.9742433700000001    0.2575289600000000 O
   0.2424710400000000    0.7825395100000000    0.4742433700000000 O
   0.2575289600000000    0.2174604900000000    0.9742433700000001 O
   0.2575289600000000    0.2825395100000000    0.4742433700000000 O
   0.4742433700000000    0.2575289600000000    0.2825395100000000 O
   0.2825395100000000    0.4742433700000000    0.2575289600000000 O
   0.2174604900000000    0.5257566299999999    0.7575289600000000 O
   0.9742433700000001    0.2424710400000000    0.7174604900000000 O
   0.7174604900000000    0.9742433700000001    0.2424710400000000 O
   0.0257566300000000    0.7424710400000000    0.7825395100000000 O
   0.5257566299999999    0.7575289600000000    0.2174604900000000 O
   0.7825395100000000    0.0257566300000000    0.7424710400000000 O
   0.7575289600000000    0.2174604900000000    0.5257566299999999 O
   0.7424710400000000    0.7825395100000000    0.0257566300000000 O
   0.2424710400000000    0.7174604900000000    0.9742433700000001 O
   0.7424710400000000    0.7174604900000000    0.5257566299999999 O
   0.5257566299999999    0.7424710400000000    0.7174604900000000 O
   0.7174604900000000    0.5257566299999999    0.7424710400000000 O
   0.7825395100000000    0.4742433700000000    0.2424710400000000 O
   0.0257566300000000    0.7575289600000000    0.2825395100000000 O
   0.2825395100000000    0.0257566300000000    0.7575289600000000 O
   0.9742433700000001    0.2575289600000000    0.2174604900000000 O
   0.4742433700000000    0.2424710400000000    0.7825395100000000 O
