Tl8 B8 O16
1.0
   7.3433935300000002    0.0000030100000000    0.0000000000000000
  -0.0000030100000000    7.3433935300000002    0.0000000000000000
   0.0000000000000000    0.0000000000000000    9.3826557299999997
Tl B O
8 8 16
direct
   0.7466935600000000    0.9768556200000000    0.9061185600000000 Tl
   0.0231443800000000    0.7466935600000000    0.1561185600000000 Tl
   0.9768556200000000    0.2533064400000000    0.6561185600000000 Tl
   0.2533064400000000    0.0231443800000000    0.4061185600000000 Tl
   0.7358198100000000    0.7297118200000000    0.4934308500000000 Tl
   0.2702881800000000    0.7358198100000000    0.7434308500000000 Tl
   0.7297118200000000    0.2641801900000000    0.2434308500000000 Tl
   0.2641801900000000    0.2702881800000000    0.9934308500000000 Tl
   0.5482613600000000    0.5963464700000000    0.0213733700000000 B
   0.4036535300000000    0.5482613600000000    0.2713733700000000 B
   0.5963464700000000    0.4517386400000000    0.7713733699999999 B
   0.4517386400000000    0.4036535300000000    0.5213733699999999 B
   0.8680975000000000    0.5433549700000000    0.9198337900000000 B
   0.4566450300000000    0.8680975000000000    0.1698337900000000 B
   0.5433549700000000    0.1319025000000000    0.6698337900000000 B
   0.1319025000000000    0.4566450300000000    0.4198337900000000 B
   0.2069377400000000    0.5026319800000000    0.2887617800000000 O
   0.4973680200000000    0.2069377400000000    0.5387617800000000 O
   0.5026319800000000    0.7930622600000000    0.0387617800000000 O
   0.7930622600000000    0.4973680200000000    0.7887617800000000 O
   0.5139404900000000    0.4612845900000000    0.3810850100000000 O
   0.5387154100000000    0.5139404900000000    0.6310850099999999 O
   0.4612845900000000    0.4860595100000000    0.1310850100000000 O
   0.4860595100000000    0.5387154100000000    0.8810850099999999 O
   0.2503761600000000    0.4241872900000000    0.5340919800000000 O
   0.5758127100000000    0.2503761600000000    0.7840919800000000 O
   0.4241872900000000    0.7496238400000000    0.2840919800000000 O
   0.7496238400000000    0.5758127100000000    0.0340919800000000 O
   0.9506582200000000    0.4380788300000000    0.4408046600000000 O
   0.5619211700000000    0.9506582200000000    0.6908046600000000 O
   0.4380788300000000    0.0493417800000000    0.1908046600000000 O
   0.0493417800000000    0.5619211700000000    0.9408046600000000 O
