Tl4 B4 Se14
1.0
   7.6225297899999997   -3.5261586299999998   -0.0000066900000000
   7.6225297899999997    3.5261586299999998   -0.0000066900000000
  -5.9091479700000002    0.0000000000000000   10.3284125800000002
Tl B Se
4 4 14
direct
   0.6821826800000000    0.1109001800000000    0.9711176900000000 Tl
   0.8890998200000000    0.3178173200000000    0.5288823100000000 Tl
   0.3178173200000000    0.8890998200000000    0.0288823100000000 Tl
   0.1109001800000000    0.6821826800000000    0.4711176900000000 Tl
   0.1620308000000000    0.6040554000000000    0.1522907000000000 B
   0.3959446000000000    0.8379692000000000    0.3477093000000000 B
   0.8379692000000000    0.3959446000000000    0.8477093000000000 B
   0.6040554000000000    0.1620308000000000    0.6522907000000000 B
   0.5615382300000000    0.1827465900000000    0.4758391500000000 Se
   0.8172534100000000    0.4384617700000000    0.0241608500000000 Se
   0.4384617700000000    0.8172534100000000    0.5241608500000000 Se
   0.1827465900000000    0.5615382300000000    0.9758391500000000 Se
   0.3842019000000000    0.1504671900000000    0.6737847300000001 Se
   0.8495328100000000    0.6157981000000000    0.8262152699999999 Se
   0.6157981000000000    0.8495328100000000    0.3262152700000000 Se
   0.1504671900000000    0.3842019000000000    0.1737847300000000 Se
   0.9018755000000001    0.9297417200000000    0.7314940599999999 Se
   0.0702582800000000    0.0981245000000000    0.7685059400000001 Se
   0.0981245000000000    0.0702582800000000    0.2685059400000000 Se
   0.9297417200000000    0.9018755000000001    0.2314940600000000 Se
   0.5316037800000000    0.4683962200000000    0.7500000000000000 Se
   0.4683962200000000    0.5316037800000000    0.2500000000000000 Se
