Al4 S6 O24
1.0
   4.0292120599999999    2.3262665299999998    7.1647011000000003
  -4.0292122900000003    2.3262661300000000    7.1647011000000003
   0.0000002300000000   -4.6525336499999996    7.1647011000000003
Al S O
4 6 24
direct
   0.1438077600000000    0.1438077600000000    0.1438077600000000 Al
   0.8561922400000000    0.8561922400000000    0.8561922400000000 Al
   0.3515823000000000    0.3515823000000000    0.3515823000000000 Al
   0.6484177000000000    0.6484177000000000    0.6484177000000000 Al
   0.5394170600000000    0.9637151600000000    0.2484753100000000 S
   0.2484753100000000    0.5394170600000000    0.9637151600000000 S
   0.9637151600000000    0.2484753100000000    0.5394170600000000 S
   0.7515246900000000    0.4605829400000000    0.0362848400000000 S
   0.4605829400000000    0.0362848400000000    0.7515246900000000 S
   0.0362848400000000    0.7515246900000000    0.4605829400000000 S
   0.1851491400000000    0.5460539599999999    0.4746716000000000 O
   0.4746716000000000    0.1851491400000000    0.5460539599999999 O
   0.5460539599999999    0.4746716000000000    0.1851491400000000 O
   0.8148508600000000    0.4539460400000000    0.5253284000000000 O
   0.5253284000000000    0.8148508600000000    0.4539460400000000 O
   0.4539460400000000    0.5253284000000000    0.8148508600000000 O
   0.1112959200000000    0.8966988900000000    0.2636914800000000 O
   0.2636914800000000    0.1112959200000000    0.8966988900000000 O
   0.8966988900000000    0.2636914800000000    0.1112959200000000 O
   0.8887040800000000    0.1033011100000000    0.7363085200000000 O
   0.2065423800000000    0.3783104600000000    0.9920532700000000 O
   0.3783104600000000    0.9920532700000000    0.2065423800000000 O
   0.9920532700000000    0.2065423800000000    0.3783104600000000 O
   0.7934576200000000    0.6216895400000000    0.0079467300000000 O
   0.6216895400000000    0.0079467300000000    0.7934576200000000 O
   0.0079467300000000    0.7934576200000000    0.6216895400000000 O
   0.2283099600000000    0.5197513400000000    0.1567046600000000 O
   0.5197513400000000    0.1567046600000000    0.2283099600000000 O
   0.1567046600000000    0.2283099600000000    0.5197513400000000 O
   0.7716900400000000    0.4802486600000000    0.8432953399999999 O
   0.4802486600000000    0.8432953399999999    0.7716900400000000 O
   0.8432953399999999    0.7716900400000000    0.4802486600000000 O
   0.1033011100000000    0.7363085200000000    0.8887040800000000 O
   0.7363085200000000    0.8887040800000000    0.1033011100000000 O
