Ta8 Tl8 O24
1.0
   6.5299986499999996   -3.7735299599999998   -0.0070562200000000
   6.5299986499999996    3.7735299599999998   -0.0070562200000000
  -4.4106277399999998    0.0000000000000000   12.2930807899999994
Ta Tl O
8 8 24
direct
   0.5000000000000000    0.0000000000000000    0.5000000000000000 Ta
   0.5000000000000000    0.5000000000000000    0.5000000000000000 Ta
   0.0000000000000000    0.0000000000000000    0.0000000000000000 Ta
   0.0000000000000000    0.0000000000000000    0.5000000000000000 Ta
   0.7482374800000000    0.2517625200000000    0.7500000000000000 Ta
   0.0000000000000000    0.5000000000000000    0.0000000000000000 Ta
   0.2517625200000000    0.7482374800000000    0.2500000000000000 Ta
   0.5000000000000000    0.5000000000000000    0.0000000000000000 Ta
   0.1933880400000000    0.3303340600000000    0.7414846800000000 Tl
   0.0000000000000000    0.5000000000000000    0.5000000000000000 Tl
   0.2376351200000000    0.7623648800000000    0.7500000000000000 Tl
   0.3303340600000000    0.1933880400000000    0.2414846800000000 Tl
   0.5000000000000000    0.0000000000000000    0.0000000000000000 Tl
   0.6696659400000000    0.8066119600000000    0.7585153200000000 Tl
   0.7623648800000000    0.2376351200000000    0.2500000000000000 Tl
   0.8066119600000000    0.6696659400000000    0.2585153200000000 Tl
   0.9012515100000000    0.4111845900000000    0.8438432500000000 O
   0.2193217900000000    0.0904381100000000    0.5287642800000000 O
   0.5948473100000000    0.7206906900000000    0.5352763300000000 O
   0.5351468500000000    0.4066745000000000    0.8452273400000000 O
   0.2805914900000000    0.7809435100000000    0.9692366500000000 O
   0.4111845900000000    0.9012515100000000    0.3438432500000000 O
   0.7206906900000000    0.5948473100000000    0.0352763300000000 O
   0.5933255000000000    0.4648531500000000    0.6547726600000000 O
   0.9022994500000000    0.0284436200000000    0.8422135300000000 O
   0.2190564900000000    0.7194085099999999    0.5307633500000000 O
   0.0904381100000000    0.2193217900000000    0.0287642800000000 O
   0.9715563800000000    0.0977005500000000    0.6577864700000000 O
   0.9095618900000000    0.7806782100000000    0.9712357200000000 O
   0.0284436200000000    0.9022994500000000    0.3422135300000000 O
   0.7809435100000000    0.2805914900000000    0.4692366500000000 O
   0.0977005500000000    0.9715563800000000    0.1577864700000000 O
   0.4066745000000000    0.5351468500000000    0.3452273400000000 O
   0.2793093100000000    0.4051526900000000    0.9647236700000000 O
   0.7194085099999999    0.2190564900000000    0.0307633500000000 O
   0.5888154100000000    0.0987484900000000    0.6561567500000000 O
   0.4648531500000000    0.5933255000000000    0.1547726600000000 O
   0.4051526900000000    0.2793093100000000    0.4647236700000000 O
   0.7806782100000000    0.9095618900000000    0.4712357200000000 O
   0.0987484900000000    0.5888154100000000    0.1561567500000000 O
