Rb8 W4 S16
1.0
   9.6829476900000007    0.0000000000000000    0.0000000000000000
   0.0000000000000000    6.9421708899999999    0.0000000000000000
   0.0000000000000000    0.0000000000000000   12.3507031699999992
Rb W S
8 4 16
direct
   0.9582488400000000    0.2500000000000000    0.3351249600000000 Rb
   0.4582488400000000    0.2500000000000000    0.1648750400000000 Rb
   0.0417511600000000    0.7500000000000000    0.6648750400000000 Rb
   0.5417511600000000    0.7500000000000000    0.8351249600000000 Rb
   0.6570164300000000    0.2500000000000000    0.6084767200000000 Rb
   0.1570164300000000    0.2500000000000000    0.8915232800000000 Rb
   0.3429835700000000    0.7500000000000000    0.3915232800000000 Rb
   0.8429835700000000    0.7500000000000000    0.1084767200000000 Rb
   0.7481117600000000    0.2500000000000000    0.9275358800000000 W
   0.2481117600000000    0.2500000000000000    0.5724641200000000 W
   0.2518882400000000    0.7500000000000000    0.0724641200000000 W
   0.7518882400000000    0.7500000000000000    0.4275358800000000 W
   0.6549651399999999    0.4942847000000000    0.3566051400000000 S
   0.1549651400000000    0.0057153000000000    0.1433948600000000 S
   0.3450348600000000    0.9942847000000000    0.6433948600000000 S
   0.8450348600000001    0.5057153000000000    0.8566051400000000 S
   0.3450348600000000    0.5057153000000000    0.6433948600000000 S
   0.8450348600000001    0.9942847000000000    0.8566051400000000 S
   0.6549651399999999    0.0057153000000000    0.3566051400000000 S
   0.1549651400000000    0.4942847000000000    0.1433948600000000 S
   0.5249131500000001    0.2500000000000000    0.8908436199999999 S
   0.0249131500000000    0.2500000000000000    0.6091563800000001 S
   0.4750868500000000    0.7500000000000000    0.1091563800000000 S
   0.9750868499999999    0.7500000000000000    0.3908436200000000 S
   0.7845744200000000    0.2500000000000000    0.1032361700000000 S
   0.2845744200000000    0.2500000000000000    0.3967638300000000 S
   0.2154255800000000    0.7500000000000000    0.8967638300000000 S
   0.7154255800000000    0.7500000000000000    0.6032361700000000 S
