Li8 Zr1 O6
1.0
   2.7424995700000001    1.5833825399999999    5.1651129600000001
  -2.7424995700000001    1.5833825300000000    5.1651129600000001
   0.0000000000000000   -3.1667650699999998    5.1651129600000001
Li Zr O
8 1 6
direct
   0.8972739400000000    0.2343201900000000    0.5027427500000000 Li
   0.4972572500000000    0.1027260600000000    0.7656798100000000 Li
   0.7656798100000000    0.4972572500000000    0.1027260600000000 Li
   0.6546468700000000    0.6546468700000000    0.6546468700000000 Li
   0.3453531300000000    0.3453531300000000    0.3453531300000000 Li
   0.2343201900000000    0.5027427500000000    0.8972739400000000 Li
   0.5027427500000000    0.8972739400000000    0.2343201900000000 Li
   0.1027260600000000    0.7656798100000000    0.4972572500000000 Li
   0.0000000000000000    0.0000000000000000    0.0000000000000000 Zr
   0.7640336500000000    0.0932534600000000    0.3878378000000000 O
   0.6121622000000000    0.2359663500000000    0.9067465400000000 O
   0.9067465400000000    0.6121622000000000    0.2359663500000000 O
   0.0932534600000000    0.3878378000000000    0.7640336500000000 O
   0.3878378000000000    0.7640336500000000    0.0932534600000000 O
   0.2359663500000000    0.9067465400000000    0.6121622000000000 O
