Ca4 Sb4 O14
1.0
  -3.6653454499999998    5.1169755200000004    3.7346921499999999
   3.6653454499999998   -5.1169755200000004    3.7346921499999999
   3.6653454499999998    5.1169755200000004   -3.7346921499999999
Ca Sb O
4 4 14
direct
   0.5000000000000000    0.0000000000000000    0.0000000000000000 Ca
   0.5000000000000000    0.5000000000000000    0.5000000000000000 Ca
   0.0000000000000000    0.0000000000000000    0.0000000000000000 Ca
   0.5000000000000000    0.0000000000000000    0.5000000000000000 Ca
   0.0000000000000000    0.5000000000000000    0.0000000000000000 Sb
   0.0000000000000000    0.0000000000000000    0.5000000000000000 Sb
   0.5000000000000000    0.5000000000000000    0.0000000000000000 Sb
   0.0000000000000000    0.5000000000000000    0.5000000000000000 Sb
   0.3211234600000000    0.6501631200000000    0.0929707600000000 O
   0.6788765400000000    0.7718473000000000    0.3290396600000000 O
   0.0571923600000000    0.2281527000000000    0.4070292400000000 O
   0.9428076399999999    0.3498368800000000    0.1709603400000000 O
   0.6788765400000000    0.3498368800000000    0.9070292400000000 O
   0.3211234600000000    0.2281527000000000    0.6709603400000000 O
   0.9428076399999999    0.7718473000000000    0.5929707600000000 O
   0.0571923600000000    0.6501631200000000    0.8290396600000000 O
   0.9000560500000000    0.1500560500000000    0.7500000000000000 O
   0.0999439500000000    0.8499439500000000    0.2500000000000000 O
   0.6356472300000000    0.7302927600000000    0.9053554700000001 O
   0.3643527700000000    0.2697072400000000    0.0946445300000000 O
   0.3249372900000000    0.7302927600000000    0.5946445299999999 O
   0.6750627100000000    0.2697072400000000    0.4053554700000000 O
