Cs2 V6 O16
1.0
   5.0120763999999998    0.0000000000000000    0.0507793100000000
   0.0000000000000000    8.5303789200000004    0.0000000000000000
  -1.0415338999999999    0.0000000000000000    8.1253419200000003
Cs V O
2 6 16
direct
   0.0722316700000000    0.2500000000000000    0.9345492500000000 Cs
   0.9277683300000000    0.7500000000000000    0.0654507500000000 Cs
   0.4367409900000000    0.5562909300000000    0.6707887400000000 V
   0.5632590100000000    0.0562909300000000    0.3292112600000000 V
   0.5632590100000000    0.4437090700000000    0.3292112600000000 V
   0.4367409900000000    0.9437090700000000    0.6707887400000000 V
   0.0730084600000000    0.2500000000000000    0.4216570600000000 V
   0.9269915399999999    0.7500000000000000    0.5783429400000000 V
   0.1103094700000000    0.6003929400000000    0.7216629500000000 O
   0.8896905300000000    0.1003929400000000    0.2783370500000000 O
   0.8896905300000000    0.3996070600000000    0.2783370500000000 O
   0.1103094700000000    0.8996070600000000    0.7216629500000000 O
   0.4323447500000000    0.5582797100000000    0.1837123700000000 O
   0.5676552499999999    0.0582797100000000    0.8162876300000000 O
   0.5676552499999999    0.4417202900000000    0.8162876300000000 O
   0.4323447500000000    0.9417202900000000    0.1837123700000000 O
   0.1263468000000000    0.7500000000000000    0.4358936300000000 O
   0.8736532000000000    0.2500000000000000    0.5641063700000000 O
   0.5824055500000000    0.7500000000000000    0.7402986800000000 O
   0.4175944500000000    0.2500000000000000    0.2597013200000000 O
   0.6833930900000000    0.9117136100000000    0.5033395200000000 O
   0.3166069100000000    0.4117136100000000    0.4966604800000000 O
   0.3166069100000000    0.0882863900000000    0.4966604800000000 O
   0.6833930900000000    0.5882863900000000    0.5033395200000000 O
