Ca3 Cd1 O4
1.0
   3.3388455000000001   -4.7463245299999999    0.0000000000000000
   3.3388455000000001    4.7463245299999999    0.0000000000000000
   0.0000000000000000    0.0000000000000000    3.3700551800000000
Ca Cd O
3 1 4
direct
   0.5000000000000000    0.5000000000000000    0.0000000000000000 Ca
   0.0000000000000000    0.5000000000000000    0.5000000000000000 Ca
   0.5000000000000000    0.0000000000000000    0.5000000000000000 Ca
   0.0000000000000000    0.0000000000000000    0.0000000000000000 Cd
   0.2536795100000000    0.7463204900000000    0.0000000000000000 O
   0.7461994000000000    0.7461994000000000    0.5000000000000000 O
   0.2538006000000000    0.2538006000000000    0.5000000000000000 O
   0.7463204900000000    0.2536795100000000    0.0000000000000000 O
