Na2 Zr2 Cu2 S6
1.0
   1.8459953000000000   -6.3692952500000004    0.0000000000000000
   1.8459953000000000    6.3692952500000004    0.0000000000000000
   0.0000000000000000    0.0000000000000000    9.7237098700000004
Na Zr Cu S
2 2 2 6
direct
   0.2496195700000000    0.7503804300000000    0.7500000000000000 Na
   0.7503804300000000    0.2496195700000000    0.2500000000000000 Na
   0.0000000000000000    0.0000000000000000    0.5000000000000000 Zr
   0.0000000000000000    0.0000000000000000    0.0000000000000000 Zr
   0.5308563400000000    0.4691436600000000    0.7500000000000000 Cu
   0.4691436600000000    0.5308563400000000    0.2500000000000000 Cu
   0.0779673500000000    0.9220326500000000    0.2500000000000000 S
   0.6337887700000000    0.3662112300000000    0.9398244100000001 S
   0.9220326500000000    0.0779673500000000    0.7500000000000000 S
   0.6337887700000000    0.3662112300000000    0.5601755899999999 S
   0.3662112300000000    0.6337887700000000    0.0601755900000000 S
   0.3662112300000000    0.6337887700000000    0.4398244100000000 S
