Cs12 Bi4 O12
1.0
   9.1752206100000002    0.0000000000000000    0.0000000000000000
   0.0000000000000000    9.1752206100000002    0.0000000000000000
   0.0000000000000000    0.0000000000000000    9.1752206100000002
Cs Bi O
12 4 12
direct
   0.2182336600000000    0.7182336600000000    0.7817663400000000 Cs
   0.2783846600000000    0.7216153400000000    0.2216153400000000 Cs
   0.9818212700000000    0.4818212700000000    0.0181787300000000 Cs
   0.7783846600000000    0.7783846600000000    0.7783846600000000 Cs
   0.4818212700000000    0.0181787300000000    0.9818212700000000 Cs
   0.7182336600000000    0.7817663400000000    0.2182336600000000 Cs
   0.5181787300000000    0.5181787300000000    0.5181787300000000 Cs
   0.7817663400000000    0.2182336600000000    0.7182336600000000 Cs
   0.7216153400000000    0.2216153400000000    0.2783846600000000 Cs
   0.0181787300000000    0.9818212700000000    0.4818212700000000 Cs
   0.2216153400000000    0.2783846600000000    0.7216153400000000 Cs
   0.2817663400000000    0.2817663400000000    0.2817663400000000 Cs
   0.5079698100000000    0.4920301900000000    0.9920301900000000 Bi
   0.0079698100000000    0.0079698100000000    0.0079698100000000 Bi
   0.9920301900000000    0.5079698100000000    0.4920301900000000 Bi
   0.4920301900000000    0.9920301900000000    0.5079698100000000 Bi
   0.2844596100000000    0.4537008900000000    0.9958869299999999 O
   0.7844596100000000    0.0462991100000000    0.0041130700000000 O
   0.7155403900000000    0.9537008900000000    0.5041130700000001 O
   0.9958869299999999    0.2844596100000000    0.4537008900000000 O
   0.9537008900000000    0.5041130700000001    0.7155403900000000 O
   0.0462991100000000    0.0041130700000000    0.7844596100000000 O
   0.2155403900000000    0.5462991100000000    0.4958869300000000 O
   0.4537008900000000    0.9958869299999999    0.2844596100000000 O
   0.5462991100000000    0.4958869300000000    0.2155403900000000 O
   0.5041130700000001    0.7155403900000000    0.9537008900000000 O
   0.0041130700000000    0.7844596100000000    0.0462991100000000 O
   0.4958869300000000    0.2155403900000000    0.5462991100000000 O
