Rb2 S1
1.0
   0.0000000000000000    3.8399060000000000    3.8399060000000000
   3.8399060000000000    0.0000000000000000    3.8399060000000000
   3.8399060000000000    3.8399060000000000    0.0000000000000000
Rb S
2 1
direct
   0.7500000000000000    0.7500000000000000    0.7500000000000000 Rb
   0.2500000000000000    0.2500000000000000    0.2500000000000000 Rb
   0.0000000000000000    0.0000000000000000    0.0000000000000000 S
