Ag4 B12 O20
1.0
  10.2957168600000006    0.0000000000000000    0.0000000000000000
   0.0000000000000000    8.2700799099999998    0.0000000000000000
   0.0000000000000000    0.0000000000000000    3.8786218200000002
Ag B O
4 12 20
direct
   0.4203954100000000    0.4066761800000000    0.7493109700000000 Ag
   0.5796045900000000    0.5933238199999999    0.2493109700000000 Ag
   0.0796045900000000    0.9066761800000001    0.2493109700000000 Ag
   0.9203954100000000    0.0933238200000000    0.7493109700000000 Ag
   0.6611199800000001    0.2505265200000000    0.0891668100000000 B
   0.3388800200000000    0.7494734800000000    0.5891668100000000 B
   0.8388800199999999    0.7505265200000000    0.5891668100000000 B
   0.1611199800000000    0.2494734800000000    0.0891668100000000 B
   0.6876740300000000    0.9628654800000001    0.2789866900000000 B
   0.3123259700000000    0.0371345200000000    0.7789866900000000 B
   0.8123259700000000    0.4628654800000000    0.7789866900000000 B
   0.1876740300000000    0.5371345199999999    0.2789866900000000 B
   0.5298253000000001    0.8976383900000000    0.8217322600000000 B
   0.4701747000000000    0.1023616100000000    0.3217322600000000 B
   0.9701746999999999    0.3976383900000000    0.3217322600000000 B
   0.0298253000000000    0.6023616100000000    0.8217322600000000 B
   0.5315923299999999    0.2491119800000000    0.1868942100000000 O
   0.4684076700000000    0.7508880200000000    0.6868942099999999 O
   0.9684076700000001    0.7491119800000000    0.6868942099999999 O
   0.0315923300000000    0.2508880200000000    0.1868942100000000 O
   0.7016347700000000    0.3961221900000000    0.9588631800000000 O
   0.2983652300000000    0.6038778100000000    0.4588631800000000 O
   0.7983652300000000    0.8961221900000000    0.4588631800000000 O
   0.2016347700000000    0.1038778100000000    0.9588631800000000 O
   0.7343603500000000    0.1148610000000000    0.1229195800000000 O
   0.2656396500000000    0.8851390000000000    0.6229195800000000 O
   0.7656396500000000    0.6148610000000000    0.6229195800000000 O
   0.2343603500000000    0.3851390000000000    0.1229195800000000 O
   0.6357560000000000    0.8527986700000000    0.0306440400000000 O
   0.3642440000000000    0.1472013300000000    0.5306440400000000 O
   0.8642440000000000    0.3527986700000000    0.5306440400000000 O
   0.1357560000000000    0.6472013300000000    0.0306440400000000 O
   0.5728147200000000    0.0084643400000000    0.5221812600000000 O
   0.4271852800000000    0.9915356600000000    0.0221812600000000 O
   0.9271852800000000    0.5084643400000000    0.0221812600000000 O
   0.0728147200000000    0.4915356600000000    0.5221812600000000 O
