Na2 Al2 P4 S12
1.0
   0.0000000000000000    5.4707731199999996   10.3389381100000008
   4.0627698600000004    0.0000000000000000   10.3389381100000008
   4.0627698600000004    5.4707731199999996    0.0000000000000000
Na Al P S
2 2 4 12
direct
   0.8424733100000000    0.8424733100000000    0.6575266900000000 Na
   0.5924733100000000    0.5924733100000000    0.4075266900000000 Na
   0.1775562500000000    0.1775562500000000    0.3224437500000000 Al
   0.9275562500000000    0.9275562500000000    0.0724437500000000 Al
   0.9653027199999999    0.0695907000000000    0.6530955300000000 P
   0.0695907000000000    0.9653027199999999    0.3120110500000000 P
   0.9379889500000000    0.5969044700000000    0.1804093000000000 P
   0.5969044700000000    0.9379889500000000    0.2846972800000000 P
   0.0858160000000000    0.6186412900000000    0.9353588800000000 S
   0.6186412900000000    0.0858160000000000    0.3601838300000000 S
   0.8898161700000000    0.3146411200000000    0.6313587100000000 S
   0.3146411200000000    0.8898161700000000    0.1641840000000000 S
   0.2108836000000000    0.8086939800000000    0.7582607400000000 S
   0.8086939800000000    0.2108836000000000    0.2221606800000000 S
   0.0278393200000000    0.4917392600000000    0.4413060200000000 S
   0.4917392600000000    0.0278393200000000    0.0391164000000000 S
   0.1676067700000000    0.7113973800000000    0.2767197200000000 S
   0.7113973800000000    0.1676067700000000    0.8442761300000000 S
   0.4057238700000000    0.9732802800000000    0.5386026200000000 S
   0.9732802800000000    0.4057238700000000    0.0823932300000000 S
