Tl9 Bi1 Se6
1.0
  -4.1697863899999996    4.1697852900000001    6.2945183499999997
   4.1697863899999996   -4.1697852900000001    6.2945183499999997
   4.1697852900000001    4.1697863899999996   -6.2945183499999997
Tl Bi Se
9 1 6
direct
   0.9898784700000000    0.4972305600000000    0.7989570499999999 Tl
   0.8090795800000000    0.0101215300000000    0.5073530800000000 Tl
   0.0000000000000000    0.0000000000000000    0.0000000000000000 Tl
   0.6982735000000000    0.1909204200000000    0.2010429500000000 Tl
   0.5027694400000000    0.3017265000000000    0.4926469200000000 Tl
   0.4972305600000000    0.6982735000000000    0.5073530800000000 Tl
   0.3017265000000000    0.8090795800000000    0.7989570499999999 Tl
   0.1909204200000000    0.9898784700000000    0.4926469200000000 Tl
   0.0101215300000000    0.5027694400000000    0.2010429500000000 Tl
   0.5000000000000000    0.5000000000000000    0.0000000000000000 Bi
   0.7355759300000000    0.7355759300000000    0.0000000000000000 Se
   0.8259160500000000    0.6466886600000000    0.4726047100000000 Se
   0.6466886600000000    0.1740839500000000    0.8207726100000000 Se
   0.2644240700000000    0.2644240700000000    0.0000000000000000 Se
   0.3533113400000000    0.8259160500000000    0.1792273900000000 Se
   0.1740839500000000    0.3533113400000000    0.5273952900000000 Se
