Li2 Ca1 Si1 O4
1.0
  -2.5164127500000002    2.5164127500000002    3.2169275900000001
   2.5164127500000002   -2.5164127500000002    3.2169275900000001
   2.5164127500000002    2.5164127500000002   -3.2169275900000001
Li Ca Si O
2 1 1 4
direct
   0.2500000000000000    0.7500000000000000    0.5000000000000000 Li
   0.7500000000000000    0.2500000000000000    0.5000000000000000 Li
   0.5000000000000000    0.5000000000000000    0.0000000000000000 Ca
   0.0000000000000000    0.0000000000000000    0.0000000000000000 Si
   0.9514189199999999    0.3357745500000000    0.0000000000000000 O
   0.3357745500000000    0.9514189199999999    0.0000000000000000 O
   0.6642254500000000    0.6642254500000000    0.6156433700000000 O
   0.0485810800000000    0.0485810800000000    0.3843566300000000 O
