Ga1 P1 O4
1.0
  -2.4656437499999999    2.4656439200000002    3.7186734800000001
   2.4656437499999999   -2.4656439200000002    3.7186734800000001
   2.4656439200000002    2.4656437499999999   -3.7186734800000001
Ga P O
1 1 4
direct
   0.0000000000000000    0.0000000000000000    0.0000000000000000 Ga
   0.2500000000000000    0.7500000000000000    0.5000000000000000 P
   0.1436624500000000    0.0007648900000000    0.4136550300000000 O
   0.5871098600000000    0.7300074200000000    0.5863449700000000 O
   0.9992351100000000    0.4128901400000000    0.1428975600000000 O
   0.2699925800000000    0.8563375500000000    0.8571024400000000 O
