Sr4 V8 O24
1.0
   9.7244706099999991    0.0000000000000000    0.0000000000000000
   0.0000000000000000    3.6847914700000000    0.0000000000000000
   0.0000000000000000    0.0000000000000000   12.4111925700000008
Sr V O
4 8 24
direct
   0.6288952000000000    0.2500000000000000    0.1212961800000000 Sr
   0.3711048000000000    0.7500000000000000    0.8787038200000000 Sr
   0.1288952000000000    0.2500000000000000    0.3787038200000000 Sr
   0.8711048000000000    0.7500000000000000    0.6212961800000000 Sr
   0.2408187700000000    0.2500000000000000    0.0850336300000000 V
   0.7591812300000000    0.7500000000000000    0.9149663700000000 V
   0.7408187700000000    0.2500000000000000    0.4149663700000000 V
   0.2591812300000000    0.7500000000000000    0.5850336300000000 V
   0.0042469600000000    0.2500000000000000    0.8785668400000000 V
   0.9957530400000000    0.7500000000000000    0.1214331600000000 V
   0.4957530400000000    0.7500000000000000    0.3785668400000000 V
   0.5042469600000000    0.2500000000000000    0.6214331600000000 V
   0.3969165700000000    0.2500000000000000    0.0214917100000000 O
   0.6030834300000000    0.7500000000000000    0.9785082899999999 O
   0.8969165700000000    0.2500000000000000    0.4785082900000000 O
   0.1030834300000000    0.7500000000000000    0.5214917100000001 O
   0.2761299300000000    0.2500000000000000    0.2136626700000000 O
   0.7238700700000000    0.7500000000000000    0.7863373299999999 O
   0.7761299300000000    0.2500000000000000    0.2863373300000000 O
   0.2238700700000000    0.7500000000000000    0.7136626700000001 O
   0.0295619900000000    0.2500000000000000    0.0850827200000000 O
   0.9704380100000000    0.7500000000000000    0.9149172800000001 O
   0.5295619900000000    0.2500000000000000    0.4149172800000000 O
   0.4704380100000000    0.7500000000000000    0.5850827199999999 O
   0.3231900600000000    0.7500000000000000    0.3964331000000000 O
   0.6768099400000001    0.2500000000000000    0.6035669000000000 O
   0.8231900599999999    0.7500000000000000    0.1035669000000000 O
   0.1768099400000000    0.2500000000000000    0.8964331000000000 O
   0.5260038000000000    0.7500000000000000    0.2465631000000000 O
   0.4739962000000000    0.2500000000000000    0.7534369000000000 O
   0.8062708900000000    0.2500000000000000    0.9358002500000000 O
   0.9739962000000000    0.2500000000000000    0.7465631000000000 O
   0.6937291100000000    0.7500000000000000    0.4358002500000000 O
   0.3062708900000000    0.2500000000000000    0.5641997500000000 O
   0.1937291100000000    0.7500000000000000    0.0641997500000000 O
   0.0260038000000000    0.7500000000000000    0.2534369000000000 O
