Li2 In2 P4 O14
1.0
   4.9267730399999996    0.0000000000000000   -0.0258591800000000
   0.0000000000000000    8.5210198300000002    0.0000000000000000
  -2.3490644100000000    0.0000000000000000    6.7313298699999997
Li In P O
2 2 4 14
direct
   0.8104157800000000    0.3913985100000000    0.3326783100000000 Li
   0.1895842200000000    0.8913985100000000    0.6673216900000000 Li
   0.2150167100000000    0.2487763200000000    0.7314094300000000 In
   0.7849832900000000    0.7487763200000001    0.2685905700000000 In
   0.5964623500000000    0.0676445600000000    0.4679094200000000 P
   0.4035376500000000    0.5676445600000000    0.5320905800000000 P
   0.7982415800000000    0.4602063300000000    0.9222067500000000 P
   0.2017584200000000    0.9602063300000000    0.0777932500000000 P
   0.7872603800000000    0.2143473300000000    0.5044420900000000 O
   0.2127396200000000    0.7143473299999999    0.4955579100000000 O
   0.2301780600000000    0.4148759600000000    0.5019548500000000 O
   0.7698219400000000    0.9148759600000000    0.4980451500000000 O
   0.4083140800000000    0.0829243700000000    0.2353736000000000 O
   0.5916859200000000    0.5829243700000000    0.7646264000000000 O
   0.9293115600000000    0.9378353699999999    0.1292671600000000 O
   0.0706884400000000    0.4378353700000000    0.8707328400000000 O
   0.8593007900000000    0.5404176100000000    0.1240691800000000 O
   0.1406992100000000    0.0404176100000000    0.8759308200000000 O
   0.3614368500000000    0.8061761500000000    0.0807686000000000 O
   0.6385631500000000    0.3061761500000000    0.9192314000000000 O
   0.6105695700000000    0.5650974900000000    0.4133958600000000 O
   0.3894304300000000    0.0650974900000000    0.5866041400000001 O
