Zn3 Ga1 B6 P1 O12
1.0
   5.3791797700000004    3.1056710800000000    2.1879777800000002
  -5.3791797700000004    3.1056710800000000    2.1879777800000002
   0.0000000000000000   -6.2113411599999999    2.1879777800000002
Zn Ga B P O
3 1 6 1 12
direct
   0.9995874100000000    0.3381520200000000    0.9995874100000000 Zn
   0.9995874100000000    0.9995874100000000    0.3381520200000000 Zn
   0.3381520200000000    0.9995874100000000    0.9995874100000000 Zn
   0.6606881700000000    0.6606881700000000    0.6606881700000000 Ga
   0.7497433300000000    0.5013017800000000    0.2478234200000000 B
   0.5013017800000000    0.7497433300000000    0.2478234200000000 B
   0.7497433300000000    0.2478234200000000    0.5013017800000000 B
   0.2478234200000000    0.7497433300000000    0.5013017800000000 B
   0.5013017800000000    0.2478234200000000    0.7497433300000000 B
   0.2478234200000000    0.5013017800000000    0.7497433300000000 B
   0.0004184600000000    0.0004184600000000    0.0004184600000000 P
   0.5644891100000000    0.2821544000000000    0.9994452300000000 O
   0.7084128600000000    0.4338310600000000    0.4338310600000000 O
   0.7223620800000000    0.7223620800000000    0.2908508400000000 O
   0.9994452300000000    0.5644891100000000    0.2821544000000000 O
   0.5644891100000000    0.9994452300000000    0.2821544000000000 O
   0.4338310600000000    0.7084128600000000    0.4338310600000000 O
   0.2908508400000000    0.7223620800000000    0.7223620800000000 O
   0.9994452300000000    0.2821544000000000    0.5644891100000000 O
   0.2821544000000000    0.9994452300000000    0.5644891100000000 O
   0.4338310600000000    0.4338310600000000    0.7084128600000000 O
   0.7223620800000000    0.2908508400000000    0.7223620800000000 O
   0.2821544000000000    0.5644891100000000    0.9994452300000000 O
