Na2 P6 Pb8 O24
1.0
   9.6474817700000006   -0.0000004400000000    0.0000000000000000
  -4.8237400199999998    8.3549644300000008    0.0000000000000000
   0.0000000000000000    0.0000000000000000    7.1588482500000001
Na P Pb O
2 6 8 24
direct
   0.6666670000000000    0.3333330000000000    0.0019461300000000 Na
   0.3333330000000000    0.6666670000000000    0.5019461300000000 Na
   0.3967749600000000    0.3753147700000000    0.7506543100000000 P
   0.9785398100000000    0.6032250400000000    0.7506543100000000 P
   0.3753147700000000    0.9785398100000000    0.2506543100000000 P
   0.6246852300000000    0.0214601900000000    0.7506543100000000 P
   0.0214601900000000    0.3967749600000000    0.2506543100000000 P
   0.6032250400000000    0.6246852300000000    0.2506543100000000 P
   0.9963827800000000    0.7441038300000000    0.2530246400000000 Pb
   0.2558961700000000    0.2522789500000000    0.2530246400000000 Pb
   0.6666670000000000    0.3333330000000000    0.4900865100000000 Pb
   0.2522789500000000    0.9963827800000000    0.7530246400000000 Pb
   0.7477210500000000    0.0036172200000000    0.2530246400000000 Pb
   0.3333330000000000    0.6666670000000000    0.9900865100000000 Pb
   0.7441038300000000    0.7477210500000000    0.7530246400000000 Pb
   0.0036172200000000    0.2558961700000000    0.7530246400000000 Pb
   0.9080235200000000    0.6407411500000000    0.5738892900000000 O
   0.9290465900000000    0.6711527800000000    0.9183455600000000 O
   0.5828088300000001    0.4769146600000000    0.7688481200000000 O
   0.6787706000000000    0.5170441600000000    0.2378945400000000 O
   0.3592588500000000    0.2672823700000000    0.5738892900000000 O
   0.3288472200000000    0.2578938000000000    0.9183455600000000 O
   0.8941058300000000    0.4171911700000000    0.7688481200000000 O
   0.4829558400000000    0.1617264400000000    0.2378945400000000 O
   0.8382735600000000    0.3212294000000000    0.2378945400000000 O
   0.5230853400000000    0.1058941700000000    0.7688481200000000 O
   0.2672823700000000    0.9080235200000000    0.0738892900000000 O
   0.2578938000000000    0.9290465900000000    0.4183455600000000 O
   0.7327176300000000    0.0919764800000000    0.5738892900000000 O
   0.7421062000000000    0.0709534100000000    0.9183455600000000 O
   0.4769146600000000    0.8941058300000000    0.2688481200000000 O
   0.1617264400000000    0.6787706000000000    0.7378945400000000 O
   0.5170441600000000    0.8382735600000000    0.7378945400000000 O
   0.1058941700000000    0.5828088300000001    0.2688481200000000 O
   0.6407411500000000    0.7327176300000000    0.0738892900000000 O
   0.6711527800000000    0.7421062000000000    0.4183455600000000 O
   0.3212294000000000    0.4829558400000000    0.7378945400000000 O
   0.4171911700000000    0.5230853400000000    0.2688481200000000 O
   0.0919764800000000    0.3592588500000000    0.0738892900000000 O
   0.0709534100000000    0.3288472200000000    0.4183455600000000 O
