Rb4 Pb8 O14
1.0
   6.6867664700000002   -0.0016593700000000   -0.0010089900000000
  -0.0034642900000000    7.3327823900000002    0.0131541700000000
  -1.6714302700000001   -2.1623162300000001   10.0906874000000002
Rb Pb O
4 8 14
direct
   0.9190103200000000    0.1691886900000000    0.6877069800000000 Rb
   0.0809896800000000    0.8308113100000000    0.3122930200000000 Rb
   0.4241269600000000    0.1689917100000000    0.6853134100000000 Rb
   0.5758730399999999    0.8310082900000000    0.3146865900000000 Rb
   0.9046192800000000    0.6488722600000000    0.6253283800000000 Pb
   0.0953807200000000    0.3511277400000000    0.3746716200000000 Pb
   0.4083102600000000    0.6478341700000000    0.6259608200000000 Pb
   0.5916897400000000    0.3521658300000000    0.3740391800000000 Pb
   0.7429789600000000    0.6039859500000000    0.9706239600000000 Pb
   0.2570210400000000    0.3960140500000000    0.0293760400000000 Pb
   0.2340525800000000    0.8428017700000000    0.9344861700000000 Pb
   0.7659474200000000    0.1571982300000000    0.0655138300000000 Pb
   0.6502509000000000    0.4336415000000000    0.5964310400000000 O
   0.3497491000000000    0.5663585000000000    0.4035689600000000 O
   0.1477205300000000    0.4343908000000000    0.5959172700000001 O
   0.8522794700000000    0.5656092000000000    0.4040827300000000 O
   0.6546751400000000    0.8407133600000000    0.6209378200000000 O
   0.3453248600000000    0.1592866400000000    0.3790621800000000 O
   0.1611609300000000    0.8440254800000000    0.6416257400000001 O
   0.8388390700000000    0.1559745200000000    0.3583742600000000 O
   0.9634303900000000    0.6523234700000000    0.8358452100000000 O
   0.0365696100000000    0.3476765300000000    0.1641547900000000 O
   0.4539183400000000    0.6500227700000000    0.8360370499999999 O
   0.5460816600000000    0.3499772300000000    0.1639629500000000 O
   0.7265919600000000    0.3028289600000000    0.9015393800000000 O
   0.2734080400000000    0.6971710400000000    0.0984606200000000 O
