Sr2 Mo2 O8
1.0
  -2.7006245600000001    2.7006244900000000    5.9729516399999998
   2.7006245600000001   -2.7006244900000000    5.9729516399999998
   2.7006244900000000    2.7006245600000001   -5.9729516399999998
Sr Mo O
2 2 8
direct
   0.5000000000000000    0.5000000000000000    0.0000000000000000 Sr
   0.2500000000000000    0.7500000000000000    0.5000000000000000 Sr
   0.0000000000000000    0.0000000000000000    0.0000000000000000 Mo
   0.7500000000000000    0.2500000000000000    0.5000000000000000 Mo
   0.5257901500000000    0.9288068400000000    0.1202321400000000 O
   0.9414253000000000    0.8444429900000000    0.6202321400000000 O
   0.5944429900000000    0.4742098500000000    0.4030166900000000 O
   0.0711931600000000    0.1914253000000000    0.5969833100000000 O
   0.6788068400000000    0.0585747000000000    0.9030166900000000 O
   0.2242098500000000    0.3211931600000000    0.3797678600000000 O
   0.8085747000000000    0.4055570100000000    0.8797678600000000 O
   0.1555570100000000    0.7757901500000000    0.0969833100000000 O
