Na2 Sr6 Ta2 O12
1.0
   4.8816276700000003    2.8184090500000001    3.8472044300000001
  -4.8816276700000003    2.8184090500000001    3.8472044300000001
   0.0000000000000000   -5.6368180900000002    3.8472044300000001
Na Sr Ta O
2 6 2 12
direct
   0.2500000000000000    0.2500000000000000    0.2500000000000000 Na
   0.7500000000000000    0.7500000000000000    0.7500000000000000 Na
   0.6005471600000000    0.2500000000000000    0.8994528400000000 Sr
   0.8994528400000000    0.6005471600000000    0.2500000000000000 Sr
   0.2500000000000000    0.8994528400000000    0.6005471600000000 Sr
   0.3994528400000000    0.7500000000000000    0.1005471600000000 Sr
   0.1005471600000000    0.3994528400000000    0.7500000000000000 Sr
   0.7500000000000000    0.1005471600000000    0.3994528400000000 Sr
   0.5000000000000000    0.5000000000000000    0.5000000000000000 Ta
   0.0000000000000000    0.0000000000000000    0.0000000000000000 Ta
   0.2194035400000000    0.5536055000000000    0.4260467500000000 O
   0.4260467500000000    0.2194035400000000    0.5536055000000000 O
   0.5536055000000000    0.4260467500000000    0.2194035400000000 O
   0.9463945000000000    0.2805964600000000    0.0739532500000000 O
   0.0739532500000000    0.9463945000000000    0.2805964600000000 O
   0.2805964600000000    0.0739532500000000    0.9463945000000000 O
   0.7805964600000000    0.4463945000000000    0.5739532500000000 O
   0.5739532500000000    0.7805964600000000    0.4463945000000000 O
   0.4463945000000000    0.5739532500000000    0.7805964600000000 O
   0.0536055000000000    0.7194035400000000    0.9260467500000000 O
   0.7194035400000000    0.9260467500000000    0.0536055000000000 O
   0.9260467500000000    0.0536055000000000    0.7194035400000000 O
