Mg4 In8 Se16
1.0
   7.0735929700000000    0.0001408700000000   -0.0193186300000000
   0.0000226000000000    8.1709031400000001   -0.0011516800000000
  -1.1666353400000000   -2.0774951200000000   13.3228243499999994
Mg In Se
4 8 16
direct
   0.2488585900000000    0.3738577000000000    0.0007585600000000 Mg
   0.1327267600000000    0.1984499000000000    0.2976573000000000 Mg
   0.7511414100000000    0.6261423000000000    0.9992414400000000 Mg
   0.8672732399999999    0.8015501000000000    0.7023427000000000 Mg
   0.2391259800000000    0.8764413599999999    0.9997657200000000 In
   0.1391793000000000    0.6988320400000000    0.2964267400000000 In
   0.6299001700000000    0.4440191900000000    0.2944548500000000 In
   0.7608740200000000    0.1235586400000000    0.0002342800000000 In
   0.8608207000000000    0.3011679600000000    0.7035732600000000 In
   0.6295804500000000    0.9535928500000000    0.2986779400000000 In
   0.3704195500000000    0.0464071500000000    0.7013220600000000 In
   0.3700998300000000    0.5559808100000000    0.7055451500000000 In
   0.1857571900000000    0.2807694200000000    0.6191257800000000 Se
   0.1067018800000000    0.1562153200000000    0.1068677500000000 Se
   0.1824129300000000    0.7783782000000000    0.6183531400000000 Se
   0.0987286400000000    0.6460472500000000    0.1034532100000000 Se
   0.8932981200000000    0.8437846800000000    0.8931322500000000 Se
   0.6869030000000000    0.5326292200000000    0.6190274000000000 Se
   0.8142428100000000    0.7192305800000000    0.3808742200000000 Se
   0.6006700500000000    0.4022564800000000    0.1011347800000000 Se
   0.9012713600000000    0.3539527500000000    0.8965467900000000 Se
   0.6891223900000000    0.0267190900000000    0.6174075400000000 Se
   0.8175870700000000    0.2216218000000000    0.3816468600000000 Se
   0.5991278600000000    0.8980304400000000    0.1042201300000000 Se
   0.4008721400000000    0.1019695600000000    0.8957798700000000 Se
   0.3108776100000000    0.9732809100000001    0.3825924600000000 Se
   0.3993299500000000    0.5977435200000000    0.8988652200000000 Se
   0.3130970000000000    0.4673707800000000    0.3809726000000000 Se
