In4 S6 O24
1.0
   4.2389918000000000    2.4473829199999999    7.8199309799999996
  -4.2389912699999996    2.4473838300000001    7.8199309799999996
  -0.0000005300000000   -4.8947657600000003    7.8199309799999996
In S O
4 6 24
direct
   0.8549825900000000    0.8549825900000000    0.8549825900000000 In
   0.1450174100000000    0.1450174100000000    0.1450174100000000 In
   0.6533403800000001    0.6533403800000001    0.6533403800000001 In
   0.3466596200000000    0.3466596200000000    0.3466596200000000 In
   0.2485334000000000    0.9572903699999999    0.5449190699999999 S
   0.5449190699999999    0.2485334000000000    0.9572903699999999 S
   0.9572903699999999    0.5449190699999999    0.2485334000000000 S
   0.7514666000000000    0.0427096300000000    0.4550809300000000 S
   0.4550809300000000    0.7514666000000000    0.0427096300000000 S
   0.0427096300000000    0.4550809300000000    0.7514666000000000 S
   0.2045661200000000    0.9741828100000000    0.4038083400000000 O
   0.4038083400000000    0.2045661200000000    0.9741828100000000 O
   0.9741828100000000    0.4038083400000000    0.2045661200000000 O
   0.7954338800000000    0.0258171900000000    0.5961916600000000 O
   0.5961916600000000    0.7954338800000000    0.0258171900000000 O
   0.0258171900000000    0.5961916600000000    0.7954338800000000 O
   0.2003582200000000    0.1481757500000000    0.5298465600000000 O
   0.5298465600000000    0.2003582200000000    0.1481757500000000 O
   0.1481757500000000    0.5298465600000000    0.2003582200000000 O
   0.7996417800000000    0.8518242499999999    0.4701534400000000 O
   0.4701534400000000    0.7996417800000000    0.8518242499999999 O
   0.8518242499999999    0.4701534400000000    0.7996417800000000 O
   0.1338481700000000    0.8602523399999999    0.7397326200000000 O
   0.7397326200000000    0.1338481700000000    0.8602523399999999 O
   0.8602523399999999    0.7397326200000000    0.1338481700000000 O
   0.8661518300000000    0.1397476600000000    0.2602673800000000 O
   0.2602673800000000    0.8661518300000000    0.1397476600000000 O
   0.1397476600000000    0.2602673800000000    0.8661518300000000 O
   0.4540869300000000    0.8415843000000000    0.5091908500000000 O
   0.5091908500000000    0.4540869300000000    0.8415843000000000 O
   0.8415843000000000    0.5091908500000000    0.4540869300000000 O
   0.5459130700000000    0.1584157000000000    0.4908091500000000 O
   0.4908091500000000    0.5459130700000000    0.1584157000000000 O
   0.1584157000000000    0.4908091500000000    0.5459130700000000 O
