Li12 Zn2 O8
1.0
   6.4666583099999997    0.0000000000000000    0.0000000000000000
   0.0000000000000000    6.4666583099999997    0.0000000000000000
   0.0000000000000000    0.0000000000000000    4.6291730099999997
Li Zn O
12 2 8
direct
   0.0000000000000000    0.5000000000000000    0.4488497200000000 Li
   0.5000000000000000    0.0000000000000000    0.0511502800000000 Li
   0.2824603600000000    0.7175396400000000    0.5000000000000000 Li
   0.2175396400000000    0.2175396400000000    0.0000000000000000 Li
   0.7824603600000000    0.7824603600000000    0.0000000000000000 Li
   0.7175396400000000    0.2824603600000000    0.5000000000000000 Li
   0.2175396400000000    0.7824603600000000    0.0000000000000000 Li
   0.2824603600000000    0.2824603600000000    0.5000000000000000 Li
   0.7175396400000000    0.7175396400000000    0.5000000000000000 Li
   0.5000000000000000    0.0000000000000000    0.5511502800000000 Li
   0.0000000000000000    0.5000000000000000    0.9488497200000000 Li
   0.7824603600000000    0.2175396400000000    0.0000000000000000 Li
   0.5000000000000000    0.5000000000000000    0.0000000000000000 Zn
   0.0000000000000000    0.0000000000000000    0.5000000000000000 Zn
   0.7391082100000000    0.0000000000000000    0.2880610500000000 O
   0.5000000000000000    0.2391082100000000    0.7880610500000000 O
   0.2391082100000000    0.5000000000000000    0.2119389500000000 O
   0.0000000000000000    0.2608917900000000    0.7119389500000000 O
   0.0000000000000000    0.7391082100000000    0.7119389500000000 O
   0.5000000000000000    0.7608917900000000    0.7880610500000000 O
   0.2608917900000000    0.0000000000000000    0.2880610500000000 O
   0.7608917900000000    0.5000000000000000    0.2119389500000000 O
