Cd4 Sb4 O14
1.0
   0.0000000000000000    5.1629322100000001    5.1629322100000001
   5.1629322100000001    0.0000000000000000    5.1629322100000001
   5.1629322100000001    5.1629322100000001    0.0000000000000000
Cd Sb O
4 4 14
direct
   0.6250000000000000    0.1250000000000000    0.1250000000000000 Cd
   0.1250000000000000    0.6250000000000000    0.1250000000000000 Cd
   0.1250000000000000    0.1250000000000000    0.6250000000000000 Cd
   0.1250000000000000    0.1250000000000000    0.1250000000000000 Cd
   0.1250000000000000    0.6250000000000000    0.6250000000000000 Sb
   0.6250000000000000    0.1250000000000000    0.6250000000000000 Sb
   0.6250000000000000    0.6250000000000000    0.1250000000000000 Sb
   0.6250000000000000    0.6250000000000000    0.6250000000000000 Sb
   0.6998191499999999    0.6998191499999999    0.3001808500000000 O
   0.3001808500000000    0.3001808500000000    0.6998191499999999 O
   0.6998191499999999    0.3001808500000000    0.6998191499999999 O
   0.3001808500000000    0.6998191499999999    0.3001808500000000 O
   0.3001808500000000    0.6998191499999999    0.6998191499999999 O
   0.6998191499999999    0.3001808500000000    0.3001808500000000 O
   0.5501808500000001    0.5501808500000001    0.9498191499999999 O
   0.9498191499999999    0.9498191499999999    0.5501808500000001 O
   0.5501808500000001    0.9498191499999999    0.5501808500000001 O
   0.9498191499999999    0.5501808500000001    0.9498191499999999 O
   0.9498191499999999    0.5501808500000001    0.5501808500000001 O
   0.5501808500000001    0.9498191499999999    0.9498191499999999 O
   0.2500000000000000    0.2500000000000000    0.2500000000000000 O
   0.0000000000000000    0.0000000000000000    0.0000000000000000 O
