Sr4 Zn2 Ge4 O14
1.0
   8.1197095000000008    0.0000000000000000    0.0000000000000000
   0.0000000000000000    8.1197095000000008    0.0000000000000000
   0.0000000000000000    0.0000000000000000    5.3462323800000000
Sr Zn Ge O
4 2 4 14
direct
   0.6647368299999999    0.1647368300000000    0.5083476500000000 Sr
   0.8352631700000001    0.6647368299999999    0.4916523500000000 Sr
   0.1647368300000000    0.3352631700000000    0.4916523500000000 Sr
   0.3352631700000000    0.8352631700000001    0.5083476500000000 Sr
   0.0000000000000000    0.0000000000000000    0.0000000000000000 Zn
   0.5000000000000000    0.5000000000000000    0.0000000000000000 Zn
   0.8553200000000000    0.3553200000000000    0.9565008500000000 Ge
   0.1446800000000000    0.6446800000000000    0.9565008500000000 Ge
   0.6446800000000000    0.8553200000000000    0.0434991500000000 Ge
   0.3553200000000000    0.1446800000000000    0.0434991500000000 Ge
   0.6732328300000000    0.4168216000000000    0.7938648100000000 O
   0.3267671700000000    0.5831784000000000    0.7938648100000000 O
   0.4168216000000000    0.3267671700000000    0.2061351900000000 O
   0.5831784000000000    0.6732328300000000    0.2061351900000000 O
   0.9168216000000000    0.1732328300000000    0.7938648100000000 O
   0.8267671700000000    0.9168216000000000    0.2061351900000000 O
   0.1732328300000000    0.0831784000000000    0.2061351900000000 O
   0.0831784000000000    0.8267671700000000    0.7938648100000000 O
   0.8622371900000000    0.3622371900000000    0.2844013300000000 O
   0.6377628100000000    0.8622371900000000    0.7155986700000000 O
   0.5000000000000000    0.0000000000000000    0.1849877200000000 O
   0.0000000000000000    0.5000000000000000    0.8150122800000000 O
   0.1377628100000000    0.6377628100000000    0.2844013300000000 O
   0.3622371900000000    0.1377628100000000    0.7155986700000000 O
