Cs1 Au3 Se2
1.0
   6.1849061900000004   -0.0000000000000000    0.0000000000000000
  -3.0924531000000002    5.3562852799999998    0.0000000000000000
   0.0000000000000000    0.0000000000000000    5.2723188099999998
Cs Au Se
1 3 2
direct
   0.0000000000000000    0.0000000000000000    0.5000000000000000 Cs
   0.0000000000000000    0.5000000000000000    0.0000000000000000 Au
   0.5000000000000000    0.0000000000000000    0.0000000000000000 Au
   0.5000000000000000    0.5000000000000000    0.0000000000000000 Au
   0.3333330000000000    0.6666670000000000    0.6844174500000000 Se
   0.6666670000000000    0.3333330000000000    0.3155825500000000 Se
