Rb3 V5 O14
1.0
   8.7009746499999991    0.0000000000000000    0.0000000000000000
  -4.3504878199999997    7.5352648300000000    0.0000000000000000
   0.0000000000000000    0.0000000000000000    5.3517424599999996
Rb V O
3 5 14
direct
   1.0000000000000000    0.6145111000000000    0.1813656800000000 Rb
   0.6145111000000000    1.0000000000000000    0.1813656800000000 Rb
   0.3854889000000000    0.3854889000000000    0.1813656800000000 Rb
   0.7700167700000000    0.7700167700000000    0.6709315500000000 V
   1.0000000000000000    0.2299832300000000    0.6709315500000000 V
   0.2299832300000000    1.0000000000000000    0.6709315500000000 V
   0.3333330000000000    0.6666670000000000    0.6565538500000000 V
   0.6666670000000000    0.3333330000000000    0.6565538500000000 V
   0.1683070700000000    0.4600206400000000    0.5446474100000001 O
   0.2917135800000000    0.8316929300000000    0.5446474100000001 O
   0.5399793600000000    0.7082864200000000    0.5446474100000001 O
   0.7082864200000000    0.5399793600000000    0.5446474100000001 O
   0.8316929300000000    0.2917135800000000    0.5446474100000001 O
   0.4600206400000000    0.1683070700000000    0.5446474100000001 O
   0.0000000000000000    0.8312745900000000    0.6132183300000000 O
   0.8312745900000000    0.0000000000000000    0.6132183300000000 O
   0.1687254100000000    0.1687254100000000    0.6132183300000000 O
   0.7454750500000000    0.7454750500000000    0.9719756300000000 O
   1.0000000000000000    0.2545249500000000    0.9719756300000000 O
   0.2545249500000000    1.0000000000000000    0.9719756300000000 O
   0.3333330000000000    0.6666670000000000    0.9639611200000000 O
   0.6666670000000000    0.3333330000000000    0.9639611200000000 O
