Ti4 Cu2 P6 O24
1.0
   4.3111311299999997    2.4890330500000002    6.9820272499999998
  -4.3111311299999997    2.4890330500000002    6.9820272499999998
   0.0000000000000000   -4.9780651000000002    6.9820272499999998
Ti Cu P O
4 2 6 24
direct
   0.3600083800000000    0.3600083800000000    0.3600083800000000 Ti
   0.1399916200000000    0.1399916200000000    0.1399916200000000 Ti
   0.8600083800000000    0.8600083800000000    0.8600083800000000 Ti
   0.6399916200000000    0.6399916200000000    0.6399916200000000 Ti
   0.5000000000000000    0.5000000000000000    0.5000000000000000 Cu
   0.0000000000000000    0.0000000000000000    0.0000000000000000 Cu
   0.4603014300000000    0.7500000000000000    0.0396985700000000 P
   0.0396985700000000    0.4603014300000000    0.7500000000000000 P
   0.7500000000000000    0.0396985700000000    0.4603014300000000 P
   0.2500000000000000    0.9603014300000000    0.5396985700000000 P
   0.9603014300000000    0.5396985700000000    0.2500000000000000 P
   0.5396985700000000    0.2500000000000000    0.9603014300000000 P
   0.3784392100000000    0.1900978800000000    0.0006152300000000 O
   0.1900978800000000    0.0006152300000000    0.3784392100000000 O
   0.4437512800000000    0.5859623600000000    0.2320571300000000 O
   0.0006152300000000    0.3784392100000000    0.1900978800000000 O
   0.5006152300000000    0.6900978800000001    0.8784392100000000 O
   0.2679428700000000    0.9140376400000000    0.0562487200000000 O
   0.2320571300000000    0.4437512800000000    0.5859623600000000 O
   0.0562487200000000    0.2679428700000000    0.9140376400000000 O
   0.3099021200000000    0.1215607900000000    0.4993847700000000 O
   0.9140376400000000    0.0562487200000000    0.2679428700000000 O
   0.4140376400000000    0.7679428700000001    0.5562487200000000 O
   0.1215607900000000    0.4993847700000000    0.3099021200000000 O
   0.8784392100000000    0.5006152300000000    0.6900978800000001 O
   0.5859623600000000    0.2320571300000000    0.4437512800000000 O
   0.0859623600000000    0.9437512800000000    0.7320571299999999 O
   0.6900978800000001    0.8784392100000000    0.5006152300000000 O
   0.9437512800000000    0.7320571299999999    0.0859623600000000 O
   0.7679428700000001    0.5562487200000000    0.4140376400000000 O
   0.7320571299999999    0.0859623600000000    0.9437512800000000 O
   0.4993847700000000    0.3099021200000000    0.1215607900000000 O
   0.9993847700000000    0.6215607900000000    0.8099021199999999 O
   0.5562487200000000    0.4140376400000000    0.7679428700000001 O
   0.8099021199999999    0.9993847700000000    0.6215607900000000 O
   0.6215607900000000    0.8099021199999999    0.9993847700000000 O
