Na6 Ca2 P2 C2 O14
1.0
   5.0683934400000004    0.0000000000000000   -0.0075241000000000
   0.0000000000000000    6.9659935199999996    0.0000000000000000
  -0.0422531600000000    0.0000000000000000    9.0964431099999992
Na Ca P C O
6 2 2 2 14
direct
   0.2396216500000000    0.2500000000000000    0.9166151700000000 Na
   0.7606382100000000    0.0020943300000000    0.7491482500000000 Na
   0.7606382100000000    0.4979056700000000    0.7491482500000000 Na
   0.2393617900000000    0.5020943300000000    0.2508517500000000 Na
   0.2393617900000000    0.9979056700000000    0.2508517500000000 Na
   0.7603783500000000    0.7500000000000000    0.0833848300000000 Na
   0.2339684700000000    0.7500000000000000    0.6320276000000000 Ca
   0.7660315300000000    0.2500000000000000    0.3679724000000000 Ca
   0.3081274900000000    0.2500000000000000    0.5968816400000000 P
   0.6918725100000001    0.7500000000000000    0.4031183600000000 P
   0.2605559800000000    0.7500000000000000    0.9393399700000000 C
   0.7394440200000000    0.2500000000000000    0.0606600300000000 C
   0.7241409300000000    0.2500000000000000    0.9187092900000000 O
   0.0312345000000000    0.7500000000000000    0.8745643700000000 O
   0.4742244900000000    0.7500000000000000    0.8610160400000000 O
   0.2072451200000000    0.0710415700000000    0.6807968200000000 O
   0.2072451200000000    0.4289584300000000    0.6807968200000000 O
   0.6145562600000000    0.2500000000000000    0.5994999400000000 O
   0.7795810800000000    0.7500000000000000    0.5679196300000000 O
   0.2204189200000000    0.2500000000000000    0.4320803700000000 O
   0.3854437400000000    0.7500000000000000    0.4005000600000000 O
   0.7927548800000001    0.5710415700000000    0.3192031800000000 O
   0.7927548800000001    0.9289584300000000    0.3192031800000000 O
   0.5257755100000000    0.2500000000000000    0.1389839600000000 O
   0.9687654999999999    0.2500000000000000    0.1254356300000000 O
   0.2758590700000000    0.7500000000000000    0.0812907100000000 O
