Ge2 Se4
1.0
  -2.8955770699999999    2.8955770699999999    4.8273143799999998
   2.8955770699999999   -2.8955770699999999    4.8273143799999998
   2.8955770699999999    2.8955770699999999   -4.8273143799999998
Ge Se
2 4
direct
   0.0000000000000000    0.0000000000000000    0.0000000000000000 Ge
   0.7500000000000000    0.2500000000000000    0.5000000000000000 Ge
   0.3750000000000000    0.3769410100000000    0.5019410100000000 Se
   0.6230589900000000    0.1250000000000000    0.9980589900000000 Se
   0.1269410100000000    0.6250000000000000    0.0019410100000000 Se
   0.8750000000000000    0.8730589900000000    0.4980589900000000 Se
