Na10 Ta2 O10
1.0
   3.1276801800000000   -5.0452679900000001   -0.0020510500000000
   3.1276801800000000    5.0452679900000001   -0.0020510500000000
  -2.8717838499999999    0.0000000000000000    9.5767001799999996
Na Ta O
10 2 10
direct
   0.0034844000000000    0.3179252600000000    0.0765602900000000 Na
   0.6820747400000000    0.9965155999999999    0.4234397100000000 Na
   0.2148088300000000    0.4458391900000000    0.4501721700000000 Na
   0.5541608099999999    0.7851911700000000    0.0498278300000000 Na
   0.7851911700000000    0.5541608099999999    0.5498278300000000 Na
   0.4458391900000000    0.2148088300000000    0.9501721700000000 Na
   0.3321139600000000    0.6678860400000000    0.7500000000000000 Na
   0.6678860400000000    0.3321139600000000    0.2500000000000000 Na
   0.3179252600000000    0.0034844000000000    0.5765602900000000 Na
   0.9965155999999999    0.6820747400000000    0.9234397100000000 Na
   0.9076463800000000    0.0923536200000000    0.7500000000000000 Ta
   0.0923536200000000    0.9076463800000000    0.2500000000000000 Ta
   0.0969291300000000    0.9030708700000000    0.7500000000000000 O
   0.9030708700000000    0.0969291300000000    0.2500000000000000 O
   0.9682480300000000    0.3054178700000000    0.6158712300000000 O
   0.6945821300000000    0.0317519700000000    0.8841287700000000 O
   0.1896213200000000    0.4056417800000000    0.8963911800000000 O
   0.5943582200000000    0.8103786800000000    0.6036088200000000 O
   0.8103786800000000    0.5943582200000000    0.1036088200000000 O
   0.4056417800000000    0.1896213200000000    0.3963911800000000 O
   0.0317519700000000    0.6945821300000000    0.3841287700000000 O
   0.3054178700000000    0.9682480300000000    0.1158712300000000 O
