Ba2 Ag4 Hg4 O8
1.0
   6.7904215600000004    0.0000000000000000    0.0000000000000000
   0.0000000000000000    6.7904215600000004    0.0000000000000000
   0.0000000000000000    0.0000000000000000    7.0276276199999996
Ba Ag Hg O
2 4 4 8
direct
   0.0000000000000000    0.0000000000000000    0.0000000000000000 Ba
   0.5000000000000000    0.5000000000000000    0.0000000000000000 Ba
   0.2500000000000000    0.7500000000000000    0.5000000000000000 Ag
   0.7500000000000000    0.2500000000000000    0.5000000000000000 Ag
   0.7500000000000000    0.7500000000000000    0.5000000000000000 Ag
   0.2500000000000000    0.2500000000000000    0.5000000000000000 Ag
   0.0000000000000000    0.5000000000000000    0.7773344200000000 Hg
   0.0000000000000000    0.5000000000000000    0.2226655800000000 Hg
   0.5000000000000000    0.0000000000000000    0.2226655800000000 Hg
   0.5000000000000000    0.0000000000000000    0.7773344200000000 Hg
   0.2897882700000000    0.7897882700000000    0.7885440400000000 O
   0.2102117300000000    0.7102117300000000    0.2114559600000000 O
   0.7102117300000000    0.2102117300000000    0.7885440400000000 O
   0.7897882700000000    0.2897882700000000    0.2114559600000000 O
   0.2102117300000000    0.2897882700000000    0.7885440400000000 O
   0.7102117300000000    0.7897882700000000    0.2114559600000000 O
   0.2897882700000000    0.2102117300000000    0.2114559600000000 O
   0.7897882700000000    0.7102117300000000    0.7885440400000000 O
