Cr4 P8 O28
1.0
   8.3064999999999998    0.0000000000000000    0.0000000000000000
   0.0000000000000000    5.0617479999999997    0.0000000000000000
  -5.9916840000000002    0.0000000000000000   11.8821329999999996
Cr P O
4 8 28
direct
   0.2651510000000000    0.2408870000000000    0.0270780000000000 Cr
   0.2651510000000000    0.2591130000000000    0.5270780000000000 Cr
   0.7348490000000000    0.7591130000000000    0.9729220000000000 Cr
   0.7348490000000000    0.7408870000000000    0.4729220000000000 Cr
   0.3056240000000000    0.7329350000000000    0.8849740000000000 P
   0.3056240000000000    0.7670650000000000    0.3849740000000000 P
   0.6943760000000000    0.2670650000000000    0.1150260000000000 P
   0.6943760000000000    0.2329350000000000    0.6150260000000000 P
   0.1737210000000000    0.7439230000000000    0.6366100000000000 P
   0.1737210000000000    0.7560770000000000    0.1366100000000000 P
   0.8262790000000000    0.2560770000000000    0.3633900000000000 P
   0.8262790000000000    0.2439230000000000    0.8633900000000000 P
   0.0259660000000000    0.2047990000000000    0.4470460000000000 O
   0.2283980000000000    0.4552510000000000    0.6380800000000000 O
   0.8279150000000000    0.2846410000000000    0.7447460000000000 O
   0.0259660000000000    0.2952010000000000    0.9470460000000001 O
   0.2921410000000000    0.5542530000000000    0.1195730000000000 O
   0.2367500000000000    0.5854030000000000    0.4467910000000000 O
   0.6992270000000000    0.5575730000000000    0.0881930000000000 O
   0.2283980000000000    0.0447490000000000    0.1380800000000000 O
   0.7716020000000000    0.9552510000000000    0.8619200000000000 O
   0.1720850000000000    0.7153590000000000    0.2552540000000000 O
   0.5065090000000000    0.3135480000000000    0.6035730000000000 O
   0.4934910000000000    0.6864520000000000    0.3964270000000000 O
   0.7632500000000000    0.4145970000000000    0.5532090000000000 O
   0.5065090000000000    0.1864520000000000    0.1035730000000000 O
   0.7716020000000000    0.5447490000000000    0.3619200000000000 O
   0.3007730000000000    0.0575730000000000    0.4118070000000000 O
   0.3007730000000000    0.4424270000000000    0.9118070000000000 O
   0.4934910000000000    0.8135480000000000    0.8964270000000000 O
   0.7078590000000000    0.4457470000000000    0.8804270000000000 O
   0.7078590000000000    0.0542530000000000    0.3804270000000000 O
   0.8279150000000000    0.2153590000000000    0.2447460000000000 O
   0.2367500000000000    0.9145970000000000    0.9467910000000000 O
   0.9740340000000000    0.7952010000000000    0.5529539999999999 O
   0.7632500000000000    0.0854030000000000    0.0532090000000000 O
   0.6992270000000000    0.9424270000000000    0.5881930000000000 O
   0.2921410000000000    0.9457470000000000    0.6195730000000000 O
   0.9740340000000000    0.7047990000000000    0.0529540000000000 O
   0.1720850000000000    0.7846410000000000    0.7552540000000000 O
