Ca8 Sb4 S2
1.0
  -4.5167407800000001    4.5167407800000001    4.6844921299999998
   4.5167407800000001   -4.5167407800000001    4.6844921299999998
   4.5167407800000001    4.5167407800000001   -4.6844921299999998
Ca Sb S
8 4 2
direct
   0.6125256500000000    0.8744393400000000    0.8797834200000000 Ca
   0.2672577700000000    0.3874743500000000    0.2619136900000000 Ca
   0.1255606600000000    0.0053440800000000    0.7380863100000000 Ca
   0.4827422300000000    0.2446559200000000    0.6202165800000000 Ca
   0.1374743500000000    0.5172577700000000    0.7619136900000000 Ca
   0.7553440800000000    0.3755606600000000    0.2380863100000000 Ca
   0.9946559200000000    0.7327422300000000    0.1202165800000000 Ca
   0.6244393400000000    0.8625256500000000    0.3797834200000000 Ca
   0.3750000000000000    0.9992499000000000    0.1242499000000000 Sb
   0.0007501000000000    0.1250000000000000    0.3757501000000000 Sb
   0.8750000000000000    0.2507501000000000    0.8757501000000000 Sb
   0.7492499000000000    0.6250000000000000    0.6242499000000000 Sb
   0.5000000000000000    0.5000000000000000    0.0000000000000000 S
   0.2500000000000000    0.7500000000000000    0.5000000000000000 S
