As4 P4 O16
1.0
   8.3544658300000005    0.0000000000000000    0.0000000000000000
   0.0000000000000000    4.9939940900000002    0.0000000000000000
   0.0000000000000000    0.0000000000000000    7.6086869699999999
As P O
4 4 16
direct
   0.7284988100000001    0.2500000000000000    0.6794906100000000 As
   0.2715011900000000    0.7500000000000000    0.3205093900000000 As
   0.7715011899999999    0.7500000000000000    0.1794906100000000 As
   0.2284988100000000    0.2500000000000000    0.8205093900000000 As
   0.5895844700000000    0.2500000000000000    0.3102394900000000 P
   0.4104155300000000    0.7500000000000000    0.6897605100000000 P
   0.9104155300000000    0.7500000000000000    0.8102394900000000 P
   0.0895844700000000    0.2500000000000000    0.1897605100000000 P
   0.4287211400000000    0.2500000000000000    0.3963610400000000 O
   0.5712788600000001    0.7500000000000000    0.6036389599999999 O
   0.0712788600000000    0.7500000000000000    0.8963610400000001 O
   0.9287211399999999    0.2500000000000000    0.1036389600000000 O
   0.7379969700000000    0.2500000000000000    0.4395922200000000 O
   0.2620030300000000    0.7500000000000000    0.5604077800000000 O
   0.7620030300000000    0.7500000000000000    0.9395922200000000 O
   0.2379969700000000    0.2500000000000000    0.0604077800000000 O
   0.1114479800000000    0.0010193600000000    0.3123891900000000 O
   0.8885520200000000    0.5010193600000000    0.6876108100000000 O
   0.3885520200000000    0.9989806400000000    0.8123891900000000 O
   0.6114479800000000    0.4989806400000000    0.1876108100000000 O
   0.8885520200000000    0.9989806400000000    0.6876108100000000 O
   0.1114479800000000    0.4989806400000000    0.3123891900000000 O
   0.6114479800000000    0.0010193600000000    0.1876108100000000 O
   0.3885520200000000    0.5010193600000000    0.8123891900000000 O
