Mg1 Se1
1.0
   0.0000000000000000    2.7240271300000001    2.7240271300000001
   2.7240271300000001    0.0000000000000000    2.7240271300000001
   2.7240271300000001    2.7240271300000001    0.0000000000000000
Mg Se
1 1
direct
   0.0000000000000000    0.0000000000000000    0.0000000000000000 Mg
   0.5000000000000000    0.5000000000000000    0.5000000000000000 Se
