Hg2 S2 O8
1.0
   6.6007970299999998    0.0000000000000000    0.0000000000000000
   0.0000000000000000    4.8025250100000001    0.0000000000000000
   0.0000000000000000    0.0000000000000000    4.8547206899999997
Hg S O
2 2 8
direct
   0.5000000000000000    0.8224725800000000    0.7506674200000000 Hg
   0.0000000000000000    0.1775274200000000    0.2506674200000000 Hg
   0.5000000000000000    0.3217353400000000    0.2393591200000000 S
   0.0000000000000000    0.6782646600000000    0.7393591200000000 S
   0.8217876300000000    0.8174123500000000    0.6058312300000001 O
   0.6782123700000000    0.1825876500000000    0.1058312300000000 O
   0.3217876300000000    0.1825876500000000    0.1058312300000000 O
   0.1782123700000000    0.8174123500000000    0.6058312300000001 O
   0.0000000000000000    0.3741288600000000    0.6839613000000000 O
   0.5000000000000000    0.6258711400000000    0.1839613000000000 O
   0.0000000000000000    0.7142229900000000    0.0422487200000000 O
   0.5000000000000000    0.2857770100000000    0.5422487200000000 O
