Li2 As2 O6
1.0
   2.4239189099999998    1.3994500000000001    4.7476782499999999
  -2.4239189200000002    1.3994499899999999    4.7476782499999999
   0.0000000100000000   -2.7988999899999998    4.7476782499999999
Li As O
2 2 6
direct
   0.1332018800000000    0.1332018800000000    0.1332018800000000 Li
   0.8667981200000000    0.8667981200000000    0.8667981200000000 Li
   0.3386157700000000    0.3386157700000000    0.3386157700000000 As
   0.6613842300000000    0.6613842300000000    0.6613842300000000 As
   0.5500322000000000    0.9352618100000000    0.2946683600000000 O
   0.2946683600000000    0.5500322000000000    0.9352618100000000 O
   0.0647381900000000    0.7053316400000000    0.4499678000000000 O
   0.4499678000000000    0.0647381900000000    0.7053316400000000 O
   0.7053316400000000    0.4499678000000000    0.0647381900000000 O
   0.9352618100000000    0.2946683600000000    0.5500322000000000 O
