Cs2 Al2 O4
1.0
   0.0000000000000000    4.0602354099999998    4.0602354099999998
   4.0602354099999998    0.0000000000000000    4.0602354099999998
   4.0602354099999998    4.0602354099999998    0.0000000000000000
Cs Al O
2 2 4
direct
   0.5000000000000000    0.5000000000000000    0.5000000000000000 Cs
   0.7500000000000000    0.7500000000000000    0.7500000000000000 Cs
   0.2500000000000000    0.2500000000000000    0.2500000000000000 Al
   0.0000000000000000    0.0000000000000000    0.0000000000000000 Al
   0.1250000000000000    0.1250000000000000    0.1250000000000000 O
   0.6250000000000000    0.1250000000000000    0.1250000000000000 O
   0.1250000000000000    0.6250000000000000    0.1250000000000000 O
   0.1250000000000000    0.1250000000000000    0.6250000000000000 O
