Ga10 Ge1 Pb3 O20
1.0
   7.7818832300000000   -5.8632680700000002   -0.0167787500000000
   7.7818832300000000    5.8632680700000002   -0.0167787500000000
  -1.6597005600000001    0.0000000000000000    4.8504974799999996
Ga Ge Pb O
10 1 3 20
direct
   0.3671640100000000    0.6328359900000000    0.5000000000000000 Ga
   0.6328359900000000    0.3671640100000000    0.5000000000000000 Ga
   0.7217510900000000    0.9937138700000000    0.3762804200000000 Ga
   0.0062861300000000    0.2782489100000000    0.6237195800000001 Ga
   0.2782489100000000    0.0062861300000000    0.6237195800000001 Ga
   0.9937138700000000    0.7217510900000000    0.3762804200000000 Ga
   0.4212364300000000    0.8505309100000000    0.1052264400000000 Ga
   0.1494690900000000    0.5787635700000000    0.8947735600000000 Ga
   0.5787635700000000    0.1494690900000000    0.8947735600000000 Ga
   0.8505309100000000    0.4212364300000000    0.1052264400000000 Ga
   0.5000000000000000    0.5000000000000000    0.0000000000000000 Ge
   0.0000000000000000    0.0000000000000000    0.0000000000000000 Pb
   0.2746560400000000    0.2746560400000000    0.2159391700000000 Pb
   0.7253439600000000    0.7253439600000000    0.7840608300000000 Pb
   0.4322179500000000    0.4322179500000000    0.2520736100000000 O
   0.5677820500000000    0.5677820500000000    0.7479263900000001 O
   0.9038223800000000    0.9038223800000000    0.3034674600000000 O
   0.0961776200000000    0.0961776200000000    0.6965325400000000 O
   0.6043673600000000    0.8772915300000000    0.1315869500000000 O
   0.1227084700000000    0.3956326400000000    0.8684130500000000 O
   0.3956326400000000    0.1227084700000000    0.8684130500000000 O
   0.8772915300000000    0.6043673600000000    0.1315869500000000 O
   0.6619860100000000    0.1728267800000000    0.2704570400000000 O
   0.8271732200000000    0.3380139900000000    0.7295429600000000 O
   0.3380139900000000    0.8271732200000000    0.7295429600000000 O
   0.1728267800000000    0.6619860100000000    0.2704570400000000 O
   0.0074419000000000    0.7212512500000000    0.7399932900000000 O
   0.2787487500000000    0.9925581000000000    0.2600067100000000 O
   0.9925581000000000    0.2787487500000000    0.2600067100000000 O
   0.7212512500000000    0.0074419000000000    0.7399932900000000 O
   0.3148473300000000    0.5448118100000000    0.7556861300000000 O
   0.4551881900000000    0.6851526700000000    0.2443138700000000 O
   0.6851526700000000    0.4551881900000000    0.2443138700000000 O
   0.5448118100000000    0.3148473300000000    0.7556861300000000 O
