Zr1 S2
1.0
   3.6771294499999998    0.0000000000000000    0.0000000000000000
  -1.8385652200000000    3.1844878599999999    0.0000000000000000
   0.0000000000000000    0.0000000000000000    5.8895895400000002
Zr S
1 2
direct
   0.0000000000000000    0.0000000000000000    0.0000000000000000 Zr
   0.6666670000000000    0.3333330000000000    0.7526406800000000 S
   0.3333330000000000    0.6666670000000000    0.2473593200000000 S
