Al4 O6
1.0
   2.3873340299999999    1.3783277500000000    4.3378136400000002
  -2.3873340299999999    1.3783277500000000    4.3378136400000002
   0.0000000000000000   -2.7566554999999999    4.3378136400000002
Al O
4 6
direct
   0.1479170500000000    0.1479170500000000    0.1479170500000000 Al
   0.6479170500000000    0.6479170500000000    0.6479170500000000 Al
   0.8520829500000000    0.8520829500000000    0.8520829500000000 Al
   0.3520829500000000    0.3520829500000000    0.3520829500000000 Al
   0.2500000000000000    0.9441828799999999    0.5558171200000001 O
   0.9441828799999999    0.5558171200000001    0.2500000000000000 O
   0.5558171200000001    0.2500000000000000    0.9441828799999999 O
   0.0558171200000000    0.4441828800000000    0.7500000000000000 O
   0.4441828800000000    0.7500000000000000    0.0558171200000000 O
   0.7500000000000000    0.0558171200000000    0.4441828800000000 O
