Na4 Zn2 Si4 O12
1.0
   0.0000000000000000   10.5824374999999993    3.7125203199999999
   3.5409777000000000    0.0000000000000000    3.7125203199999999
   3.5409777000000000   10.5824374999999993    0.0000000000000000
Na Zn Si O
4 2 4 12
direct
   0.6287737500000000    0.3203395100000000    0.7144631299999999 Na
   0.3203395100000000    0.6287737500000000    0.3364236200000000 Na
   0.9135763800000000    0.5355368700000001    0.9296604900000000 Na
   0.5355368700000001    0.9135763800000000    0.6212262500000000 Na
   0.7478327400000000    0.7478327400000000    0.7521672600000000 Zn
   0.4978327400000000    0.4978327400000000    0.5021672600000000 Zn
   0.1551587000000000    0.8913327100000000    0.1804882700000000 Si
   0.8913327100000000    0.1551587000000000    0.7730193200000000 Si
   0.4769806800000000    0.0695117300000000    0.3586672900000000 Si
   0.0695117300000000    0.4769806800000000    0.0948413000000000 Si
   0.3730945300000000    0.8424659799999999    0.0950091600000000 O
   0.8424659799999999    0.3730945300000000    0.6894303300000000 O
   0.5605696700000000    0.1549908400000000    0.4075340200000000 O
   0.1549908400000000    0.5605696700000000    0.8769054700000000 O
   0.2259013200000000    0.6555790900000000    0.0361879200000000 O
   0.6555790900000000    0.2259013200000000    0.0823316800000000 O
   0.1676683200000000    0.2138120800000000    0.5944209100000000 O
   0.2138120800000000    0.1676683200000000    0.0240986800000000 O
   0.8452856200000000    0.9100360500000000    0.5003401500000000 O
   0.9100360500000000    0.8452856200000000    0.7443381800000000 O
   0.7496598500000000    0.5056618200000000    0.4047143800000000 O
   0.5056618200000000    0.7496598500000000    0.3399639500000000 O
