Sr1 Tl2 P4 O12
1.0
  -3.7870568800000002    3.7870567300000002    5.0829236199999999
   3.7870568800000002   -3.7870567300000002    5.0829236199999999
   3.7870567300000002    3.7870568800000002   -5.0829236199999999
Sr Tl P O
1 2 4 12
direct
   0.0000000000000000    0.0000000000000000    0.0000000000000000 Sr
   0.4176846100000000    0.9176846100000000    0.5000000000000000 Tl
   0.0823153900000000    0.5823153900000000    0.5000000000000000 Tl
   0.5619758700000000    0.0021939300000000    0.1277841800000000 P
   0.8744097500000000    0.4341916900000000    0.8722158200000000 P
   0.5658083100000000    0.4380241300000000    0.4402180600000000 P
   0.9978060700000000    0.1255902500000000    0.5597819400000000 P
   0.6263554700000000    0.2656924200000000    0.2571874000000000 O
   0.0085050200000000    0.3691680700000000    0.7428126000000000 O
   0.6308319300000000    0.3736445300000000    0.6393369400000000 O
   0.7343075800000000    0.9914949800000000    0.3606630600000000 O
   0.6128225700000000    0.9148497600000000    0.9358715300000000 O
   0.9789772300000000    0.6769510300000000    0.0641284700000000 O
   0.3230489700000000    0.3871774300000000    0.3020271900000000 O
   0.0851502400000000    0.0210227700000000    0.6979728100000000 O
   0.3393569700000000    0.9026494900000001    0.0615174100000000 O
   0.8411320799999999    0.2778395600000000    0.9384825900000000 O
   0.7221604400000000    0.6606430300000000    0.5632925200000000 O
   0.0973505100000000    0.1588679200000000    0.4367074800000000 O
