Na2 Cu2 Se2
1.0
   4.0231926900000001    0.0000000000000000    0.0000000000000000
   0.0000000000000000    4.0231926900000001    0.0000000000000000
   0.0000000000000000    0.0000000000000000    6.7128432499999997
Na Cu Se
2 2 2
direct
   0.5000000000000000    0.0000000000000000    0.1627083800000000 Na
   0.0000000000000000    0.5000000000000000    0.8372916200000000 Na
   0.0000000000000000    0.0000000000000000    0.5000000000000000 Cu
   0.5000000000000000    0.5000000000000000    0.5000000000000000 Cu
   0.5000000000000000    0.0000000000000000    0.7224040000000000 Se
   0.0000000000000000    0.5000000000000000    0.2775960000000000 Se
