Na14 Cd2 O9
1.0
   6.7022668500000000    0.0000002400000000    0.0000000000000000
  -3.3511341200000002    5.8043338799999997    0.0000000000000000
   0.0000000000000000    0.0000000000000000    9.3192515999999994
Na Cd O
14 2 9
direct
   0.3175967900000000    0.3587626100000000    0.9074495200000000 Na
   0.9588351800000000    0.3175967900000000    0.0925504800000000 Na
   0.6412373900000000    0.9588351800000000    0.9074495200000000 Na
   0.6861605300000000    0.0606947900000000    0.4091928000000000 Na
   0.0411648200000000    0.6824032100000000    0.9074495200000000 Na
   0.0000000000000000    0.0000000000000000    0.2542788200000000 Na
   0.0000000000000000    0.0000000000000000    0.7457211800000000 Na
   0.6824032100000000    0.6412373900000000    0.0925504800000000 Na
   0.0606947900000000    0.3745342600000000    0.5908072000000000 Na
   0.3745342600000000    0.3138394700000000    0.4091928000000000 Na
   0.9393052100000000    0.6254657400000000    0.4091928000000000 Na
   0.3138394700000000    0.9393052100000000    0.5908072000000000 Na
   0.6254657400000000    0.6861605300000000    0.5908072000000000 Na
   0.3587626100000000    0.0411648200000000    0.0925504800000000 Na
   0.6666670000000000    0.3333330000000000    0.7402138900000000 Cd
   0.3333330000000000    0.6666670000000000    0.2597861100000000 Cd
   0.3054789200000000    0.9629853500000000    0.3406836100000000 O
   0.6575064300000000    0.6945210800000000    0.3406836100000000 O
   0.0370146500000000    0.3424935700000000    0.3406836100000000 O
   0.6945210800000000    0.0370146500000000    0.6593163900000000 O
   0.3424935700000000    0.3054789200000000    0.6593163900000000 O
   0.9629853500000000    0.6575064300000000    0.6593163900000000 O
   0.0000000000000000    0.0000000000000000    0.0000000000000000 O
   0.6666670000000000    0.3333330000000000    0.9767585500000000 O
   0.3333330000000000    0.6666670000000000    0.0232414500000000 O
