Li16 Si2 O12
1.0
   5.4073676300000004    0.0000000000000000    0.0000000000000000
  -2.7036838200000002    4.6829178100000002    0.0000000000000000
   0.0000000000000000    0.0000000000000000   10.6340046200000007
Li Si O
16 2 12
direct
   0.3076469500000000    0.3076469500000000    0.7702305600000000 Li
   0.0000000000000000    0.3076469500000000    0.2702305600000000 Li
   0.6666670000000000    0.3333330000000000    0.9116049500000000 Li
   0.3333330000000000    0.6666670000000000    0.4116049500000000 Li
   0.6666670000000000    0.3333330000000000    0.4116049500000000 Li
   0.3333330000000000    0.6666670000000000    0.9116049500000000 Li
   0.0000000000000000    0.6048668200000000    0.1289345900000000 Li
   0.3951331800000000    0.0000000000000000    0.6289345900000000 Li
   0.6048668200000000    0.6048668200000000    0.6289345900000000 Li
   0.3951331800000000    0.3951331800000000    0.1289345900000000 Li
   0.6048668200000000    0.0000000000000000    0.1289345900000000 Li
   0.0000000000000000    0.3951331800000000    0.6289345900000000 Li
   0.0000000000000000    0.6923530500000000    0.7702305600000000 Li
   0.6923530500000000    0.0000000000000000    0.7702305600000000 Li
   0.6923530500000000    0.6923530500000000    0.2702305600000000 Li
   0.3076469500000000    0.0000000000000000    0.2702305600000000 Li
   0.0000000000000000    0.0000000000000000    0.9996125900000000 Si
   0.0000000000000000    0.0000000000000000    0.4996125900000000 Si
   0.2896755700000000    0.2896755700000000    0.9529706100000001 O
   0.7103244300000000    0.0000000000000000    0.9529706100000001 O
   0.0000000000000000    0.0000000000000000    0.6572774900000000 O
   0.0000000000000000    0.0000000000000000    0.1572774900000000 O
   0.6666670000000000    0.3333330000000000    0.7198958800000000 O
   0.3333330000000000    0.6666670000000000    0.2198958800000000 O
   0.6666670000000000    0.3333330000000000    0.2198958800000000 O
   0.0000000000000000    0.2896755700000000    0.4529706100000000 O
   0.0000000000000000    0.7103244300000000    0.9529706100000001 O
   0.2896755700000000    0.0000000000000000    0.4529706100000000 O
   0.7103244300000000    0.7103244300000000    0.4529706100000000 O
   0.3333330000000000    0.6666670000000000    0.7198958800000000 O
