As8 O12
1.0
   8.0158979200000005    0.0000000000000000    0.0517999800000000
   0.0000000000000000    4.5565330099999999    0.0000000000000000
  -6.1980957500000002    0.0000000000000000    8.9634116299999995
As O
8 12
direct
   0.4388950200000000    0.8269671300000000    0.1254363000000000 As
   0.5611049800000000    0.3269671300000000    0.3745637000000000 As
   0.5611049800000000    0.1730328700000000    0.8745637000000001 As
   0.4388950200000000    0.6730328700000000    0.6254362999999999 As
   0.0849396900000000    0.3571443300000000    0.1985787700000000 As
   0.9150603100000000    0.8571443300000000    0.3014212300000000 As
   0.9150603100000000    0.6428556700000000    0.8014212300000000 As
   0.0849396900000000    0.1428556700000000    0.6985787700000000 As
   0.6644633500000000    0.8843074700000000    0.1272737100000000 O
   0.3355366500000000    0.3843074700000000    0.3727262900000000 O
   0.3355366500000000    0.1156925300000000    0.8727262900000000 O
   0.6644633500000000    0.6156925300000000    0.6272737100000000 O
   0.5882958700000001    0.6861841300000000    0.3180299600000000 O
   0.4117041300000000    0.1861841300000000    0.1819700400000000 O
   0.4117041300000000    0.3138158700000000    0.6819700400000001 O
   0.5882958700000001    0.8138158700000000    0.8180299599999999 O
   0.0410376400000000    0.5285509700000000    0.7126806000000000 O
   0.9589623600000000    0.0285509700000000    0.7873194000000000 O
   0.9589623600000000    0.4714490300000000    0.2873194000000000 O
   0.0410376400000000    0.9714490300000000    0.2126806000000000 O
