Li2 Ta2 O6
1.0
   2.5820416499999999    1.4907425599999999    4.5983250699999996
  -2.5820416499999999    1.4907425599999999    4.5983250699999996
   0.0000000000000000   -2.9814841200000002    4.5983250699999996
Li Ta O
2 2 6
direct
   0.2780054000000000    0.2780054000000000    0.2780054000000000 Li
   0.7780054000000000    0.7780054000000000    0.7780054000000000 Li
   0.9960200200000000    0.9960200200000000    0.9960200200000000 Ta
   0.4960200200000000    0.4960200200000000    0.4960200200000000 Ta
   0.2292628900000000    0.6172832600000000    0.8676284300000000 O
   0.1172832600000000    0.7292628900000000    0.3676284300000000 O
   0.3676284300000000    0.1172832600000000    0.7292628900000000 O
   0.7292628900000000    0.3676284300000000    0.1172832600000000 O
   0.6172832600000000    0.8676284300000000    0.2292628900000000 O
   0.8676284300000000    0.2292628900000000    0.6172832600000000 O
