Ba8 Cd4 S12
1.0
   8.8830582099999997    0.0000000000000000    0.0000000000000000
   0.0000000000000000    4.3197499300000004    0.0000000000000000
   0.0000000000000000    0.0000000000000000   17.1524008899999991
Ba Cd S
8 4 12
direct
   0.2634150300000000    0.2500000000000000    0.4582943600000000 Ba
   0.2365849700000000    0.7500000000000000    0.9582943600000000 Ba
   0.7634150300000000    0.2500000000000000    0.0417056400000000 Ba
   0.7365849700000000    0.7500000000000000    0.5417056400000000 Ba
   0.9213011900000000    0.2500000000000000    0.7850557900000000 Ba
   0.0786988100000000    0.7500000000000000    0.2149442100000000 Ba
   0.4213011900000000    0.2500000000000000    0.7149442100000000 Ba
   0.5786988100000000    0.7500000000000000    0.2850557900000000 Ba
   0.6221266000000000    0.7500000000000000    0.8685524600000000 Cd
   0.1221266000000000    0.7500000000000000    0.6314475400000000 Cd
   0.3778734000000000    0.2500000000000000    0.1314475400000000 Cd
   0.8778734000000000    0.2500000000000000    0.3685524600000000 Cd
   0.4855994000000000    0.2500000000000000    0.9043322700000000 S
   0.5144006000000000    0.7500000000000000    0.0956677300000000 S
   0.9855994000000000    0.2500000000000000    0.5956677300000000 S
   0.0144006000000000    0.7500000000000000    0.4043322700000000 S
   0.6185004300000000    0.2500000000000000    0.4276130900000000 S
   0.3814995700000000    0.7500000000000000    0.5723869100000000 S
   0.1185004300000000    0.2500000000000000    0.0723869100000000 S
   0.6845203000000000    0.7500000000000000    0.7243090100000000 S
   0.8154797000000000    0.2500000000000000    0.2243090100000000 S
   0.1845203000000000    0.7500000000000000    0.7756909900000000 S
   0.3154797000000000    0.2500000000000000    0.2756909900000000 S
   0.8814995700000000    0.7500000000000000    0.9276130900000000 S
