Ba6 Si2 O10
1.0
  -3.6389161200000002    3.6389161200000002    5.6302604199999999
   3.6389161200000002   -3.6389161200000002    5.6302604199999999
   3.6389161200000002    3.6389161200000002   -5.6302604199999999
Ba Si O
6 2 10
direct
   0.8188281800000000    0.3188281800000000    0.1376553700000000 Ba
   0.3188281800000000    0.1811718200000000    0.5000000000000000 Ba
   0.6811718200000000    0.8188281800000000    0.5000000000000000 Ba
   0.1811718200000000    0.6811718200000000    0.8623446299999999 Ba
   0.2500000000000000    0.2500000000000000    0.0000000000000000 Ba
   0.7500000000000000    0.7500000000000000    0.0000000000000000 Ba
   0.7500000000000000    0.2500000000000000    0.5000000000000000 Si
   0.2500000000000000    0.7500000000000000    0.5000000000000000 Si
   0.2096827000000000    0.7096827000000000    0.2433309100000000 O
   0.5336492100000000    0.0336492100000000    0.2433309100000000 O
   0.7903173000000000    0.2903173000000000    0.7566690900000000 O
   0.2903173000000000    0.5336492100000000    0.5000000000000000 O
   0.0336492100000000    0.7903173000000000    0.5000000000000000 O
   0.7096827000000000    0.4663507900000000    0.5000000000000000 O
   0.9663507900000000    0.2096827000000000    0.5000000000000000 O
   0.4663507900000000    0.9663507900000000    0.7566690900000000 O
   0.5000000000000000    0.5000000000000000    0.0000000000000000 O
   0.0000000000000000    0.0000000000000000    0.0000000000000000 O
