Sn4 Ge4 S12
1.0
   7.2044955300000000    0.0000000000000000   -0.0689874000000000
   0.0000000000000000   10.0235812200000005    0.0000000000000000
  -1.7277279000000001    0.0000000000000000    6.6207330999999998
Sn Ge S
4 4 12
direct
   0.8730508300000001    0.5861209300000000    0.7304324500000000 Sn
   0.1269491700000000    0.0861209300000000    0.7695675500000000 Sn
   0.1269491700000000    0.4138790700000000    0.2695675500000000 Sn
   0.8730508300000001    0.9138790700000000    0.2304324500000000 Sn
   0.6774670600000000    0.2935115700000000    0.0009628800000000 Ge
   0.6774670600000000    0.2064884300000000    0.5009628800000000 Ge
   0.3225329400000000    0.7064884299999999    0.9990371200000000 Ge
   0.3225329400000000    0.7935115700000001    0.4990371200000000 Ge
   0.0518813500000000    0.8231251900000000    0.9216275200000000 S
   0.4809298100000000    0.2117858300000000    0.1820774500000000 S
   0.5190701900000000    0.7117858300000000    0.3179225500000000 S
   0.5190701900000000    0.7882141700000000    0.8179225500000000 S
   0.7766949500000000    0.5002398000000000    0.0888686300000000 S
   0.2233050500000000    0.0002398000000000    0.4111313700000000 S
   0.2233050500000000    0.4997602000000000    0.9111313700000000 S
   0.7766949500000000    0.9997602000000000    0.5888686300000000 S
   0.9481186500000000    0.1768748100000000    0.0783724800000000 S
   0.0518813500000000    0.6768748100000000    0.4216275200000000 S
   0.9481186500000000    0.3231251900000000    0.5783724800000000 S
   0.4809298100000000    0.2882141700000000    0.6820774500000000 S
