Na8 Zn8 O12
1.0
   6.0535154999999996    0.0000000000000000    0.0000000000000000
   0.0000000000000000    6.0535154999999996    0.0000000000000000
   0.0000000000000000    0.0000000000000000    9.2650664400000000
Na Zn O
8 8 12
direct
   0.0369224200000000    0.7540725300000000    0.8957665000000000 Na
   0.2459274700000000    0.9630775800000000    0.6042335000000000 Na
   0.2540725300000000    0.4630775800000000    0.1457665000000000 Na
   0.4630775800000000    0.2540725300000000    0.8542335000000000 Na
   0.5369224200000000    0.7459274700000000    0.3542335000000000 Na
   0.7459274700000000    0.5369224200000000    0.6457665000000000 Na
   0.7540725300000000    0.0369224200000000    0.1042335000000000 Na
   0.9630775800000000    0.2459274700000000    0.3957665000000000 Na
   0.0469494900000000    0.7580052700000000    0.3640044200000000 Zn
   0.2419947300000000    0.9530505100000000    0.1359955800000000 Zn
   0.2580052700000000    0.4530505100000000    0.6140044200000000 Zn
   0.4530505100000000    0.2580052700000000    0.3859955800000000 Zn
   0.5469494900000000    0.7419947300000000    0.8859955800000000 Zn
   0.7419947300000000    0.5469494900000000    0.1140044200000000 Zn
   0.7580052700000000    0.0469494900000000    0.6359955800000000 Zn
   0.9530505100000000    0.2419947300000000    0.8640044200000000 Zn
   0.0152878200000000    0.2586674100000000    0.6588600600000000 O
   0.1712033100000000    0.1712033100000000    0.0000000000000000 O
   0.2413325900000000    0.5152878200000000    0.4088600600000000 O
   0.2586674100000000    0.0152878200000000    0.3411399400000000 O
   0.3287966900000000    0.6712033100000000    0.7500000000000000 O
   0.4847121800000000    0.7586674100000000    0.0911399400000000 O
   0.5152878200000000    0.2413325900000000    0.5911399400000000 O
   0.6712033100000000    0.3287966900000000    0.2500000000000000 O
   0.7413325900000000    0.9847121800000000    0.8411399400000000 O
   0.7586674100000000    0.4847121800000000    0.9088600600000000 O
   0.8287966900000000    0.8287966900000000    0.5000000000000000 O
   0.9847121800000000    0.7413325900000000    0.1588600600000000 O
