La4 Cr2 O12
1.0
   7.1618367300000001   -2.1842498500000000    0.0065933500000000
   7.1618367300000001    2.1842498500000000    0.0065933500000000
  -2.4908611299999999    0.0000000000000000    7.9882538800000003
La Cr O
4 2 12
direct
   0.6612111200000000    0.6777037900000000    0.0845854600000000 La
   0.3222962100000000    0.3387888800000000    0.4154145400000000 La
   0.6777037900000000    0.6612111200000000    0.5845854600000000 La
   0.3387888800000000    0.3222962100000000    0.9154145400000000 La
   0.0401627500000000    0.9598372500000000    0.2500000000000000 Cr
   0.9598372500000000    0.0401627500000000    0.7500000000000000 Cr
   0.7771519400000000    0.7359132800000000    0.8781967400000000 O
   0.7362760900000000    0.2665838400000000    0.9100274800000000 O
   0.9273971100000000    0.2714722000000000    0.2982365900000000 O
   0.0726028900000000    0.7285277999999999    0.7017634100000000 O
   0.2640867200000000    0.2228480600000000    0.6218032600000000 O
   0.7334161600000000    0.2637239100000000    0.5899725200000000 O
   0.7359132800000000    0.7771519400000000    0.3781967400000000 O
   0.2637239100000000    0.7334161600000000    0.0899725200000000 O
   0.2228480600000000    0.2640867200000000    0.1218032600000000 O
   0.2665838400000000    0.7362760900000000    0.4100274800000000 O
   0.2714722000000000    0.9273971100000000    0.7982365900000000 O
   0.7285277999999999    0.0726028900000000    0.2017634100000000 O
