Ca2 Ag2 As2 O8
1.0
   2.9145503900000000   -4.6727728900000001    0.0000000000000000
   2.9145503900000000    4.6727728900000001    0.0000000000000000
   0.0000000000000000    0.0000000000000000    7.0333447199999997
Ca Ag As O
2 2 2 8
direct
   0.0000000000000000    0.0000000000000000    0.5000000000000000 Ca
   0.0000000000000000    0.0000000000000000    0.0000000000000000 Ca
   0.3151217000000000    0.6848783000000001    0.7500000000000000 Ag
   0.6848783000000001    0.3151217000000000    0.2500000000000000 Ag
   0.6517096400000000    0.3482903600000000    0.7500000000000000 As
   0.3482903600000000    0.6517096400000000    0.2500000000000000 As
   0.7586445300000000    0.2413554700000000    0.5543247800000000 O
   0.2413554700000000    0.7586445300000000    0.4456752200000000 O
   0.2413554700000000    0.7586445300000000    0.0543247800000000 O
   0.7586445300000000    0.2413554700000000    0.9456752200000000 O
   0.7755905700000000    0.6966107600000000    0.7500000000000000 O
   0.2244094300000000    0.3033892400000000    0.2500000000000000 O
   0.3033892400000000    0.2244094300000000    0.7500000000000000 O
   0.6966107600000000    0.7755905700000000    0.2500000000000000 O
