Sr4 Si2 S8
1.0
   6.5163207900000000    0.0000000000000000   -0.0340681000000000
   0.0000000000000000    6.5577139899999999    0.0000000000000000
  -2.5457077099999998    0.0000000000000000    7.7822627899999999
Sr Si S
4 2 8
direct
   0.2827986900000000    0.2500000000000000    0.9510333100000000 Sr
   0.7172013100000000    0.7500000000000000    0.0489666900000000 Sr
   0.2250401000000000    0.2500000000000000    0.4287725800000000 Sr
   0.7749599000000000    0.7500000000000000    0.5712274200000000 Sr
   0.7188274700000000    0.2500000000000000    0.7959522999999999 Si
   0.2811725300000000    0.7500000000000000    0.2040477000000000 Si
   0.8860996000000000    0.2500000000000000    0.0644452700000000 S
   0.1139004000000000    0.7500000000000000    0.9355547300000000 S
   0.9156282900000000    0.2500000000000000    0.6321547199999999 S
   0.0843717100000000    0.7500000000000000    0.3678452800000000 S
   0.5042130600000000    0.5020377499999999    0.7355689000000000 S
   0.4957869400000000    0.0020377500000000    0.2644311000000000 S
   0.4957869400000000    0.4979622500000000    0.2644311000000000 S
   0.5042130600000000    0.9979622500000001    0.7355689000000000 S
