Rb4 Sn2 Se6
1.0
   7.0972896600000004   -0.0419511500000000   -0.0246741400000000
   3.1254013100000000    7.2088943700000003    0.0265289000000000
   2.7606139800000000    1.3434909200000000    8.3632647500000008
Rb Sn Se
4 2 6
direct
   0.6452931900000000    0.4656840600000000    0.6877863900000000 Rb
   0.3547068100000000    0.5343159400000000    0.3122136100000000 Rb
   0.9024269300000000    0.7967970500000000    0.8807637500000000 Rb
   0.0975730700000000    0.2032029500000000    0.1192362500000000 Rb
   0.6410071200000000    0.9376784000000000    0.3106749200000000 Sn
   0.3589928800000000    0.0623216000000000    0.6893250800000000 Sn
   0.2640065400000000    0.9534535100000000    0.4757793700000000 Se
   0.7359934600000000    0.0465464900000000    0.5242206300000000 Se
   0.3717119900000000    0.8129519600000000    0.9286958700000000 Se
   0.6282880100000000    0.1870480400000000    0.0713041300000000 Se
   0.1570647600000000    0.3952553400000000    0.7177919100000000 Se
   0.8429352400000000    0.6047446600000000    0.2822080900000000 Se
