Zn2 Si2 Ag4 O8
1.0
   5.3789394000000001    0.0000000000000000   -0.0057720600000000
   0.0000000000000000    5.4152038300000003    0.0000000000000000
  -5.3013216900000000    0.0000000000000000    6.8963522700000004
Zn Si Ag O
2 2 4 8
direct
   0.6033978800000001    0.6894260700000000    0.3250741700000000 Zn
   0.6033978800000001    0.3105739300000000    0.8250741700000001 Zn
   0.3520642900000000    0.8114459400000000    0.5741459700000000 Si
   0.3520642900000000    0.1885540600000000    0.0741459700000000 Si
   0.0947082900000000    0.6955859200000000    0.8216123800000000 Ag
   0.0947082900000000    0.3044140800000000    0.3216123800000000 Ag
   0.8618625200000000    0.8092864100000000    0.0790910600000000 Ag
   0.8618625200000000    0.1907135900000000    0.5790910600000000 Ag
   0.4641395000000000    0.8974216000000000    0.1089737500000000 O
   0.4641395000000000    0.1025784000000000    0.6089737500000000 O
   0.3130864900000000    0.7071177300000000    0.3827529000000000 O
   0.3130864900000000    0.2928822700000000    0.8827529000000000 O
   0.0148847900000000    0.7886952800000000    0.5375776200000000 O
   0.0148847900000000    0.2113047200000000    0.0375776200000000 O
   0.6191962400000000    0.6498689800000000    0.7688211500000000 O
   0.6191962400000000    0.3501310200000000    0.2688211500000000 O
