Ag4 Ge2 S6
1.0
   5.8736723499999997   -3.4565701899999999    0.0000000000000000
   5.8736723499999997    3.4565701899999999    0.0000000000000000
   0.0000000000000000    0.0000000000000000    6.3789230699999999
Ag Ge S
4 2 6
direct
   0.3100228900000000    0.0060809400000000    0.4879684200000000 Ag
   0.9939190600000000    0.6899771099999999    0.4879684200000000 Ag
   0.6899771099999999    0.9939190600000000    0.9879684200000000 Ag
   0.0060809400000000    0.3100228900000000    0.9879684200000000 Ag
   0.6616231299999999    0.3383768700000000    0.4614393200000000 Ge
   0.3383768700000000    0.6616231299999999    0.9614393200000000 Ge
   0.3494746000000000    0.9667097400000000    0.8754269000000000 S
   0.0332902600000000    0.6505254000000000    0.8754269000000000 S
   0.6505254000000000    0.0332902600000000    0.3754269000000000 S
   0.9667097400000000    0.3494746000000000    0.3754269000000000 S
   0.6471271000000000    0.3528729000000000    0.8287710500000000 S
   0.3528729000000000    0.6471271000000000    0.3287710500000000 S
