Cu6 Hg3 As4 S12
1.0
   6.8182227800000001    3.9365039300000002    3.0852759999999999
  -6.8182233300000004    3.9365029800000002    3.0852759999999999
   0.0000005400000000   -7.8730059299999997    3.0852760099999998
Cu Hg As S
6 3 4 12
direct
   0.7434098400000000    0.2699272600000000    0.9008047800000000 Cu
   0.9008047800000000    0.7434098400000000    0.2699272600000000 Cu
   0.7868040100000000    0.5291411400000000    0.5807926100000000 Cu
   0.5291411400000000    0.5807926100000000    0.7868040100000000 Cu
   0.2699272600000000    0.9008047800000000    0.7434098400000000 Cu
   0.5807926100000000    0.7868040100000000    0.5291411400000000 Cu
   0.0555400400000000    0.2005313700000000    0.6726302300000000 Hg
   0.2005313700000000    0.6726302300000000    0.0555400400000000 Hg
   0.6726302300000000    0.0555400400000000    0.2005313700000000 Hg
   0.3653052000000000    0.1461899400000000    0.4275844200000000 As
   0.4275844200000000    0.3653052000000000    0.1461899400000000 As
   0.1461899400000000    0.4275844200000000    0.3653052000000000 As
   0.9989287700000000    0.9989287700000000    0.9989287700000000 As
   0.6197556600000000    0.3625666000000000    0.6852001200000000 S
   0.3625666000000000    0.6852001200000000    0.6197556600000000 S
   0.6852001200000000    0.6197556600000000    0.3625666000000000 S
   0.7695137300000000    0.8204269000000000    0.0451717100000000 S
   0.9300515700000000    0.3505805000000000    0.4759511400000000 S
   0.3505805000000000    0.4759511400000000    0.9300515700000000 S
   0.4759511400000000    0.9300515700000000    0.3505805000000000 S
   0.1603500600000000    0.9787989300000000    0.5115444700000000 S
   0.0451717100000000    0.7695137300000000    0.8204269000000000 S
   0.5115444700000000    0.1603500600000000    0.9787989300000000 S
   0.8204269000000000    0.0451717100000000    0.7695137300000000 S
   0.9787989300000000    0.5115444700000000    0.1603500600000000 S
