Na4 La4 Si4 O16
1.0
   7.0299676399999997    0.0000000000000000    0.0000000000000000
   0.0000000000000000    5.4520363700000001    0.0000000000000000
   0.0000000000000000    0.0000000000000000    9.5818288599999999
Na La Si O
4 4 4 16
direct
   0.1633245000000000    0.2500000000000000    0.4459342500000000 Na
   0.8366755000000000    0.7500000000000000    0.5540657500000000 Na
   0.3366755000000000    0.7500000000000000    0.9459342500000000 Na
   0.6633245000000000    0.2500000000000000    0.0540657500000000 Na
   0.5012392800000000    0.2500000000000000    0.6941448099999999 La
   0.4987607200000000    0.7500000000000000    0.3058551900000000 La
   0.9987607200000000    0.7500000000000000    0.1941448100000000 La
   0.0012392800000000    0.2500000000000000    0.8058551900000001 La
   0.2261335000000000    0.2500000000000000    0.0835896200000000 Si
   0.7738665000000000    0.7500000000000000    0.9164103800000000 Si
   0.2738665000000000    0.7500000000000000    0.5835896200000000 Si
   0.7261335000000000    0.2500000000000000    0.4164103800000000 Si
   0.2922853700000000    0.4978016700000000    0.1658402700000000 O
   0.7077146300000000    0.5021983300000000    0.8341597300000000 O
   0.2077146300000000    0.5021983300000000    0.6658402700000000 O
   0.7077146300000000    0.9978016700000000    0.8341597300000000 O
   0.7922853700000000    0.4978016700000000    0.3341597300000000 O
   0.2922853700000000    0.0021983300000000    0.1658402700000000 O
   0.7922853700000000    0.0021983300000000    0.3341597300000000 O
   0.2077146300000000    0.9978016700000000    0.6658402700000000 O
   0.9933164600000000    0.2500000000000000    0.0683682900000000 O
   0.0066835400000000    0.7500000000000000    0.9316317100000000 O
   0.5066835400000000    0.7500000000000000    0.5683682900000000 O
   0.4933164600000000    0.2500000000000000    0.4316317100000000 O
   0.8204297600000000    0.2500000000000000    0.5741714400000000 O
   0.1795702400000000    0.7500000000000000    0.4258285600000000 O
   0.6795702400000000    0.7500000000000000    0.0741714400000000 O
   0.3204297600000000    0.2500000000000000    0.9258285600000000 O
