Li2 Nb2 W2 O12
1.0
   4.7226676699999999    0.0000000000000000    0.0000000000000000
   0.0000000000000000    4.7226676699999999    0.0000000000000000
   0.0000000000000000    0.0000000000000000    9.2861672599999991
Li Nb W O
2 2 2 12
direct
   0.0000000000000000    0.5000000000000000    0.4232085800000000 Li
   0.5000000000000000    0.0000000000000000    0.5767914200000001 Li
   0.0000000000000000    0.5000000000000000    0.0913276700000000 Nb
   0.5000000000000000    0.0000000000000000    0.9086723300000000 Nb
   0.5000000000000000    0.0000000000000000    0.2704921400000000 W
   0.0000000000000000    0.5000000000000000    0.7295078600000000 W
   0.2857328700000000    0.7857328700000000    0.7684957000000000 O
   0.6991714400000000    0.1991714400000000    0.3936668300000000 O
   0.1991714400000000    0.3008285600000000    0.6063331700000000 O
   0.8008285600000000    0.6991714400000000    0.6063331700000000 O
   0.7142671300000000    0.2142671300000000    0.7684957000000000 O
   0.7857328700000000    0.7142671300000000    0.2315043000000000 O
   0.2142671300000000    0.2857328700000000    0.2315043000000000 O
   0.3059855300000000    0.8059855300000000    0.0821818000000000 O
   0.6940144700000000    0.1940144700000000    0.0821818000000000 O
   0.8059855300000000    0.6940144700000000    0.9178182000000000 O
   0.1940144700000000    0.3059855300000000    0.9178182000000000 O
   0.3008285600000000    0.8008285600000000    0.3936668300000000 O
