Sr4 Zn4 O8
1.0
   5.7396450300000001    0.0000000000000000    0.0000000000000000
   0.0000000000000000    3.3032269500000000    0.0000000000000000
   0.0000000000000000    0.0000000000000000   11.2428974999999998
Sr Zn O
4 4 8
direct
   0.2946942500000000    0.2500000000000000    0.3712267900000000 Sr
   0.7053057500000000    0.7500000000000000    0.6287732100000000 Sr
   0.7946942500000000    0.2500000000000000    0.1287732100000000 Sr
   0.2053057500000000    0.7500000000000000    0.8712267900000000 Sr
   0.7815283000000000    0.7500000000000000    0.3653507600000000 Zn
   0.2815283000000000    0.7500000000000000    0.1346492400000000 Zn
   0.2184717000000000    0.2500000000000000    0.6346492400000000 Zn
   0.7184717000000000    0.2500000000000000    0.8653507600000000 Zn
   0.2396725000000000    0.2500000000000000    0.0448708200000000 O
   0.7603275000000000    0.7500000000000000    0.9551291800000000 O
   0.7396725000000000    0.2500000000000000    0.4551291800000000 O
   0.2603275000000000    0.7500000000000000    0.5448708200000000 O
   0.4619789700000000    0.2500000000000000    0.7572319199999999 O
   0.0380210300000000    0.7500000000000000    0.2572319200000000 O
   0.9619789700000000    0.2500000000000000    0.7427680800000001 O
   0.5380210300000000    0.7500000000000000    0.2427680800000000 O
