Na6 Ca4 Bi2 O12
1.0
   0.0000000000000000    4.7823861799999996    9.9317794599999996
   3.3323504700000002    0.0000000000000000    9.9317794599999996
   3.3323504700000002    4.7823861799999996    0.0000000000000000
Na Ca Bi O
6 4 2 12
direct
   0.5865744400000000    0.5865744400000000    0.9134255600000000 Na
   0.9134255600000000    0.9134255600000000    0.5865744400000000 Na
   0.6634255600000000    0.6634255600000000    0.3365744400000000 Na
   0.3365744400000000    0.3365744400000000    0.6634255600000000 Na
   0.5000000000000000    0.5000000000000000    0.5000000000000000 Na
   0.7500000000000000    0.7500000000000000    0.7500000000000000 Na
   0.0806321300000000    0.0806321300000000    0.4193678700000000 Ca
   0.8306321300000000    0.8306321300000000    0.1693678700000000 Ca
   0.4193678700000000    0.4193678700000000    0.0806321300000000 Ca
   0.1693678700000000    0.1693678700000000    0.8306321300000000 Ca
   0.2500000000000000    0.2500000000000000    0.2500000000000000 Bi
   0.0000000000000000    0.0000000000000000    0.0000000000000000 Bi
   0.3954127700000000    0.9491770700000000    0.0965512200000000 O
   0.0965512200000000    0.5588589500000000    0.3954127700000000 O
   0.5588589500000000    0.0965512200000000    0.9491770700000000 O
   0.1534487800000000    0.6911410500000000    0.8545872300000000 O
   0.2248876300000000    0.7751123700000000    0.2248876300000000 O
   0.3008229300000000    0.8545872300000000    0.6911410500000000 O
   0.0251123700000000    0.4748876300000000    0.0251123700000000 O
   0.4748876300000000    0.0251123700000000    0.4748876300000000 O
   0.6911410500000000    0.1534487800000000    0.3008229300000000 O
   0.8545872300000000    0.3008229300000000    0.1534487800000000 O
   0.9491770700000000    0.3954127700000000    0.5588589500000000 O
   0.7751123700000000    0.2248876300000000    0.7751123700000000 O
