Al4 Zn2 S8
1.0
   0.0000000000000000    4.9726593100000001    4.9726593100000001
   4.9726593100000001    0.0000000000000000    4.9726593100000001
   4.9726593100000001    4.9726593100000001    0.0000000000000000
Al Zn S
4 2 8
direct
   0.1250000000000000    0.6250000000000000    0.6250000000000000 Al
   0.6250000000000000    0.1250000000000000    0.6250000000000000 Al
   0.6250000000000000    0.6250000000000000    0.1250000000000000 Al
   0.6250000000000000    0.6250000000000000    0.6250000000000000 Al
   0.2500000000000000    0.2500000000000000    0.2500000000000000 Zn
   0.0000000000000000    0.0000000000000000    0.0000000000000000 Zn
   0.8493261700000000    0.3835582800000000    0.3835582800000000 S
   0.3835582800000000    0.8493261700000000    0.3835582800000000 S
   0.3835582800000000    0.3835582800000000    0.8493261700000000 S
   0.3835582800000000    0.3835582800000000    0.3835582800000000 S
   0.4006738300000000    0.8664417200000000    0.8664417200000000 S
   0.8664417200000000    0.4006738300000000    0.8664417200000000 S
   0.8664417200000000    0.8664417200000000    0.4006738300000000 S
   0.8664417200000000    0.8664417200000000    0.8664417200000000 S
