Zr4 V8 O28
1.0
   8.9800553999999995    0.0000000000000000    0.0000000000000000
   0.0000000000000000    8.9800553999999995    0.0000000000000000
   0.0000000000000000    0.0000000000000000    8.9800553999999995
Zr V O
4 8 28
direct
   0.5000000000000000    0.0000000000000000    0.5000000000000000 Zr
   0.0000000000000000    0.0000000000000000    0.0000000000000000 Zr
   0.5000000000000000    0.5000000000000000    0.0000000000000000 Zr
   0.0000000000000000    0.5000000000000000    0.5000000000000000 Zr
   0.3859569800000000    0.3859569800000000    0.3859569800000000 V
   0.6140430200000000    0.6140430200000000    0.6140430200000000 V
   0.3859569800000000    0.1140430200000000    0.8859569800000000 V
   0.1140430200000000    0.6140430200000000    0.8859569800000000 V
   0.1140430200000000    0.8859569800000000    0.3859569800000000 V
   0.8859569800000000    0.3859569800000000    0.1140430200000000 V
   0.8859569800000000    0.1140430200000000    0.6140430200000000 V
   0.6140430200000000    0.8859569800000000    0.1140430200000000 V
   0.0000000000000000    0.0000000000000000    0.5000000000000000 O
   0.5000000000000000    0.5000000000000000    0.5000000000000000 O
   0.7951443100000000    0.9087902100000000    0.0633965200000000 O
   0.5633965200000000    0.7048556900000000    0.0912097900000000 O
   0.0912097900000000    0.9366034800000000    0.2048556900000000 O
   0.5000000000000000    0.0000000000000000    0.0000000000000000 O
   0.9366034800000000    0.2951443100000000    0.5912097900000000 O
   0.2048556900000000    0.4087902100000000    0.4366034800000000 O
   0.4087902100000000    0.0633965200000000    0.7048556900000000 O
   0.9087902100000000    0.4366034800000000    0.2951443100000000 O
   0.7048556900000000    0.4087902100000000    0.0633965200000000 O
   0.2951443100000000    0.5912097900000000    0.9366034800000000 O
   0.5633965200000000    0.7951443100000000    0.5912097900000000 O
   0.0633965200000000    0.7951443100000000    0.9087902100000000 O
   0.7951443100000000    0.5912097900000000    0.5633965200000000 O
   0.4087902100000000    0.4366034800000000    0.2048556900000000 O
   0.4366034800000000    0.2048556900000000    0.4087902100000000 O
   0.9087902100000000    0.0633965200000000    0.7951443100000000 O
   0.0912097900000000    0.5633965200000000    0.7048556900000000 O
   0.5912097900000000    0.9366034800000000    0.2951443100000000 O
   0.0000000000000000    0.5000000000000000    0.0000000000000000 O
   0.7048556900000000    0.0912097900000000    0.5633965200000000 O
   0.9366034800000000    0.2048556900000000    0.0912097900000000 O
   0.2048556900000000    0.0912097900000000    0.9366034800000000 O
   0.0633965200000000    0.7048556900000000    0.4087902100000000 O
   0.2951443100000000    0.9087902100000000    0.4366034800000000 O
   0.5912097900000000    0.5633965200000000    0.7951443100000000 O
   0.4366034800000000    0.2951443100000000    0.9087902100000000 O
