Sc2 As2 O8
1.0
  -3.3569181600000002    3.3569181600000002    3.0516794200000001
   3.3569181600000002   -3.3569181600000002    3.0516794200000001
   3.3569181600000002    3.3569181600000002   -3.0516794200000001
Sc As O
2 2 8
direct
   0.2500000000000000    0.7500000000000000    0.5000000000000000 Sc
   0.5000000000000000    0.5000000000000000    0.0000000000000000 Sc
   0.0000000000000000    0.0000000000000000    0.0000000000000000 As
   0.7500000000000000    0.2500000000000000    0.5000000000000000 As
   0.1888949700000000    0.3762467200000000    0.1873517500000000 O
   0.1888949700000000    0.0015432200000000    0.8126482500000000 O
   0.7515432200000000    0.4388949700000000    0.3126482500000000 O
   0.5611050300000000    0.8737532800000000    0.3126482500000000 O
   0.1262467200000000    0.4388949700000000    0.6873517500000000 O
   0.9984567800000000    0.8111050300000000    0.1873517500000000 O
   0.5611050300000000    0.2484567800000000    0.6873517500000000 O
   0.6237532800000000    0.8111050300000000    0.8126482500000000 O
