Sr8 Ge4 O16
1.0
   5.8542086099999997    0.0000000000000000    0.0338725200000000
   0.0000000000000000    7.2242407499999999    0.0000000000000000
  -4.9990953100000004    0.0000000000000000    9.8464811799999996
Sr Ge O
8 4 16
direct
   0.2957027000000000    0.3481013100000000    0.5693924299999999 Sr
   0.7042973000000000    0.8481013100000000    0.9306075700000001 Sr
   0.7042973000000000    0.6518986900000000    0.4306075700000000 Sr
   0.2957027000000000    0.1518986900000000    0.0693924300000000 Sr
   0.0163856700000000    0.9971820400000000    0.2999706400000000 Sr
   0.9836143300000000    0.4971820400000000    0.2000293600000000 Sr
   0.9836143300000000    0.0028179600000000    0.7000293600000000 Sr
   0.0163856700000000    0.5028179600000000    0.7999706400000000 Sr
   0.3491273600000000    0.7835920900000000    0.5822875300000000 Ge
   0.6508726400000000    0.2835920900000000    0.9177124700000000 Ge
   0.6508726400000000    0.2164079100000000    0.4177124700000000 Ge
   0.3491273600000000    0.7164079100000000    0.0822875300000000 Ge
   0.2710722500000000    0.0212080400000000    0.5585690800000001 O
   0.7289277500000000    0.5212080400000000    0.9414309199999999 O
   0.7289277500000000    0.9787919600000000    0.4414309200000000 O
   0.2710722500000000    0.4787919600000000    0.0585690800000000 O
   0.2704298300000000    0.6672335000000000    0.4235760700000000 O
   0.7295701700000000    0.1672335000000000    0.0764239300000000 O
   0.7295701700000000    0.3327665000000000    0.5764239300000000 O
   0.2704298300000000    0.8327665000000000    0.9235760700000000 O
   0.1398731600000000    0.6667707500000000    0.6373647200000000 O
   0.8601268399999999    0.1667707500000000    0.8626352800000000 O
   0.8601268399999999    0.3332292500000000    0.3626352800000000 O
   0.1398731600000000    0.8332292500000000    0.1373647200000000 O
   0.6791167700000000    0.7509790600000000    0.6957980200000000 O
   0.3208832300000000    0.2509790600000000    0.8042019800000000 O
   0.3208832300000000    0.2490209400000000    0.3042019800000000 O
   0.6791167700000000    0.7490209400000000    0.1957980200000000 O
