Bi4 P8 O26
1.0
   5.9998923099999999   -3.4474902500000000   -0.0203442700000000
   5.9998923099999999    3.4474902500000000   -0.0203442700000000
  -3.6899306100000002    0.0000000000000000   12.6929593300000008
Bi P O
4 8 26
direct
   0.3065896900000000    0.3043892600000000    0.4447217800000000 Bi
   0.6956107400000000    0.6934103100000000    0.0552782200000000 Bi
   0.6934103100000000    0.6956107400000000    0.5552782200000000 Bi
   0.3043892600000000    0.3065896900000000    0.9447217800000000 Bi
   0.1366597100000000    0.8421096600000000    0.1359153800000000 P
   0.1578903400000000    0.8633402900000000    0.3640846200000000 P
   0.8633402900000000    0.1578903400000000    0.8640846200000000 P
   0.8421096600000000    0.1366597100000000    0.6359153800000000 P
   0.2398711000000000    0.2249382400000000    0.1597426600000000 P
   0.7750617600000000    0.7601289000000000    0.3402573400000000 P
   0.7601289000000000    0.7750617600000000    0.8402573400000000 P
   0.2249382400000000    0.2398711000000000    0.6597426600000000 P
   0.2388338000000000    0.7611662000000000    0.2500000000000000 O
   0.7611662000000000    0.2388338000000000    0.7500000000000000 O
   0.3144592800000000    0.6902567100000000    0.4363681700000000 O
   0.3097432900000000    0.6855407200000000    0.0636318300000000 O
   0.6855407200000000    0.3097432900000000    0.5636318299999999 O
   0.6902567100000000    0.3144592800000000    0.9363681700000001 O
   0.1200248900000000    0.1030228900000000    0.3946983500000000 O
   0.8969771100000000    0.8799751099999999    0.1053016500000000 O
   0.8799751099999999    0.8969771100000000    0.6053016500000000 O
   0.1030228900000000    0.1200248900000000    0.8946983500000000 O
   0.1031160000000000    0.0924700500000000    0.1564446300000000 O
   0.9075299500000000    0.8968840000000000    0.3435553700000000 O
   0.6908157900000000    0.7038843000000000    0.7258767500000000 O
   0.2961157000000000    0.3091842100000000    0.7741232500000000 O
   0.3091842100000000    0.2961157000000000    0.2741232500000000 O
   0.7038843000000000    0.6908157900000000    0.2258767500000000 O
   0.0748925200000000    0.4373653700000000    0.5963730200000000 O
   0.5626346300000000    0.9251074800000000    0.9036269800000000 O
   0.9251074800000000    0.5626346300000000    0.4036269800000000 O
   0.4373653700000000    0.0748925200000000    0.0963730200000000 O
   0.4220615500000000    0.0781608200000000    0.5975016200000000 O
   0.9218391800000000    0.5779384500000000    0.9024983800000000 O
   0.5779384500000000    0.9218391800000000    0.4024983800000000 O
   0.0781608200000000    0.4220615500000000    0.0975016200000000 O
   0.0924700500000000    0.1031160000000000    0.6564446300000000 O
   0.8968840000000000    0.9075299500000000    0.8435553700000000 O
