Zr4 Pb4 S12
1.0
   8.9732842799999997    0.0000000000000000    0.0000000000000000
   0.0000000000000000    3.7857078500000001    0.0000000000000000
   0.0000000000000000    0.0000000000000000   13.8085261100000007
Zr Pb S
4 4 12
direct
   0.1680577600000000    0.7500000000000000    0.5501326100000000 Zr
   0.6680577599999999    0.7500000000000000    0.9498673900000000 Zr
   0.3319422400000000    0.2500000000000000    0.0501326100000000 Zr
   0.8319422400000001    0.2500000000000000    0.4498673900000000 Zr
   0.4899403800000000    0.2500000000000000    0.6730032300000000 Pb
   0.5100596200000000    0.7500000000000000    0.3269967700000000 Pb
   0.9899403800000000    0.2500000000000000    0.8269967700000000 Pb
   0.0100596200000000    0.7500000000000000    0.1730032300000000 Pb
   0.1635268000000000    0.7500000000000000    0.9879618700000000 S
   0.7218127600000001    0.2500000000000000    0.2821650200000000 S
   0.9894576500000000    0.2500000000000000    0.6075219900000000 S
   0.4894576500000000    0.2500000000000000    0.8924780100000000 S
   0.8364732000000000    0.2500000000000000    0.0120381300000000 S
   0.5105423500000000    0.7500000000000000    0.1075219900000000 S
   0.6635268000000000    0.7500000000000000    0.5120381300000000 S
   0.2218127600000000    0.2500000000000000    0.2178349800000000 S
   0.7781872399999999    0.7500000000000000    0.7821650200000000 S
   0.2781872400000000    0.7500000000000000    0.7178349800000000 S
   0.3364732000000000    0.2500000000000000    0.4879618700000000 S
   0.0105423500000000    0.7500000000000000    0.3924780100000000 S
