Cs1 Sr2 Ta3 O10
1.0
   3.9602994100000002    0.0000000000000000    0.0000000000000000
   0.0000000000000000    3.9602994100000002    0.0000000000000000
   0.0000000000000000    0.0000000000000000   15.3069340199999999
Cs Sr Ta O
1 2 3 10
direct
   0.5000000000000000    0.5000000000000000    0.5000000000000000 Cs
   0.5000000000000000    0.5000000000000000    0.8543891700000000 Sr
   0.5000000000000000    0.5000000000000000    0.1456108300000000 Sr
   0.0000000000000000    0.0000000000000000    0.0000000000000000 Ta
   0.0000000000000000    0.0000000000000000    0.2803664500000000 Ta
   0.0000000000000000    0.0000000000000000    0.7196335500000000 Ta
   0.0000000000000000    0.0000000000000000    0.6032235100000000 O
   0.0000000000000000    0.0000000000000000    0.3967764900000000 O
   0.5000000000000000    0.0000000000000000    0.7453352900000000 O
   0.0000000000000000    0.5000000000000000    0.7453352900000000 O
   0.5000000000000000    0.0000000000000000    0.2546647100000000 O
   0.0000000000000000    0.5000000000000000    0.2546647100000000 O
   0.0000000000000000    0.5000000000000000    0.0000000000000000 O
   0.5000000000000000    0.0000000000000000    0.0000000000000000 O
   0.0000000000000000    0.0000000000000000    0.1281096300000000 O
   0.0000000000000000    0.0000000000000000    0.8718903700000000 O
