Ba4 Zn2 Si4 O14
1.0
   4.1966628699999999   -5.3647254699999998    0.0002434000000000
   4.1966628699999999    5.3647254699999998    0.0002434000000000
  -2.9974591700000000    0.0000000000000000    7.8375008700000004
Ba Zn Si O
4 2 4 14
direct
   0.7300257700000000    0.8157482800000000    0.5258321900000000 Ba
   0.8157482800000000    0.7300257700000000    0.0258321900000000 Ba
   0.1842517200000000    0.2699742300000000    0.9741678100000000 Ba
   0.2699742300000000    0.1842517200000000    0.4741678100000000 Ba
   0.2577242600000000    0.7422757400000000    0.7500000000000000 Zn
   0.7422757400000000    0.2577242600000000    0.2500000000000000 Zn
   0.6042916100000000    0.1658475000000000    0.8639357900000000 Si
   0.8341525000000000    0.3957083900000000    0.6360642100000000 Si
   0.3957083900000000    0.8341525000000000    0.1360642100000000 Si
   0.1658475000000000    0.6042916100000000    0.3639357900000000 Si
   0.6768083600000000    0.3804896600000000    0.4520030600000000 O
   0.0380614900000000    0.3538946500000000    0.2652654300000000 O
   0.7611988800000000    0.0217901600000000    0.8669426800000000 O
   0.9782098400000000    0.2388011200000000    0.6330573200000000 O
   0.6647941300000000    0.3352058700000000    0.7500000000000000 O
   0.9619385100000000    0.6461053500000000    0.7347345700000000 O
   0.3352058700000000    0.6647941300000000    0.2500000000000000 O
   0.3538946500000000    0.0380614900000000    0.7652654300000000 O
   0.3804896600000000    0.6768083600000000    0.9520030600000000 O
   0.2388011200000000    0.9782098400000000    0.1330573200000000 O
   0.3231916400000000    0.6195103400000000    0.5479969400000000 O
   0.0217901600000000    0.7611988800000000    0.3669426800000000 O
   0.6461053500000000    0.9619385100000000    0.2347345700000000 O
   0.6195103400000000    0.3231916400000000    0.0479969400000000 O
