Ba3 Ta2 Cd1 O9
1.0
   5.8832002900000004    0.0000000000000000    0.0000000000000000
  -2.9416001399999998    5.0950005300000001    0.0000000000000000
   0.0000000000000000    0.0000000000000000    7.2772009799999999
Ba Ta Cd O
3 2 1 9
direct
   0.6666670000000000    0.3333330000000000    0.3413237000000000 Ba
   0.0000000000000000    0.0000000000000000    0.0000000000000000 Ba
   0.3333330000000000    0.6666670000000000    0.6586763000000000 Ba
   0.3333330000000000    0.6666670000000000    0.1658166500000000 Ta
   0.6666670000000000    0.3333330000000000    0.8341833500000000 Ta
   0.0000000000000000    0.0000000000000000    0.5000000000000000 Cd
   0.3520255800000000    0.1760122900000000    0.6858470300000000 O
   0.8239877100000000    0.6479744200000001    0.6858470300000000 O
   0.1760122900000000    0.3520255800000000    0.3141529700000000 O
   0.0000000000000000    0.5000000000000000    0.0000000000000000 O
   0.1760122900000000    0.8239877100000000    0.3141529700000000 O
   0.6479744200000001    0.8239877100000000    0.3141529700000000 O
   0.8239877100000000    0.1760122900000000    0.6858470300000000 O
   0.5000000000000000    0.0000000000000000    0.0000000000000000 O
   0.5000000000000000    0.5000000000000000    0.0000000000000000 O
