Ba2 Ta1 Bi1 O6
1.0
   5.2236540700000003   -3.0180541299999999   -0.0048464500000000
   5.2236540700000003    3.0180541299999999   -0.0048464500000000
  -3.5225075900000000    0.0000000000000000    4.9936667300000002
Ba Ta Bi O
2 1 1 6
direct
   0.7512244700000000    0.7512244700000000    0.7569282200000000 Ba
   0.2487755300000000    0.2487755300000000    0.2430717800000000 Ba
   0.5000000000000000    0.5000000000000000    0.0000000000000000 Ta
   0.0000000000000000    0.0000000000000000    0.5000000000000000 Bi
   0.7705097000000000    0.3034691700000000    0.8088756499999999 O
   0.2294903000000000    0.6965308300000000    0.1911243500000000 O
   0.3034691700000000    0.7705097000000000    0.8088756499999999 O
   0.7296086000000001    0.7296086000000001    0.2968157900000000 O
   0.6965308300000000    0.2294903000000000    0.1911243500000000 O
   0.2703914000000000    0.2703914000000000    0.7031842100000000 O
