Na1 Sc1 S2
1.0
   1.8554655400000000    1.0712537600000001    6.5012937400000004
  -1.8554655400000000    1.0712537600000001    6.5012937400000004
   0.0000000000000000   -2.1425065299999999    6.5012937400000004
Na Sc S
1 1 2
direct
   0.5000000000000000    0.5000000000000000    0.5000000000000000 Na
   0.0000000000000000    0.0000000000000000    0.0000000000000000 Sc
   0.2607900200000000    0.2607900200000000    0.2607900200000000 S
   0.7392099800000000    0.7392099800000000    0.7392099800000000 S
