Ba4 In1 Sb1 O8
1.0
   2.9602940100000001   -6.6336484499999999    0.0000000000000000
   2.9602940100000001    6.6336484499999999    0.0000000000000000
   0.0000000000000000    0.0000000000000000    5.9381984299999999
Ba In Sb O
4 1 1 8
direct
   0.3547789900000000    0.6452210100000000    0.0000000000000000 Ba
   0.8545843200000000    0.1454156800000000    0.5000000000000000 Ba
   0.1454156800000000    0.8545843200000000    0.5000000000000000 Ba
   0.6452210100000000    0.3547789900000000    0.0000000000000000 Ba
   0.0000000000000000    0.0000000000000000    0.0000000000000000 In
   0.5000000000000000    0.5000000000000000    0.5000000000000000 Sb
   0.2606394200000000    0.2606394200000000    0.7355969100000000 O
   0.7393605800000000    0.7393605800000000    0.2644030900000000 O
   0.7393605800000000    0.7393605800000000    0.7355969100000000 O
   0.2606394200000000    0.2606394200000000    0.2644030900000000 O
   0.1619303900000000    0.8380696100000000    0.0000000000000000 O
   0.6529344700000000    0.3470655300000000    0.5000000000000000 O
   0.3470655300000000    0.6529344700000000    0.5000000000000000 O
   0.8380696100000000    0.1619303900000000    0.0000000000000000 O
