Tl8 Cr4 O16
1.0
   6.3063557899999996   -2.8754531100000000   -0.0147475800000000
   6.3063557899999996    2.8754531100000000   -0.0147475800000000
  -5.8268817100000003    0.0000000000000000   13.3644078200000003
Tl Cr O
8 4 16
direct
   0.6217385200000000    0.6217385200000000    0.6305989600000000 Tl
   0.3782614800000000    0.3782614800000000    0.3694010400000000 Tl
   0.9238803600000000    0.9238803600000000    0.6139435600000001 Tl
   0.0761196400000000    0.0761196400000000    0.3860564400000000 Tl
   0.8179264500000000    0.8179264500000000    0.8854915200000000 Tl
   0.1820735500000000    0.1820735500000000    0.1145084800000000 Tl
   0.4957071400000000    0.4957071400000000    0.8687027300000000 Tl
   0.5042928600000000    0.5042928600000000    0.1312972700000000 Tl
   0.2772400600000000    0.2772400600000000    0.6389911300000000 Cr
   0.7227599400000000    0.7227599400000000    0.3610088700000000 Cr
   0.1408962700000000    0.1408962700000000    0.8578431200000000 Cr
   0.8591037300000000    0.8591037300000000    0.1421568800000000 Cr
   0.3300750400000000    0.3300750400000000    0.5519783600000000 O
   0.6699249600000000    0.6699249600000000    0.4480216400000000 O
   0.1338713200000000    0.1338713200000000    0.5849016000000000 O
   0.8661286800000000    0.8661286800000000    0.4150984000000000 O
   0.5596357400000000    0.0868767200000000    0.7104122800000000 O
   0.0868767200000000    0.5596357400000000    0.7104122800000000 O
   0.4403642600000000    0.9131232800000000    0.2895877200000000 O
   0.9131232800000000    0.4403642600000000    0.2895877200000000 O
   0.0571671700000000    0.0571671700000000    0.9216899100000000 O
   0.9428328300000000    0.9428328300000000    0.0783100900000000 O
   0.2783874800000000    0.2783874800000000    0.9365393400000001 O
   0.7216125200000000    0.7216125200000000    0.0634606600000000 O
   0.3492739700000000    0.8714278400000000    0.7872719100000000 O
   0.8714278400000000    0.3492739700000000    0.7872719100000000 O
   0.6507260300000000    0.1285721600000000    0.2127280900000000 O
   0.1285721600000000    0.6507260300000000    0.2127280900000000 O
