Li8 Cr2 O10
1.0
   4.2922630799999997   -2.8795335999999998    0.0017228300000000
   4.2922630799999997    2.8795335999999998    0.0017228300000000
  -1.0414504099999999    0.0000000000000000    7.6866288200000001
Li Cr O
8 2 10
direct
   0.9642945100000000    0.6378140200000000    0.3519897300000000 Li
   0.6378140200000000    0.9642945100000000    0.8519897300000000 Li
   0.4356822200000000    0.7782650100000000    0.4455405000000000 Li
   0.7782650100000000    0.4356822200000000    0.9455405000000000 Li
   0.2217349900000000    0.5643177800000000    0.0544595000000000 Li
   0.5643177800000000    0.2217349900000000    0.5544595000000000 Li
   0.3621859800000000    0.0357054900000000    0.1480102700000000 Li
   0.0357054900000000    0.3621859800000000    0.6480102700000000 Li
   0.8296053100000000    0.1703946900000000    0.2500000000000000 Cr
   0.1703946900000000    0.8296053100000000    0.7500000000000000 Cr
   0.6459838100000000    0.9865722800000000    0.3406701900000000 O
   0.9865722800000000    0.6459838100000000    0.8406701900000000 O
   0.7680978400000000    0.4093088800000000    0.4294429900000000 O
   0.4093088800000000    0.7680978400000000    0.9294429900000000 O
   0.1302633700000000    0.8697366300000000    0.2500000000000000 O
   0.8697366300000000    0.1302633700000000    0.7500000000000000 O
   0.5906911200000000    0.2319021600000000    0.0705570100000000 O
   0.2319021600000000    0.5906911200000000    0.5705570100000000 O
   0.0134277200000000    0.3540161900000000    0.1593298100000000 O
   0.3540161900000000    0.0134277200000000    0.6593298100000000 O
