Cs4 Sr4 C6 O18
1.0
  -5.0020971799999998    5.0020971799999998    5.0020971799999998
   5.0020971799999998   -5.0020971799999998    5.0020971799999998
   5.0020971799999998    5.0020971799999998   -5.0020971799999998
Cs Sr C O
4 4 6 18
direct
   0.8894274500000000    0.8894274500000000    0.8894274500000000 Cs
   0.5000000000000000    0.0000000000000000    0.6105725500000000 Cs
   0.6105725500000000    0.5000000000000000    0.0000000000000000 Cs
   0.0000000000000000    0.6105725500000000    0.5000000000000000 Cs
   0.4071875200000000    0.4071875200000000    0.4071875200000000 Sr
   0.5000000000000000    0.0000000000000000    0.0928124800000000 Sr
   0.0928124800000000    0.5000000000000000    0.0000000000000000 Sr
   0.0000000000000000    0.0928124800000000    0.5000000000000000 Sr
   0.5952352900000000    0.7500000000000000    0.3452352900000000 C
   0.9047647100000000    0.2500000000000000    0.1547647100000000 C
   0.3452352900000000    0.5952352900000000    0.7500000000000000 C
   0.7500000000000000    0.3452352900000000    0.5952352900000000 C
   0.2500000000000000    0.1547647100000000    0.9047647100000000 C
   0.1547647100000000    0.9047647100000000    0.2500000000000000 C
   0.4189128400000000    0.6354653099999999    0.2795748700000000 O
   0.8558904400000000    0.1393379700000000    0.2204251300000000 O
   0.0810871600000000    0.3606620300000000    0.2165524700000000 O
   0.6441095600000000    0.8645346900000001    0.2834475300000000 O
   0.2795748700000000    0.4189128400000000    0.6354653099999999 O
   0.6354653099999999    0.2795748700000000    0.4189128400000000 O
   0.2834475300000000    0.6441095600000000    0.8645346900000001 O
   0.1393379700000000    0.2204251300000000    0.8558904400000000 O
   0.2204251300000000    0.8558904400000000    0.1393379700000000 O
   0.3606620300000000    0.2165524700000000    0.0810871600000000 O
   0.2165524700000000    0.0810871600000000    0.3606620300000000 O
   0.8645346900000001    0.2834475300000000    0.6441095600000000 O
   0.7253094900000000    0.7500000000000000    0.4753094900000000 O
   0.7746905100000000    0.2500000000000000    0.0246905100000000 O
   0.4753094900000000    0.7253094900000000    0.7500000000000000 O
   0.7500000000000000    0.4753094900000000    0.7253094900000000 O
   0.2500000000000000    0.0246905100000000    0.7746905100000000 O
   0.0246905100000000    0.7746905100000000    0.2500000000000000 O
