Rb16 Pb4 O16
1.0
   6.8505954999999998    0.0000000000000000   -0.0033006200000000
   0.0000000000000000   19.3836582300000018    0.0000000000000000
  -2.6571332600000002    0.0000000000000000    6.3033192800000002
Rb Pb O
16 4 16
direct
   0.7933993800000000    0.1936347900000000    0.3106967200000000 Rb
   0.7766914400000000    0.9885467800000000    0.2515178900000000 Rb
   0.7175127300000000    0.7835728700000000    0.1939895100000000 Rb
   0.6535145800000000    0.5851821800000000    0.2293742100000000 Rb
   0.7933993800000000    0.3063652100000000    0.8106967200000000 Rb
   0.7766914400000000    0.5114532200000000    0.7515178900000000 Rb
   0.7175127300000000    0.7164271300000000    0.6939895100000000 Rb
   0.6535145800000000    0.9148178200000000    0.7293742100000000 Rb
   0.3464854200000000    0.0851821800000000    0.2706257900000000 Rb
   0.2824872700000000    0.2835728700000000    0.3060104900000000 Rb
   0.2233085600000000    0.4885467800000000    0.2484821100000000 Rb
   0.2066006200000000    0.6936347899999999    0.1893032800000000 Rb
   0.3464854200000000    0.4148178200000000    0.7706257900000000 Rb
   0.2824872700000000    0.2164271300000000    0.8060104900000000 Rb
   0.2233085600000000    0.0114532200000000    0.7484821100000000 Rb
   0.2066006200000000    0.8063652100000001    0.6893032800000000 Rb
   0.7402368900000000    0.3767432400000000    0.3064430700000000 Pb
   0.7402368900000000    0.1232567600000000    0.8064430700000000 Pb
   0.2597631100000000    0.8767432400000000    0.1935569300000000 Pb
   0.2597631100000000    0.6232567600000000    0.6935569300000000 Pb
   0.9869125100000000    0.6760428100000000    0.4862582500000000 O
   0.7978333100000000    0.4575898200000000    0.1309280700000000 O
   0.5613450800000001    0.0960677600000000    0.9871403399999999 O
   0.9869125100000000    0.8239571900000000    0.9862582500000000 O
   0.7978333100000000    0.0424101800000000    0.6309280700000000 O
   0.5450719400000000    0.3071864300000000    0.0736147700000000 O
   0.5613450800000001    0.4039322400000000    0.4871403400000000 O
   0.5450719400000000    0.1928135700000000    0.5736147700000001 O
   0.4549280600000000    0.8071864300000000    0.4263852300000000 O
   0.4386549200000000    0.5960677599999999    0.5128596600000001 O
   0.4549280600000000    0.6928135700000000    0.9263852299999999 O
   0.2021666900000000    0.9575898200000000    0.3690719300000000 O
   0.0130874900000000    0.1760428100000000    0.0137417500000000 O
   0.4386549200000000    0.9039322400000001    0.0128596600000000 O
   0.2021666900000000    0.5424101800000000    0.8690719300000000 O
   0.0130874900000000    0.3239571900000000    0.5137417500000000 O
