Cs4 Nb2 Ag2 S8
1.0
   0.0000000000000000    7.0059072000000002   12.1619237299999998
   2.9559188100000000    0.0000000000000000   12.1619237299999998
   2.9559188100000000    7.0059072000000002    0.0000000000000000
Cs Nb Ag S
4 2 2 8
direct
   0.8208295700000000    0.8208295700000000    0.1791704300000000 Cs
   0.1791704300000000    0.1791704300000000    0.8208295700000000 Cs
   0.4291704300000000    0.4291704300000000    0.0708295700000000 Cs
   0.0708295700000000    0.0708295700000000    0.4291704300000000 Cs
   0.2500000000000000    0.2500000000000000    0.2500000000000000 Nb
   0.0000000000000000    0.0000000000000000    0.0000000000000000 Nb
   0.5000000000000000    0.5000000000000000    0.5000000000000000 Ag
   0.7500000000000000    0.7500000000000000    0.7500000000000000 Ag
   0.7365266100000000    0.3731328300000000    0.0692530100000000 S
   0.4289124500000000    0.1807469900000000    0.8768671700000000 S
   0.8768671700000000    0.5134733900000000    0.4289124500000000 S
   0.1807469900000000    0.4289124500000000    0.5134733900000000 S
   0.0692530100000000    0.8210875500000000    0.7365266100000000 S
   0.3731328300000000    0.7365266100000000    0.8210875500000000 S
   0.5134733900000000    0.8768671700000000    0.1807469900000000 S
   0.8210875500000000    0.0692530100000000    0.3731328300000000 S
