Na2 Ti4 P6 O24
1.0
   4.2978309100000001    2.4813540399999998    7.2615175199999999
  -4.2978309100000001    2.4813540399999998    7.2615175199999999
   0.0000000000000000   -4.9627070800000004    7.2615175199999999
Na Ti P O
2 4 6 24
direct
   0.0000000000000000    0.0000000000000000    0.0000000000000000 Na
   0.5000000000000000    0.5000000000000000    0.5000000000000000 Na
   0.3565745100000000    0.3565745100000000    0.3565745100000000 Ti
   0.1434254900000000    0.1434254900000000    0.1434254900000000 Ti
   0.8565745100000000    0.8565745100000000    0.8565745100000000 Ti
   0.6434254900000000    0.6434254900000000    0.6434254900000000 Ti
   0.7500000000000000    0.0385695000000000    0.4614305000000000 P
   0.4614305000000000    0.7500000000000000    0.0385695000000000 P
   0.2500000000000000    0.9614305000000000    0.5385695000000000 P
   0.5385695000000000    0.2500000000000000    0.9614305000000000 P
   0.0385695000000000    0.4614305000000000    0.7500000000000000 P
   0.9614305000000000    0.5385695000000000    0.2500000000000000 P
   0.7757123100000000    0.5597094700000000    0.4208995200000000 O
   0.4208995200000000    0.7757123100000000    0.5597094700000000 O
   0.5597094700000000    0.4208995200000000    0.7757123100000000 O
   0.9402905300000000    0.7242876900000000    0.0791004800000000 O
   0.0791004800000000    0.9402905300000000    0.7242876900000000 O
   0.7242876900000000    0.0791004800000000    0.9402905300000000 O
   0.2242876900000000    0.4402905300000000    0.5791004800000000 O
   0.5791004800000000    0.2242876900000000    0.4402905300000000 O
   0.4402905300000000    0.5791004800000000    0.2242876900000000 O
   0.0597094700000000    0.2757123100000000    0.9208995200000000 O
   0.9208995200000000    0.0597094700000000    0.2757123100000000 O
   0.2757123100000000    0.9208995200000000    0.0597094700000000 O
   0.3720231000000000    0.2077989200000000    0.9958831299999999 O
   0.2077989200000000    0.9958831299999999    0.3720231000000000 O
   0.9958831299999999    0.3720231000000000    0.2077989200000000 O
   0.5041168700000001    0.2922010800000000    0.1279769000000000 O
   0.2922010800000000    0.1279769000000000    0.5041168700000001 O
   0.1279769000000000    0.5041168700000001    0.2922010800000000 O
   0.6279768999999999    0.7922010800000000    0.0041168700000000 O
   0.7922010800000000    0.0041168700000000    0.6279768999999999 O
   0.0041168700000000    0.6279768999999999    0.7922010800000000 O
   0.4958831300000000    0.7077989200000000    0.8720231000000001 O
   0.7077989200000000    0.8720231000000001    0.4958831300000000 O
   0.8720231000000001    0.4958831300000000    0.7077989200000000 O
