Tl4 Ge2 S6
1.0
   6.5991800800000000    0.0131979600000000    0.0052322100000000
  -2.6954316299999999    6.1039436199999999    0.0040410500000000
  -3.0233366699999999   -1.4004257000000000    7.6299951400000001
Tl Ge S
4 2 6
direct
   0.7420020899999999    0.3188256400000000    0.1125539400000000 Tl
   0.2579979100000000    0.6811743600000000    0.8874460600000000 Tl
   0.8858377000000000    0.0574277500000000    0.6722250300000000 Tl
   0.1141623000000000    0.9425722500000000    0.3277749700000000 Tl
   0.4296831300000000    0.5484115899999999    0.3129509300000000 Ge
   0.5703168700000000    0.4515884100000000    0.6870490700000000 Ge
   0.7631027900000000    0.7158325900000000    0.9176738900000000 S
   0.2368972100000000    0.2841674100000000    0.0823261100000000 S
   0.5132433199999999    0.8893071500000000    0.2631452900000000 S
   0.4867566800000000    0.1106928500000000    0.7368547100000000 S
   0.2278610500000000    0.4652455600000000    0.4944649900000000 S
   0.7721389500000000    0.5347544400000001    0.5055350100000000 S
