Li2 In2 W4 O16
1.0
   4.7988530400000000   -5.8102489100000003    0.0002670300000000
   4.7988530400000000    5.8102489100000003    0.0002670300000000
  -0.1320023200000000    0.0000000000000000    4.9916343699999999
Li In W O
2 2 4 16
direct
   0.1537770200000000    0.8462229800000000    0.7500000000000000 Li
   0.8462229800000000    0.1537770200000000    0.2500000000000000 Li
   0.6648668100000000    0.3351331900000000    0.7500000000000000 In
   0.3351331900000000    0.6648668100000000    0.2500000000000000 In
   0.6708856300000000    0.8443689599999999    0.7506194700000000 W
   0.1556310400000000    0.3291143700000000    0.7493805300000000 W
   0.3291143700000000    0.1556310400000000    0.2493805300000000 W
   0.8443689599999999    0.6708856300000000    0.2506194700000000 W
   0.5937066400000000    0.6959644100000000    0.0630048900000000 O
   0.3040355900000000    0.4062933600000000    0.4369951100000000 O
   0.4062933600000000    0.3040355900000000    0.9369951100000000 O
   0.6959644100000000    0.5937066400000000    0.5630048900000000 O
   0.4443994600000000    0.8129080400000001    0.6097479099999999 O
   0.1870919600000000    0.5556005400000000    0.8902520900000001 O
   0.5556005400000000    0.1870919600000000    0.3902520900000000 O
   0.8129080400000001    0.4443994600000000    0.1097479100000000 O
   0.0928230200000000    0.1946148300000000    0.0589291800000000 O
   0.8053851700000000    0.9071769800000000    0.4410708200000000 O
   0.9071769800000000    0.8053851700000000    0.9410708200000000 O
   0.1946148300000000    0.0928230200000000    0.5589291800000000 O
   0.9340168500000000    0.3070512400000000    0.5997944900000000 O
   0.6929487600000001    0.0659831500000000    0.9002055100000000 O
   0.0659831500000000    0.6929487600000001    0.4002055100000000 O
   0.3070512400000000    0.9340168500000000    0.0997944900000000 O
