Al4 B4 Pb4 O16
1.0
   6.8874292900000000    0.0000000000000000    0.0000000000000000
   0.0000000000000000    5.7508718300000004    0.0000000000000000
   0.0000000000000000    0.0000000000000000    8.1129915300000004
Al B Pb O
4 4 4 16
direct
   0.5000000000000000    0.0000000000000000    0.5000000000000000 Al
   0.0000000000000000    0.0000000000000000    0.0000000000000000 Al
   0.0000000000000000    0.5000000000000000    0.0000000000000000 Al
   0.5000000000000000    0.5000000000000000    0.5000000000000000 Al
   0.7282539300000000    0.7500000000000000    0.2421633600000000 B
   0.2282539300000000    0.7500000000000000    0.2578366400000000 B
   0.7717460700000000    0.2500000000000000    0.7421633600000000 B
   0.2717460700000000    0.2500000000000000    0.7578366400000000 B
   0.0579263000000000    0.2500000000000000    0.3605673500000000 Pb
   0.5579263000000000    0.2500000000000000    0.1394326500000000 Pb
   0.9420737000000000    0.7500000000000000    0.6394326500000000 Pb
   0.4420737000000000    0.7500000000000000    0.8605673500000000 Pb
   0.1737632800000000    0.9574429600000000    0.1842951400000000 O
   0.6737632800000000    0.9574429600000000    0.3157048600000000 O
   0.3262367200000000    0.4574429600000000    0.6842951400000000 O
   0.1025693700000000    0.7500000000000000    0.8902917200000000 O
   0.3262367200000000    0.0425570400000000    0.6842951400000000 O
   0.8974306300000000    0.2500000000000000    0.1097082800000000 O
   0.3324182600000000    0.7500000000000000    0.4035293500000000 O
   0.1675817400000000    0.2500000000000000    0.9035293500000000 O
   0.1737632800000000    0.5425570400000000    0.1842951400000000 O
   0.8262367200000000    0.0425570400000000    0.8157048600000000 O
   0.6675817400000000    0.2500000000000000    0.5964706500000000 O
   0.6025693700000000    0.7500000000000000    0.6097082800000000 O
   0.6737632800000000    0.5425570400000000    0.3157048600000000 O
   0.8324182600000000    0.7500000000000000    0.0964706500000000 O
   0.3974306300000000    0.2500000000000000    0.3902917200000000 O
   0.8262367200000000    0.4574429600000000    0.8157048600000000 O
