Cr2 Pb4 O10
1.0
   6.9179323200000002   -2.8185968899999998   -0.0546666800000000
   6.9179323200000002    2.8185968899999998   -0.0546666800000000
  -2.8186723900000001    0.0000000000000000    6.5009736900000004
Cr Pb O
2 4 10
direct
   0.8295003399999999    0.8295003399999999    0.8384707400000000 Cr
   0.1704996600000000    0.1704996600000000    0.1615292600000000 Cr
   0.5177063900000000    0.5177063900000000    0.7671648500000000 Pb
   0.4822936100000000    0.4822936100000000    0.2328351500000000 Pb
   0.8559794600000000    0.8559794600000000    0.3907020300000000 Pb
   0.1440205400000000    0.1440205400000000    0.6092979700000000 Pb
   0.7483145600000000    0.2516854400000000    0.5000000000000000 O
   0.2516854400000000    0.7483145600000000    0.5000000000000000 O
   0.9107036400000000    0.3835083100000000    0.2759171600000000 O
   0.6164916900000000    0.0892963600000000    0.7240828400000000 O
   0.0892963600000000    0.6164916900000000    0.7240828400000000 O
   0.3835083100000000    0.9107036400000000    0.2759171600000000 O
   0.0953055800000000    0.0953055800000000    0.9093974400000000 O
   0.9046944200000000    0.9046944200000000    0.0906025600000000 O
   0.7028097500000000    0.7028097500000000    0.7977827700000000 O
   0.2971902500000000    0.2971902500000000    0.2022172300000000 O
