Cd2 Se2 O8
1.0
   2.8205805300000000   -4.2442851499999996    0.0000000000000000
   2.8205805300000000    4.2442851499999996    0.0000000000000000
   0.0000000000000000    0.0000000000000000    7.2262649899999998
Cd Se O
2 2 8
direct
   0.0000000000000000    0.0000000000000000    0.0000000000000000 Cd
   0.0000000000000000    0.0000000000000000    0.5000000000000000 Cd
   0.6400977700000000    0.3599022300000000    0.2500000000000000 Se
   0.3599022300000000    0.6400977700000000    0.7500000000000000 Se
   0.2806654800000000    0.2346425700000000    0.2500000000000000 O
   0.2346425700000000    0.2806654800000000    0.7500000000000000 O
   0.7399638100000000    0.2600361900000000    0.0542445700000000 O
   0.7399638100000000    0.2600361900000000    0.4457554300000000 O
   0.2600361900000000    0.7399638100000000    0.5542445700000000 O
   0.2600361900000000    0.7399638100000000    0.9457554300000000 O
   0.7653574300000000    0.7193345200000000    0.2500000000000000 O
   0.7193345200000000    0.7653574300000000    0.7500000000000000 O
