Cs2 Ta2 B4 O12
1.0
   7.6156553300000001    0.0000000000000000    0.0000000000000000
   0.0000000000000000    3.9022161600000000    0.0000000000000000
   0.0000000000000000    0.0000000000000000    9.8957595600000001
Cs Ta B O
2 2 4 12
direct
   0.0000000000000000    0.4877326800000000    0.6107824800000000 Cs
   0.5000000000000000    0.5122673200000000    0.1107824800000000 Cs
   0.0000000000000000    0.0317063500000000    0.2256090000000000 Ta
   0.5000000000000000    0.9682936500000000    0.7256089999999999 Ta
   0.3368155600000000    0.0045112400000000    0.4380666700000000 B
   0.1631844400000000    0.9954887600000000    0.9380666700000000 B
   0.8368155600000000    0.9954887600000000    0.9380666700000000 B
   0.6631844400000000    0.0045112400000000    0.4380666700000000 B
   0.1906628800000000    0.0309608700000000    0.3607062600000000 O
   0.3093371200000000    0.9690391300000000    0.8607062599999999 O
   0.6906628800000000    0.9690391300000000    0.8607062599999999 O
   0.8093371200000000    0.0309608700000000    0.3607062600000000 O
   0.8222971100000001    0.0266445600000000    0.0746373200000000 O
   0.6777028899999999    0.9733554400000000    0.5746373200000000 O
   0.3222971100000000    0.9733554400000000    0.5746373200000000 O
   0.1777028900000000    0.0266445600000000    0.0746373200000000 O
   0.0000000000000000    0.5297336600000000    0.2277477900000000 O
   0.5000000000000000    0.4702663400000000    0.7277477900000000 O
   0.0000000000000000    0.9869623900000000    0.8722382200000000 O
   0.5000000000000000    0.0130376100000000    0.3722382200000000 O
