Ti3 S6 O24
1.0
   4.1846402500000002    2.4159915100000000    7.4556366900000004
  -4.1846304400000003    2.4160084999999998    7.4556366900000004
  -0.0000098100000000   -4.8320010199999999    7.4556366900000004
Ti S O
3 6 24
direct
   0.6439708300000000    0.6439708300000000    0.6439708300000000 Ti
   0.3561912400000000    0.3561912400000000    0.3561912400000000 Ti
   0.1475797400000000    0.1475797400000000    0.1475797400000000 Ti
   0.5233375800000000    0.9660621700000001    0.2626584600000000 S
   0.2626584600000000    0.5233375800000000    0.9660621700000001 S
   0.9660621700000001    0.2626584600000000    0.5233375800000000 S
   0.0398690200000000    0.7481437600000000    0.4662316800000000 S
   0.7481437600000000    0.4662316800000000    0.0398690200000000 S
   0.4662316800000000    0.0398690200000000    0.7481437600000000 S
   0.4888324300000000    0.8759566700000000    0.7178617400000000 O
   0.8759566700000000    0.7178617400000000    0.4888324300000000 O
   0.6589940700000000    0.0095983900000000    0.0706722500000000 O
   0.7178617400000000    0.4888324300000000    0.8759566700000000 O
   0.3389558300000000    0.9771983400000001    0.2781492200000000 O
   0.5983111600000000    0.7663840300000000    0.3993808500000000 O
   0.3993808500000000    0.5983111600000000    0.7663840300000000 O
   0.0706722500000000    0.6589940700000000    0.0095983900000000 O
   0.7663840300000000    0.3993808500000000    0.5983111600000000 O
   0.0241348200000000    0.9501435700000000    0.3184589400000000 O
   0.0359732300000000    0.7156323600000000    0.6437091000000000 O
   0.7156323600000000    0.6437091000000000    0.0359732300000000 O
   0.2781492200000000    0.3389558300000000    0.9771983400000001 O
   0.9771983400000001    0.2781492200000000    0.3389558300000000 O
   0.0095983900000000    0.0706722500000000    0.6589940700000000 O
   0.2271835200000000    0.6186189300000000    0.3627210900000000 O
   0.9501435700000000    0.3184589400000000    0.0241348200000000 O
   0.6186189300000000    0.3627210900000000    0.2271835200000000 O
   0.3627210900000000    0.2271835200000000    0.6186189300000000 O
   0.6437091000000000    0.0359732300000000    0.7156323600000000 O
   0.3612819000000000    0.4595747200000000    0.0958723500000000 O
   0.3184589400000000    0.0241348200000000    0.9501435700000000 O
   0.0958723500000000    0.3612819000000000    0.4595747200000000 O
   0.4595747200000000    0.0958723500000000    0.3612819000000000 O
