Sr3 Cu6 Sn3 S12
1.0
   6.2409804099999997    0.0000000000000000    0.0000000000000000
  -3.1204902099999998    5.4048471800000000    0.0000000000000000
   0.0000000000000000    0.0000000000000000   15.3821889600000006
Sr Cu Sn S
3 6 3 12
direct
   1.0000000000000000    0.5610831900000000    0.8333330000000000 Sr
   0.5610831900000000    0.0000000000000000    0.1666670000000000 Sr
   0.4389168100000000    0.4389168100000000    0.5000000000000000 Sr
   0.9290729100000000    0.5668132500000000    0.0789310700000000 Cu
   0.3622596700000000    0.4331867500000000    0.2544019300000000 Cu
   0.0709270900000000    0.6377403300000000    0.5877359300000000 Cu
   0.6377403300000000    0.0709270900000000    0.4122640700000000 Cu
   0.4331867500000000    0.3622596700000000    0.7455980700000000 Cu
   0.5668132500000000    0.9290729100000000    0.9210689300000000 Cu
   0.7036732800000000    0.0000000000000000    0.6666670000000000 Sn
   0.0000000000000000    0.7036732800000000    0.3333330000000000 Sn
   0.2963267200000000    0.2963267200000000    0.0000000000000000 Sn
   0.6459128900000000    0.7643072200000000    0.3365283400000000 S
   0.2356927800000000    0.8816056700000000    0.0031953400000000 S
   0.1183943300000000    0.3540871100000000    0.6698623400000000 S
   0.8816056700000000    0.2356927800000000    0.9968046600000000 S
   0.3540871100000000    0.1183943300000000    0.3301376600000000 S
   0.7643072200000000    0.6459128900000000    0.6634716600000000 S
   0.9551992800000000    0.4404104500000000    0.4546968400000000 S
   0.5595895500000000    0.5147888300000000    0.1213638400000000 S
   0.4404104500000000    0.9551992800000000    0.5453031600000000 S
   0.5147888300000000    0.5595895500000000    0.8786361600000000 S
   0.0448007200000000    0.4852111700000000    0.2119691600000000 S
   0.4852111700000000    0.0448007200000000    0.7880308400000000 S
