Ba4 Te2 O2
1.0
   5.0318231400000002    0.0000000000000000    0.0000000000000000
   0.0000000000000000    5.0318231400000002    0.0000000000000000
   0.0000000000000000    0.0000000000000000    9.9907260699999991
Ba Te O
4 2 2
direct
   0.5000000000000000    0.0000000000000000    0.8350445900000000 Ba
   0.0000000000000000    0.5000000000000000    0.1649554100000000 Ba
   0.5000000000000000    0.5000000000000000    0.5000000000000000 Ba
   0.0000000000000000    0.0000000000000000    0.5000000000000000 Ba
   0.0000000000000000    0.5000000000000000    0.7984801300000000 Te
   0.5000000000000000    0.0000000000000000    0.2015198700000000 Te
   0.5000000000000000    0.0000000000000000    0.5889607100000001 O
   0.0000000000000000    0.5000000000000000    0.4110392900000000 O
