Na4 Zn2 Ge2 O8
1.0
   5.2975054899999998    0.0000000000000000    0.0028883600000000
   0.0000000000000000    5.5576551900000002    0.0000000000000000
  -5.3054432800000004    0.0000000000000000    7.0887090300000004
Na Zn Ge O
4 2 2 8
direct
   0.4941641600000000    0.1762870800000000    0.0032499100000000 Na
   0.2373337300000000    0.6787125800000000    0.7478651400000000 Na
   0.4941641600000000    0.8237129200000000    0.5032499100000000 Na
   0.2373337300000000    0.3212874200000000    0.2478651400000000 Na
   0.9995224800000000    0.8141131400000000    0.9982001600000000 Zn
   0.9995224800000000    0.1858868600000000    0.4982001600000000 Zn
   0.7558372300000000    0.3160992000000000    0.7508935799999999 Ge
   0.7558372300000000    0.6839008000000000    0.2508935800000000 Ge
   0.0642688900000000    0.7060495800000000    0.2236949400000000 O
   0.0642688900000000    0.2939504200000000    0.7236949400000000 O
   0.4009344300000000    0.2054347500000000    0.5402813300000000 O
   0.4009344300000000    0.7945652500000000    0.0402813300000000 O
   0.8757127500000000    0.1496259600000000    0.9579013000000000 O
   0.6982253400000000    0.3728980300000000    0.2779136500000000 O
   0.6982253400000000    0.6271019700000000    0.7779136500000000 O
   0.8757127500000000    0.8503740400000001    0.4579013000000000 O
