Rb2 Na4 B2 O6
1.0
   5.6376710599999997    0.0000000000000000    0.0000000000000000
   0.0000000000000000    6.0358848199999997    0.0000000000000000
   0.0000000000000000    0.0000000000000000    5.5081034600000001
Rb Na B O
2 4 2 6
direct
   0.5000000000000000    0.5000000000000000    0.8929115000000000 Rb
   0.0000000000000000    0.0000000000000000    0.1070885000000000 Rb
   0.5000000000000000    0.7688860700000000    0.3668203600000000 Na
   0.5000000000000000    0.2311139300000000    0.3668203600000000 Na
   0.0000000000000000    0.7311139300000000    0.6331796400000000 Na
   0.0000000000000000    0.2688860700000000    0.6331796400000000 Na
   0.5000000000000000    0.0000000000000000    0.7871176300000000 B
   0.0000000000000000    0.5000000000000000    0.2128823700000000 B
   0.2879223500000000    0.0000000000000000    0.6539596500000000 O
   0.2120776500000000    0.5000000000000000    0.3460403500000000 O
   0.5000000000000000    0.0000000000000000    0.0385373000000000 O
   0.0000000000000000    0.5000000000000000    0.9614627000000000 O
   0.7879223500000000    0.5000000000000000    0.3460403500000000 O
   0.7120776500000000    0.0000000000000000    0.6539596500000000 O
