Ag8 Hg4 O8
1.0
   6.0993428500000002    0.0000000000000000    0.0000000000000000
   0.0000000000000000    6.0993428500000002    0.0000000000000000
   0.0000000000000000    0.0000000000000000    8.3585311000000004
Ag Hg O
8 4 8
direct
   0.4995674500000000    0.7426917900000000    0.6284429700000000 Ag
   0.9995674500000000    0.7573082100000000    0.6215570300000000 Ag
   0.2426917900000000    0.0004325500000000    0.8784429700000000 Ag
   0.7573082100000000    0.9995674500000000    0.3784429700000000 Ag
   0.2573082100000000    0.5004325500000000    0.8715570300000000 Ag
   0.0004325500000000    0.2426917900000000    0.1215570300000000 Ag
   0.5004325500000000    0.2573082100000000    0.1284429700000000 Ag
   0.7426917900000000    0.4995674500000000    0.3715570300000000 Ag
   0.2096270800000000    0.2096270800000000    0.5000000000000000 Hg
   0.2903729200000000    0.7096270800000000    0.2500000000000000 Hg
   0.7096270800000000    0.2903729200000000    0.7500000000000000 Hg
   0.7903729200000000    0.7903729200000000    0.0000000000000000 Hg
   0.2481313900000000    0.6164779200000000    0.4849416600000000 O
   0.7518686100000000    0.3835220800000000    0.9849416600000001 O
   0.6164779200000000    0.2481313900000000    0.5150583399999999 O
   0.1164779200000000    0.2518686100000000    0.7349416600000001 O
   0.7481313900000000    0.8835220800000000    0.7650583399999999 O
   0.3835220800000000    0.7518686100000000    0.0150583400000000 O
   0.8835220800000000    0.7481313900000000    0.2349416600000000 O
   0.2518686100000000    0.1164779200000000    0.2650583400000000 O
