Ba6 In4 W2 O18
1.0
  -2.9565037500000000    4.1841348099999998    8.8746818699999999
   2.9565037500000000   -4.1841348099999998    8.8746818699999999
   2.9565037500000000    4.1841348099999998   -8.8746818699999999
Ba In W O
6 4 2 18
direct
   0.5793111500000000    0.8386893100000000    0.7406218400000000 Ba
   0.2676494900000000    0.5000000000000000    0.7676494900000000 Ba
   0.9019325300000000    0.1613106900000000    0.7406218400000000 Ba
   0.0980674700000000    0.8386893100000000    0.2593781600000000 Ba
   0.7323505100000000    0.5000000000000000    0.2323505100000000 Ba
   0.4206888500000000    0.1613106900000000    0.2593781600000000 Ba
   0.3285316300000000    0.3285316300000000    0.0000000000000000 In
   0.0000000000000000    0.0000000000000000    0.0000000000000000 In
   0.6714683700000000    0.6714683700000000    0.0000000000000000 In
   0.5000000000000000    0.0000000000000000    0.5000000000000000 In
   0.1663039900000000    0.6663039900000000    0.5000000000000000 W
   0.8336960100000000    0.3336960100000000    0.5000000000000000 W
   0.5986654200000000    0.3290550500000000    0.2696103700000000 O
   0.2439961600000000    0.0000000000000000    0.2439961600000000 O
   0.9405553300000000    0.6709449500000000    0.2696103700000000 O
   0.9097600500000000    0.6389162600000000    0.7291562100000000 O
   0.5875015200000000    0.3378254100000000    0.7503238900000000 O
   0.2430731700000000    0.9780155100000000    0.7349423400000000 O
   0.7569268300000001    0.4918691700000000    0.7349423400000000 O
   0.4124984800000000    0.1628223700000000    0.7503238900000000 O
   0.0902399500000000    0.8193961700000000    0.7291562100000000 O
   0.0594446700000000    0.3290550500000000    0.7303896300000000 O
   0.7560038400000000    0.0000000000000000    0.7560038400000000 O
   0.4013345800000000    0.6709449500000000    0.7303896300000000 O
   0.7569268300000001    0.0219844900000000    0.2650576600000000 O
   0.4124984800000000    0.6621745900000000    0.2496761100000000 O
   0.0902399500000000    0.3610837400000000    0.2708437900000000 O
   0.9097600500000000    0.1806038300000000    0.2708437900000000 O
   0.5875015200000000    0.8371776300000000    0.2496761100000000 O
   0.2430731700000000    0.5081308300000000    0.2650576600000000 O
