Ca4 Sc8 S16
1.0
  11.3484003999999992    0.0000000000000000    0.0000000000000000
   0.0000000000000000    3.6886915600000001    0.0000000000000000
   0.0000000000000000    0.0000000000000000   13.3309712099999995
Ca Sc S
4 8 16
direct
   0.7608834300000000    0.7500000000000000    0.3321121500000000 Ca
   0.2391165700000000    0.2500000000000000    0.6678878499999999 Ca
   0.2608834300000000    0.7500000000000000    0.1678878500000000 Ca
   0.7391165700000000    0.2500000000000000    0.8321121500000001 Ca
   0.0851204700000000    0.2500000000000000    0.4038138500000000 Sc
   0.9148795300000000    0.7500000000000000    0.5961861500000000 Sc
   0.5851204700000000    0.2500000000000000    0.0961861500000000 Sc
   0.4148795300000000    0.7500000000000000    0.9038138500000000 Sc
   0.4417713800000000    0.7500000000000000    0.3889081100000000 Sc
   0.5582286200000000    0.2500000000000000    0.6110918900000000 Sc
   0.9417713800000000    0.7500000000000000    0.1110918900000000 Sc
   0.0582286200000000    0.2500000000000000    0.8889081100000000 Sc
   0.0920806500000000    0.2500000000000000    0.0760572000000000 S
   0.9079193500000000    0.7500000000000000    0.9239428000000000 S
   0.5920806500000000    0.2500000000000000    0.4239428000000000 S
   0.4079193500000000    0.7500000000000000    0.5760572000000000 S
   0.9684497600000000    0.2500000000000000    0.7151218300000000 S
   0.0315502400000000    0.7500000000000000    0.2848781700000000 S
   0.4684497600000000    0.2500000000000000    0.7848781700000000 S
   0.5315502400000000    0.7500000000000000    0.2151218300000000 S
   0.3728723200000000    0.2500000000000000    0.0327772700000000 S
   0.6271276800000000    0.7500000000000000    0.9672227300000000 S
   0.8728723200000000    0.2500000000000000    0.4672227300000000 S
   0.1271276800000000    0.7500000000000000    0.5327772700000000 S
   0.2026540800000000    0.7500000000000000    0.8309213000000000 S
   0.7973459200000000    0.2500000000000000    0.1690787000000000 S
   0.7026540800000000    0.7500000000000000    0.6690787000000000 S
   0.2973459200000000    0.2500000000000000    0.3309213000000000 S
