Ba6 Zn2 Sb4 O18
1.0
   5.8350396900000003   -0.0000000000000000    0.0000000000000000
  -2.9175193400000001    5.0532922800000000    0.0000000000000000
   0.0000000000000000    0.0000000000000000   14.4431817999999996
Ba Zn Sb O
6 2 4 18
direct
   0.0000000000000000    0.0000000000000000    0.7500000000000000 Ba
   0.3333330000000000    0.6666670000000000    0.4127338100000000 Ba
   0.3333330000000000    0.6666670000000000    0.0872661900000000 Ba
   0.6666670000000000    0.3333330000000000    0.9127338100000000 Ba
   0.6666670000000000    0.3333330000000000    0.5872661900000000 Ba
   0.0000000000000000    0.0000000000000000    0.2500000000000000 Ba
   0.0000000000000000    0.0000000000000000    0.5000000000000000 Zn
   0.0000000000000000    0.0000000000000000    0.0000000000000000 Zn
   0.3333330000000000    0.6666670000000000    0.6511992000000000 Sb
   0.6666670000000000    0.3333330000000000    0.1511992000000000 Sb
   0.3333330000000000    0.6666670000000000    0.8488008000000000 Sb
   0.6666670000000000    0.3333330000000000    0.3488008000000000 Sb
   0.5167487200000001    0.4832512800000000    0.2500000000000000 O
   0.1672206800000000    0.3344423600000000    0.5829668000000000 O
   0.8327793200000000    0.6655576400000000    0.0829668000000000 O
   0.3344423600000000    0.1672206800000000    0.4170332000000000 O
   0.4832512800000000    0.5167487200000001    0.7500000000000000 O
   0.6655576400000000    0.8327793200000000    0.5829668000000000 O
   0.0334984500000000    0.5167487200000001    0.7500000000000000 O
   0.6655576400000000    0.8327793200000000    0.9170332000000000 O
   0.5167487200000001    0.0334984500000000    0.2500000000000000 O
   0.1672206800000000    0.8327793200000000    0.5829668000000000 O
   0.1672206800000000    0.8327793200000000    0.9170332000000000 O
   0.8327793200000000    0.6655576400000000    0.4170332000000000 O
   0.9665015500000000    0.4832512800000000    0.2500000000000000 O
   0.8327793200000000    0.1672206800000000    0.4170332000000000 O
   0.3344423600000000    0.1672206800000000    0.0829668000000000 O
   0.8327793200000000    0.1672206800000000    0.0829668000000000 O
   0.1672206800000000    0.3344423600000000    0.9170332000000000 O
   0.4832512800000000    0.9665015500000000    0.7500000000000000 O
