Cs2 Ag2 N4 O12
1.0
  10.2456540000000000   -2.7621579999999999    0.0000000000000000
  10.2456540000000000    2.7621579999999999    0.0000000000000000
  -0.5454710000000000    0.0000000000000000    5.4399720000000000
Cs Ag N O
2 2 4 12
direct
   0.4094170000000000    0.4094170000000000    0.7127410000000000 Cs
   0.5905830000000000    0.5905830000000000    0.2872590000000000 Cs
   0.8203750000000000    0.8203750000000000    0.1723310000000000 Ag
   0.1796250000000000    0.1796250000000000    0.8276690000000000 Ag
   0.7610920000000000    0.7610920000000000    0.6622920000000000 N
   0.2389080000000000    0.2389080000000000    0.3377080000000000 N
   0.9590790000000000    0.9590790000000000    0.2345060000000000 N
   0.0409210000000000    0.0409210000000000    0.7654940000000000 N
   0.2799520000000000    0.2799520000000000    0.1810540000000000 O
   0.1780510000000000    0.1780510000000000    0.2702310000000000 O
   0.1253770000000000    0.7292540000000000    0.2222990000000000 O
   0.9797480000000000    0.9797480000000000    0.7420140000000000 O
   0.8746230000000000    0.2707460000000000    0.7777010000000000 O
   0.2707460000000000    0.8746230000000000    0.7777010000000000 O
   0.7200480000000000    0.7200480000000000    0.8189460000000000 O
   0.7292540000000000    0.1253770000000000    0.2222990000000000 O
   0.0202520000000000    0.0202520000000000    0.2579860000000000 O
   0.8219490000000000    0.8219490000000000    0.7297690000000000 O
   0.7411390000000000    0.7411390000000000    0.4350680000000000 O
   0.2588610000000000    0.2588610000000000    0.5649320000000000 O
