Li2 Ag6 O4
1.0
  -2.9190674300000001    4.9393743700000003    2.7925056800000001
   2.9190674300000001   -4.9393743700000003    2.7925056800000001
   2.9190674300000001    4.9393743700000003   -2.7925056800000001
Li Ag O
2 6 4
direct
   0.2500000000000000    0.7500000000000000    0.5000000000000000 Li
   0.7500000000000000    0.2500000000000000    0.5000000000000000 Li
   0.5000000000000000    0.5000000000000000    0.5000000000000000 Ag
   0.0000000000000000    0.5000000000000000    0.0000000000000000 Ag
   0.0000000000000000    0.0000000000000000    0.5000000000000000 Ag
   0.5000000000000000    0.5000000000000000    0.0000000000000000 Ag
   0.0000000000000000    0.0000000000000000    0.0000000000000000 Ag
   0.5000000000000000    0.0000000000000000    0.0000000000000000 Ag
   0.0974350700000000    0.3193998100000000    0.4168348700000000 O
   0.5974350700000000    0.1806001900000000    0.7780352600000000 O
   0.9025649300000000    0.6806001900000000    0.5831651300000000 O
   0.4025649300000000    0.8193998100000000    0.2219647400000000 O
