Zn1 Cu2 Sn1 S4
1.0
  -2.6825342700000001    2.6825342700000001    5.3510629300000003
   2.6825342700000001   -2.6825342700000001    5.3510629300000003
   2.6825342700000001    2.6825342700000001   -5.3510629300000003
Zn Cu Sn S
1 2 1 4
direct
   0.7500000000000000    0.2500000000000000    0.5000000000000000 Zn
   0.2500000000000000    0.7500000000000000    0.5000000000000000 Cu
   0.0000000000000000    0.0000000000000000    0.0000000000000000 Cu
   0.5000000000000000    0.5000000000000000    0.0000000000000000 Sn
   0.6298038100000000    0.6340171400000000    0.5246057500000000 S
   0.1094113900000000    0.1051970600000000    0.4753942500000000 S
   0.8948029400000000    0.3701961900000000    0.0042143300000000 S
   0.3659828600000000    0.8905886100000000    0.9957856700000000 S
