Sr2 Li1 Re1 O6
1.0
  -2.7590593999999999    2.7590594300000002    3.9894168699999999
   2.7590593999999999   -2.7590594300000002    3.9894168699999999
   2.7590594300000002    2.7590593999999999   -3.9894168699999999
Sr Li Re O
2 1 1 6
direct
   0.2500000000000000    0.7500000000000000    0.5000000000000000 Sr
   0.7500000000000000    0.2500000000000000    0.5000000000000000 Sr
   0.5000000000000000    0.5000000000000000    0.0000000000000000 Li
   0.0000000000000000    0.0000000000000000    0.0000000000000000 Re
   0.7180436500000000    0.8066579100000000    0.5247015600000000 O
   0.2819563500000000    0.1933420900000000    0.4752984400000000 O
   0.8066579100000000    0.2819563500000000    0.0886152500000000 O
   0.1933420900000000    0.7180436500000000    0.9113847500000000 O
   0.2374691300000000    0.2374691300000000    0.0000000000000000 O
   0.7625308700000000    0.7625308700000000    0.0000000000000000 O
