Ba12 Sb8 O4
1.0
  12.3826589200000008    0.0000000000000000    0.0000000000000000
   0.0000000000000000   12.6579799499999996    0.0000000000000000
   0.0000000000000000    0.0000000000000000    5.0721930899999998
Ba Sb O
12 8 4
direct
   0.2443515900000000    0.7609863400000000    0.5000000000000000 Ba
   0.7556484100000000    0.2390136600000000    0.5000000000000000 Ba
   0.7443515900000000    0.7390136600000000    0.5000000000000000 Ba
   0.2556484100000000    0.2609863400000000    0.5000000000000000 Ba
   0.1805645500000000    0.9859064700000000    0.0000000000000000 Ba
   0.8194354500000000    0.0140935300000000    0.0000000000000000 Ba
   0.6805645500000000    0.5140935300000000    0.0000000000000000 Ba
   0.3194354500000000    0.4859064700000000    0.0000000000000000 Ba
   0.4734244600000000    0.8273791100000000    0.0000000000000000 Ba
   0.5265755400000000    0.1726208900000000    0.0000000000000000 Ba
   0.9734244600000000    0.6726208900000000    0.0000000000000000 Ba
   0.0265755400000000    0.3273791100000000    0.0000000000000000 Ba
   0.9876726200000000    0.8874651300000000    0.5000000000000000 Sb
   0.4876726200000000    0.6125348700000000    0.5000000000000000 Sb
   0.5123273800000000    0.3874651300000000    0.5000000000000000 Sb
   0.0123273800000000    0.1125348700000000    0.5000000000000000 Sb
   0.1128078400000000    0.5223322800000000    0.5000000000000000 Sb
   0.8871921600000000    0.4776677200000000    0.5000000000000000 Sb
   0.6128078400000000    0.9776677200000000    0.5000000000000000 Sb
   0.3871921600000000    0.0223322800000000    0.5000000000000000 Sb
   0.2703716100000000    0.8063641400000000    0.0000000000000000 O
   0.7296283900000000    0.1936358600000000    0.0000000000000000 O
   0.7703716100000000    0.6936358600000000    0.0000000000000000 O
   0.2296283900000000    0.3063641400000000    0.0000000000000000 O
