Rb4 P4 Se24
1.0
  11.8806327100000004    0.0000000000000000    0.0000000000000000
   0.0000000000000000    6.7707856700000004    0.0000000000000000
   0.0000000000000000    0.0000000000000000   11.1706395300000008
Rb P Se
4 4 24
direct
   0.3697044300000000    0.6857484800000000    0.6284006100000000 Rb
   0.6302955700000000    0.3142515200000000    0.1284006100000000 Rb
   0.8697044300000000    0.3142515200000000    0.6284006100000000 Rb
   0.1302955700000000    0.6857484800000000    0.1284006100000000 Rb
   0.1700507100000000    0.2737446300000000    0.8160087600000000 P
   0.3299492900000000    0.2737446300000000    0.3160087600000000 P
   0.6700507100000000    0.7262553700000000    0.8160087600000000 P
   0.8299492900000000    0.7262553700000000    0.3160087600000000 P
   0.3614412900000000    0.0641819000000000    0.1706236900000000 Se
   0.1385587100000000    0.0641819000000000    0.6706236900000000 Se
   0.8614412900000000    0.9358181000000000    0.1706236900000000 Se
   0.6385587100000000    0.9358181000000000    0.6706236900000000 Se
   0.0902910200000000    0.1750619600000000    0.9948749700000000 Se
   0.9097089800000000    0.8249380400000000    0.4948749700000000 Se
   0.5902910200000000    0.8249380400000000    0.9948749700000000 Se
   0.4097089800000000    0.1750619600000000    0.4948749700000000 Se
   0.9009850400000000    0.2357193100000000    0.9413857700000000 Se
   0.0990149600000000    0.7642806900000000    0.4413857700000000 Se
   0.4009850400000000    0.7642806900000000    0.9413857700000000 Se
   0.5990149600000000    0.2357193100000000    0.4413857700000000 Se
   0.8713570800000000    0.5645949200000000    0.0244434900000000 Se
   0.1286429200000000    0.4354050800000000    0.5244434900000000 Se
   0.3713570800000000    0.4354050800000000    0.0244434900000000 Se
   0.6286429200000000    0.5645949200000000    0.5244434900000000 Se
   0.8577225900000000    0.7573948500000000    0.8432742500000000 Se
   0.1422774100000000    0.2426051500000000    0.3432742500000000 Se
   0.3577225900000000    0.2426051500000000    0.8432742500000000 Se
   0.6422774100000000    0.7573948500000000    0.3432742500000000 Se
   0.1239881100000000    0.5816944400000000    0.7828984600000000 Se
   0.8760118900000000    0.4183055600000000    0.2828984600000000 Se
   0.6239881100000000    0.4183055600000000    0.7828984600000000 Se
   0.3760118900000000    0.5816944400000000    0.2828984600000000 Se
