Rb4 V2 Ag2 S8
1.0
   0.0000000000000000    6.6201577599999997   11.4282542500000002
   2.8812180800000000    0.0000000000000000   11.4282542500000002
   2.8812180800000000    6.6201577599999997    0.0000000000000000
Rb V Ag S
4 2 2 8
direct
   0.6806652900000000    0.6806652900000000    0.3193347100000000 Rb
   0.3193347100000000    0.3193347100000000    0.6806652900000000 Rb
   0.9306652900000000    0.9306652900000000    0.5693347100000000 Rb
   0.5693347100000000    0.5693347100000000    0.9306652900000000 Rb
   0.7500000000000000    0.7500000000000000    0.7500000000000000 V
   0.5000000000000000    0.5000000000000000    0.5000000000000000 V
   0.2500000000000000    0.2500000000000000    0.2500000000000000 Ag
   0.0000000000000000    0.0000000000000000    0.0000000000000000 Ag
   0.5536579000000000    0.3346879800000000    0.2505591900000000 S
   0.8610949300000000    0.2505591900000000    0.3346879800000000 S
   0.9994408100000000    0.3889050700000000    0.6963421000000000 S
   0.9153120200000000    0.6963421000000000    0.3889050700000000 S
   0.2505591900000000    0.8610949300000000    0.5536579000000000 S
   0.3346879800000000    0.5536579000000000    0.8610949300000000 S
   0.3889050700000000    0.9994408100000000    0.9153120200000000 S
   0.6963421000000000    0.9153120200000000    0.9994408100000000 S
