Sr3 Nb2 Zn1 O9
1.0
   5.6734214600000001    0.0000000000000000    0.0000000000000000
  -2.8367107300000001    4.9133267600000003    0.0000000000000000
   0.0000000000000000    0.0000000000000000    6.9818103699999998
Sr Nb Zn O
3 2 1 9
direct
   0.0000000000000000    0.0000000000000000    0.5000000000000000 Sr
   0.6666670000000000    0.3333330000000000    0.8395420500000000 Sr
   0.3333330000000000    0.6666670000000000    0.1604579500000000 Sr
   0.6666670000000000    0.3333330000000000    0.3201693700000000 Nb
   0.3333330000000000    0.6666670000000000    0.6798306300000000 Nb
   0.0000000000000000    0.0000000000000000    0.0000000000000000 Zn
   0.6655750200000000    0.8327870100000000    0.8305265400000000 O
   0.3344249800000000    0.1672129900000000    0.1694734600000000 O
   0.0000000000000000    0.5000000000000000    0.5000000000000000 O
   0.5000000000000000    0.0000000000000000    0.5000000000000000 O
   0.1672129900000000    0.3344249800000000    0.8305265400000000 O
   0.8327870100000000    0.6655750200000000    0.1694734600000000 O
   0.5000000000000000    0.5000000000000000    0.5000000000000000 O
   0.1672129900000000    0.8327870100000000    0.8305265400000000 O
   0.8327870100000000    0.1672129900000000    0.1694734600000000 O
