Li12 Nb4 O16
1.0
  -4.2281537299999998    4.2281537299999998    4.2281537299999998
   4.2281537299999998   -4.2281537299999998    4.2281537299999998
   4.2281537299999998    4.2281537299999998   -4.2281537299999998
Li Nb O
12 4 16
direct
   0.0000000000000000    0.5164618700000000    0.2745162500000000 Li
   0.5164618700000000    0.0000000000000000    0.2745162500000000 Li
   0.7254837500000000    0.2419456200000000    0.7254837500000000 Li
   0.7580543800000000    0.4835381300000000    0.4835381300000000 Li
   0.7254837500000000    0.7254837500000000    0.2419456200000000 Li
   0.2745162500000000    0.5164618700000000    0.0000000000000000 Li
   0.4835381300000000    0.4835381300000000    0.7580543800000000 Li
   0.5164618700000000    0.2745162500000000    0.0000000000000000 Li
   0.0000000000000000    0.2745162500000000    0.5164618700000000 Li
   0.4835381300000000    0.7580543800000000    0.4835381300000000 Li
   0.2745162500000000    0.0000000000000000    0.5164618700000000 Li
   0.2419456200000000    0.7254837500000000    0.7254837500000000 Li
   0.7195323400000000    0.0000000000000000    0.0000000000000000 Nb
   0.2804676600000000    0.2804676600000000    0.2804676600000000 Nb
   0.0000000000000000    0.7195323400000000    0.0000000000000000 Nb
   0.0000000000000000    0.0000000000000000    0.7195323400000000 Nb
   0.7537168600000000    0.2420191400000000    0.2420191400000000 O
   0.7579808600000000    0.5116977200000000    0.0000000000000000 O
   0.2275529700000000    0.0000000000000000    0.0000000000000000 O
   0.0000000000000000    0.2275529700000000    0.0000000000000000 O
   0.0000000000000000    0.0000000000000000    0.2275529700000000 O
   0.4883022800000000    0.4883022800000000    0.2462831400000000 O
   0.4883022800000000    0.2462831400000000    0.4883022800000000 O
   0.5116977200000000    0.0000000000000000    0.7579808600000000 O
   0.0000000000000000    0.5116977200000000    0.7579808600000000 O
   0.2462831400000000    0.4883022800000000    0.4883022800000000 O
   0.2420191400000000    0.7537168600000000    0.2420191400000000 O
   0.7579808600000000    0.0000000000000000    0.5116977200000000 O
   0.2420191400000000    0.2420191400000000    0.7537168600000000 O
   0.7724470300000000    0.7724470300000000    0.7724470300000000 O
   0.5116977200000000    0.7579808600000000    0.0000000000000000 O
   0.0000000000000000    0.7579808600000000    0.5116977200000000 O
