Na2 Mg5 P4 O16
1.0
   5.1616803800000000    0.0020941400000000   -0.0056741500000000
  -1.6355849000000000    7.7501956300000003    0.0166001700000000
  -0.0563076300000000   -2.9360067000000001    7.5475132399999998
Na Mg P O
2 5 4 16
direct
   0.4332351400000000    0.9637240500000001    0.7039551700000000 Na
   0.5667648600000000    0.0362759500000000    0.2960448300000000 Na
   0.0933110900000000    0.2543434700000000    0.7803356400000000 Mg
   0.6364904700000000    0.4070794800000000    0.6716795000000000 Mg
   0.9066889100000000    0.7456565300000000    0.2196643600000000 Mg
   0.0000000000000000    0.0000000000000000    0.0000000000000000 Mg
   0.3635095300000000    0.5929205200000000    0.3283205000000000 Mg
   0.1330301800000000    0.2110366600000000    0.4300222900000000 P
   0.8669698200000000    0.7889633400000000    0.5699777100000000 P
   0.6184341500000000    0.3016331200000000    0.0294679100000000 P
   0.3815658500000000    0.6983668800000000    0.9705320900000000 P
   0.2572962300000000    0.8299653000000000    0.9125351400000000 O
   0.3286990600000000    0.1825806400000000    0.5634242500000000 O
   0.3172195600000000    0.2152739000000000    0.9677816800000000 O
   0.6827804400000000    0.7847261000000000    0.0322183200000000 O
   0.9307264700000000    0.9722170800000000    0.7345248300000000 O
   0.0692735300000000    0.0277829200000000    0.2654751700000000 O
   0.6713009400000000    0.8174193600000000    0.4365757500000000 O
   0.7427037700000000    0.1700347000000000    0.0874648600000000 O
   0.2421772900000000    0.6740259800000000    0.1346877900000000 O
   0.3435493900000000    0.5056815300000000    0.8238480500000001 O
   0.7578227100000000    0.3259740200000000    0.8653122100000000 O
   0.6564506100000000    0.4943184700000000    0.1761519500000000 O
   0.1148937600000000    0.7545427600000000    0.4687845700000000 O
   0.2697968000000000    0.3693644900000000    0.3771907100000000 O
   0.8851062400000000    0.2454572400000000    0.5312154300000000 O
   0.7302032000000001    0.6306355100000000    0.6228092900000000 O
