Ba3 B3 P3 O15
1.0
   7.1310991699999997   -0.0000000100000000    0.0000000000000000
  -3.5655491000000001    6.1757127199999999    0.0000000000000000
   0.0000000000000000    0.0000000000000000    6.9928135300000003
Ba B P O
3 3 3 15
direct
   0.6070455900000000    0.0000000000000000    0.6666670000000000 Ba
   0.3929544100000000    0.3929544100000000    0.0000000000000000 Ba
   0.0000000000000000    0.6070455900000000    0.3333330000000000 Ba
   0.9058016800000001    0.9058016800000001    0.0000000000000000 B
   1.0000000000000000    0.0941983200000000    0.3333330000000000 B
   0.0941983200000000    0.0000000000000000    0.6666670000000000 B
   0.6094733400000000    1.0000000000000000    0.1666670000000000 P
   0.3905266600000000    0.3905266600000000    0.5000000000000000 P
   0.0000000000000000    0.6094733400000000    0.8333330000000000 P
   0.9594101100000000    0.9594101100000000    0.5000000000000000 O
   0.0405898900000000    0.0000000000000000    0.1666670000000000 O
   1.0000000000000000    0.0405898900000000    0.8333330000000000 O
   0.4282200600000000    0.8570429800000000    0.3014839900000000 O
   0.1429570200000000    0.5711770800000000    0.9681509900000000 O
   0.4288229200000000    0.5717799400000000    0.6348179900000001 O
   0.1407479300000000    0.8174676500000000    0.7030965200000000 O
   0.1825323500000000    0.3232802900000000    0.3697635200000000 O
   0.6767197100000000    0.8592520700000000    0.0364305200000000 O
   0.3232802900000000    0.1825323500000000    0.6302364800000000 O
   0.8592520700000000    0.6767197100000000    0.9635694800000000 O
   0.8174676500000000    0.1407479300000000    0.2969034800000000 O
   0.8570429800000000    0.4282200600000000    0.6985160100000000 O
   0.5717799400000000    0.4288229200000000    0.3651820100000000 O
   0.5711770800000000    0.1429570200000000    0.0318490100000000 O
