La4 Zr4 N4 O8
1.0
   5.7755284900000001    0.0000000000000000    0.0000000000000000
   0.0000000000000000    8.4786620399999997    0.0000000000000000
   0.0000000000000000    0.0000000000000000    5.7362941100000002
La Zr N O
4 4 4 8
direct
   0.5333650500000000    0.2500000000000000    0.4883494900000000 La
   0.0333650500000000    0.2500000000000000    0.0116505100000000 La
   0.4666349500000000    0.7500000000000000    0.5116505099999999 La
   0.9666349500000000    0.7500000000000000    0.9883494900000001 La
   0.0000000000000000    0.0000000000000000    0.5000000000000000 Zr
   0.5000000000000000    0.5000000000000000    0.0000000000000000 Zr
   0.0000000000000000    0.5000000000000000    0.5000000000000000 Zr
   0.5000000000000000    0.0000000000000000    0.0000000000000000 Zr
   0.9698762100000000    0.2500000000000000    0.4218781300000000 N
   0.4698762100000000    0.2500000000000000    0.0781218700000000 N
   0.0301237900000000    0.7500000000000000    0.5781218700000000 N
   0.5301237900000000    0.7500000000000000    0.9218781300000000 N
   0.8204212500000000    0.0345406400000000    0.8208805800000000 O
   0.3204212500000000    0.4654593600000000    0.6791194200000000 O
   0.1795787500000000    0.5345406400000000    0.1791194200000000 O
   0.6795787500000000    0.9654593600000000    0.3208805800000000 O
   0.1795787500000000    0.9654593600000000    0.1791194200000000 O
   0.6795787500000000    0.5345406400000000    0.3208805800000000 O
   0.8204212500000000    0.4654593600000000    0.8208805800000000 O
   0.3204212500000000    0.0345406400000000    0.6791194200000000 O
