Zn2 Ag4 Ge2 O8
1.0
   5.4685330700000003    0.0000000000000000   -0.0129105900000000
   0.0000000000000000    5.5485891100000000    0.0000000000000000
  -5.4224021100000002    0.0000000000000000    7.0875412700000000
Zn Ag Ge O
2 4 2 8
direct
   0.9987668700000000    0.8131334900000000    0.4987558600000000 Zn
   0.9987668700000000    0.1868665100000000    0.9987558600000001 Zn
   0.5014933300000000    0.1904303000000000    0.5008159500000000 Ag
   0.5014933300000000    0.8095696999999999    0.0008159500000000 Ag
   0.7426952300000000    0.3070354500000000    0.2468160800000000 Ag
   0.7426952300000000    0.6929645500000000    0.7468160800000000 Ag
   0.2507273700000000    0.6849834900000000    0.2493168400000000 Ge
   0.2507273700000000    0.3150165100000000    0.7493168400000000 Ge
   0.6075903700000000    0.2945135900000000    0.7827234100000000 O
   0.6075903700000000    0.7054864100000000    0.2827234100000000 O
   0.2999716200000000    0.7958160200000000    0.4543721000000000 O
   0.2999716200000000    0.2041839800000000    0.9543720999999999 O
   0.1339644300000000    0.6245009600000000    0.7161657400000000 O
   0.9627937900000000    0.1452903900000000    0.5430350200000000 O
   0.1339644300000000    0.3754990400000000    0.2161657400000000 O
   0.9627937900000000    0.8547096100000000    0.0430350200000000 O
