Li2 Ca1 Ge1 O4
1.0
  -2.5702373999999999    2.5702373999999999    3.2896213300000001
   2.5702373999999999   -2.5702373999999999    3.2896213300000001
   2.5702373999999999    2.5702373999999999   -3.2896213300000001
Li Ca Ge O
2 1 1 4
direct
   0.2500000000000000    0.7500000000000000    0.5000000000000000 Li
   0.7500000000000000    0.2500000000000000    0.5000000000000000 Li
   0.5000000000000000    0.5000000000000000    0.0000000000000000 Ca
   0.0000000000000000    0.0000000000000000    0.0000000000000000 Ge
   0.9453783300000000    0.3564814800000000    0.0000000000000000 O
   0.3564814800000000    0.9453783300000000    0.0000000000000000 O
   0.6435185200000000    0.6435185200000000    0.5888968500000000 O
   0.0546216700000000    0.0546216700000000    0.4111031500000000 O
