Na6 Sc2 B4 O12
1.0
   5.0289777000000004    0.0000000000000000    0.0584094800000000
   0.0000000000000000    9.0045219999999997    0.0000000000000000
  -3.7832838799999999    0.0000000000000000    5.6894888000000003
Na Sc B O
6 2 4 12
direct
   0.0000000000000000    0.5000000000000000    0.0000000000000000 Na
   0.0000000000000000    0.0000000000000000    0.5000000000000000 Na
   0.7325450600000000    0.8317020600000000    0.7325796999999999 Na
   0.2674549400000000    0.3317020600000000    0.7674203000000001 Na
   0.2674549400000000    0.1682979400000000    0.2674203000000000 Na
   0.7325450600000000    0.6682979400000000    0.2325797000000000 Na
   0.5000000000000000    0.5000000000000000    0.5000000000000000 Sc
   0.5000000000000000    0.0000000000000000    0.0000000000000000 Sc
   0.2238878000000000    0.6701452700000000    0.7365879900000000 B
   0.7761122000000000    0.1701452700000000    0.7634120100000000 B
   0.7761122000000000    0.3298547300000000    0.2634120100000000 B
   0.2238878000000000    0.8298547300000000    0.2365879900000000 B
   0.4788980900000000    0.5842418700000001    0.7800934800000000 O
   0.5211019099999999    0.0842418700000000    0.7199065200000000 O
   0.5211019099999999    0.4157581300000000    0.2199065200000000 O
   0.4788980900000000    0.9157581299999999    0.2800934800000000 O
   0.9289532700000001    0.6085687300000000    0.6494043400000000 O
   0.0710467300000000    0.1085687300000000    0.8505956600000000 O
   0.0710467300000000    0.3914312700000000    0.3505956600000000 O
   0.9289532700000001    0.8914312700000000    0.1494043400000000 O
   0.2623671500000000    0.8207009800000000    0.7852001700000000 O
   0.7376328500000000    0.3207009800000000    0.7147998300000000 O
   0.7376328500000000    0.1792990200000000    0.2147998300000000 O
   0.2623671500000000    0.6792990200000000    0.2852001700000000 O
