Ta2 Ag2 O6
1.0
   2.7487789500000002    1.5870081199999999    4.5908698499999998
  -2.7487789500000002    1.5870081199999999    4.5908698499999998
   0.0000000000000000   -3.1740162299999999    4.5908698499999998
Ta Ag O
2 2 6
direct
   0.5000000000000000    0.5000000000000000    0.5000000000000000 Ta
   0.0000000000000000    0.0000000000000000    0.0000000000000000 Ta
   0.2500000000000000    0.2500000000000000    0.2500000000000000 Ag
   0.7500000000000000    0.7500000000000000    0.7500000000000000 Ag
   0.3200984100000000    0.1799015900000000    0.7500000000000000 O
   0.1799015900000000    0.7500000000000000    0.3200984100000000 O
   0.7500000000000000    0.3200984100000000    0.1799015900000000 O
   0.6799015899999999    0.8200984100000001    0.2500000000000000 O
   0.2500000000000000    0.6799015899999999    0.8200984100000001 O
   0.8200984100000001    0.2500000000000000    0.6799015899999999 O
