Li12 Hf4 O14
1.0
   5.2149115000000004   -2.9917733800000001    0.0081446500000000
   5.2149115000000004    2.9917733800000001    0.0081446500000000
  -1.8069301400000000    0.0000000000000000   10.0193741599999999
Li Hf O
12 4 14
direct
   0.3389933200000000    0.0751148900000000    0.8951797800000000 Li
   0.0751148900000000    0.3389933200000000    0.3951797800000000 Li
   0.7938448800000000    0.0829546100000000    0.9156141500000000 Li
   0.3378775000000000    0.5321157000000000    0.8971073899999999 Li
   0.0829546100000000    0.7938448800000000    0.4156141500000000 Li
   0.5321157000000000    0.3378775000000000    0.3971073900000000 Li
   0.4678843000000000    0.6621224999999999    0.6028926100000001 Li
   0.9170453900000000    0.2061551200000000    0.5843858500000000 Li
   0.6621224999999999    0.4678843000000000    0.1028926100000000 Li
   0.2061551200000000    0.9170453900000000    0.0843858500000000 Li
   0.9248851100000000    0.6610066800000000    0.6048202200000000 Li
   0.6610066800000000    0.9248851100000000    0.1048202200000000 Li
   0.4401749500000000    0.1918369800000000    0.6348583600000000 Hf
   0.1918369800000000    0.4401749500000000    0.1348583600000000 Hf
   0.8081630200000000    0.5598250500000000    0.8651416400000000 Hf
   0.5598250500000000    0.8081630200000000    0.3651416400000000 Hf
   0.1370059500000000    0.3643544800000000    0.7552582500000000 O
   0.9996982599999999    0.7351905399999999    0.9979948199999999 O
   0.3643544800000000    0.1370059500000000    0.2552582500000000 O
   0.7351905399999999    0.9996982599999999    0.4979948200000000 O
   0.2549913500000000    0.5015998600000000    0.5208644900000000 O
   0.6483305200000000    0.3516694800000000    0.7500000000000000 O
   0.5015998600000000    0.2549913500000000    0.0208644900000000 O
   0.4984001400000000    0.7450086500000001    0.9791355100000000 O
   0.3516694800000000    0.6483305200000000    0.2500000000000000 O
   0.7450086500000001    0.4984001400000000    0.4791355100000000 O
   0.2648094600000000    0.0003017400000000    0.5020051800000001 O
   0.6356455200000000    0.8629940500000000    0.7447417500000000 O
   0.0003017400000000    0.2648094600000000    0.0020051800000000 O
   0.8629940500000000    0.6356455200000000    0.2447417500000000 O
