Na1 C1 N1 O1
1.0
   1.7800317900000000    1.0277014900000001    5.0050011899999998
  -1.7800317900000000    1.0277014900000001    5.0050011899999998
   0.0000000000000000   -2.0554039400000002    5.0050011899999998
Na C N O
1 1 1 1
direct
   0.5045913600000000    0.5045913600000000    0.5045913600000000 Na
   0.0009917100000000    0.0009917100000000    0.0009917100000000 C
   0.9216047200000000    0.9216047200000000    0.9216047200000000 N
   0.0828102100000000    0.0828102100000000    0.0828102100000000 O
