Pb4 Se8 O20
1.0
   4.4753757700000003    0.0000000000000000   -0.0118814300000000
   0.0000000000000000    9.4253081800000000    0.0000000000000000
  -4.4842238099999996    0.0000000000000000   11.6207237899999996
Pb Se O
4 8 20
direct
   0.5492804100000001    0.9582213400000000    0.3478583700000000 Pb
   0.5492804100000001    0.5417786600000000    0.8478583700000000 Pb
   0.4507195900000000    0.0417786600000000    0.6521416300000000 Pb
   0.4507195900000000    0.4582213400000000    0.1521416300000000 Pb
   0.0910748000000000    0.2517273000000000    0.3838799500000000 Se
   0.8515411899999999    0.1426330700000000    0.0793562300000000 Se
   0.8515411899999999    0.3573669300000000    0.5793562300000000 Se
   0.1484588100000000    0.6426330700000000    0.4206437700000000 Se
   0.1484588100000000    0.8573669300000000    0.9206437700000000 Se
   0.9089252000000000    0.7517273000000000    0.1161200500000000 Se
   0.9089252000000000    0.7482727000000000    0.6161200500000000 Se
   0.0910748000000000    0.2482727000000000    0.8838799500000000 Se
   0.8108198400000000    0.8470390200000000    0.9749072100000000 O
   0.7674184300000000    0.9116836100000000    0.5572740700000000 O
   0.1891801600000000    0.3470390200000000    0.5250927900000000 O
   0.2325815700000000    0.4116836100000000    0.9427259300000000 O
   0.7674184300000000    0.5883163900000000    0.0572740700000000 O
   0.8108198400000000    0.6529609800000000    0.4749072100000000 O
   0.2325815700000000    0.0883163900000000    0.4427259300000000 O
   0.0294462900000000    0.4643231000000000    0.6930825800000000 O
   0.8908820300000000    0.3065019200000000    0.1385405800000000 O
   0.3081434500000000    0.7316466900000000    0.1534728300000000 O
   0.1091179700000000    0.8065019200000000    0.3614594200000000 O
   0.9705537100000000    0.5356769000000000    0.3069174200000000 O
   0.3081434500000000    0.7683533100000000    0.6534728300000000 O
   0.0294462900000000    0.0356769000000000    0.1930825800000000 O
   0.1091179700000000    0.6934980800000000    0.8614594200000000 O
   0.6918565500000000    0.2683533100000000    0.8465271700000000 O
   0.6918565500000000    0.2316466900000000    0.3465271700000000 O
   0.8908820300000000    0.1934980800000000    0.6385405800000000 O
   0.1891801600000000    0.1529609800000000    0.0250927900000000 O
   0.9705537100000000    0.9643231000000000    0.8069174200000000 O
