Sn4 S6 O24
1.0
   4.2084477600000003    2.4297477900000000    8.2857191199999995
  -4.2084472599999998    2.4297486699999999    8.2857191199999995
  -0.0000005100000000   -4.8594964599999999    8.2857191199999995
Sn S O
4 6 24
direct
   0.1400447900000000    0.1400447900000000    0.1400447900000000 Sn
   0.3389676200000000    0.3389676200000000    0.3389676200000000 Sn
   0.6610323800000000    0.6610323800000000    0.6610323800000000 Sn
   0.8599552100000000    0.8599552100000000    0.8599552100000000 Sn
   0.0571760700000000    0.4418302200000000    0.7315839500000000 S
   0.5581697799999999    0.2684160500000000    0.9428239300000000 S
   0.2684160500000000    0.9428239300000000    0.5581697799999999 S
   0.7315839500000000    0.0571760700000000    0.4418302200000000 S
   0.4418302200000000    0.7315839500000000    0.0571760700000000 S
   0.9428239300000000    0.5581697799999999    0.2684160500000000 S
   0.2094512400000000    0.1452097100000000    0.5264568100000000 O
   0.1452097100000000    0.5264568100000000    0.2094512400000000 O
   0.0525565500000000    0.5748961200000000    0.7624948300000000 O
   0.1474955600000000    0.2407869300000000    0.8406667900000000 O
   0.5264568100000000    0.2094512400000000    0.1452097100000000 O
   0.1593332100000000    0.8525044400000000    0.7592130700000000 O
   0.4251038800000000    0.2375051700000000    0.9474434500000000 O
   0.1587466800000000    0.4828317500000000    0.5196191200000000 O
   0.5171682500000000    0.4803808800000000    0.8412533200000000 O
   0.2375051700000000    0.9474434500000000    0.4251038800000000 O
   0.7592130700000000    0.1593332100000000    0.8525044400000000 O
   0.4803808800000000    0.8412533200000000    0.5171682500000000 O
   0.5196191200000000    0.1587466800000000    0.4828317500000000 O
   0.2407869300000000    0.8406667900000000    0.1474955600000000 O
   0.7624948300000000    0.0525565500000000    0.5748961200000000 O
   0.4828317500000000    0.5196191200000000    0.1587466800000000 O
   0.8412533200000000    0.5171682500000000    0.4803808800000000 O
   0.5748961200000000    0.7624948300000000    0.0525565500000000 O
   0.8406667900000000    0.1474955600000000    0.2407869300000000 O
   0.4735431900000000    0.7905487600000000    0.8547902900000000 O
   0.8525044400000000    0.7592130700000000    0.1593332100000000 O
   0.9474434500000000    0.4251038800000000    0.2375051700000000 O
   0.8547902900000000    0.4735431900000000    0.7905487600000000 O
   0.7905487600000000    0.8547902900000000    0.4735431900000000 O
