Cs6 B6 O12
1.0
   6.8026101700000003    3.9274891799999998    2.7655811199999998
  -6.8026101700000003    3.9274891799999998    2.7655811199999998
   0.0000000000000000   -7.8549783599999996    2.7655811199999998
Cs B O
6 6 12
direct
   0.8092047200000000    0.6907952800000000    0.2500000000000000 Cs
   0.6907952800000000    0.2500000000000000    0.8092047200000000 Cs
   0.1907952800000000    0.3092047200000000    0.7500000000000000 Cs
   0.7500000000000000    0.1907952800000000    0.3092047200000000 Cs
   0.2500000000000000    0.8092047200000000    0.6907952800000000 Cs
   0.3092047200000000    0.7500000000000000    0.1907952800000000 Cs
   0.3566532200000000    0.2500000000000000    0.1433467800000000 B
   0.7500000000000000    0.8566532200000000    0.6433467800000000 B
   0.8566532200000000    0.6433467800000000    0.7500000000000000 B
   0.6433467800000000    0.7500000000000000    0.8566532200000000 B
   0.1433467800000000    0.3566532200000000    0.2500000000000000 B
   0.2500000000000000    0.1433467800000000    0.3566532200000000 B
   0.3519427900000000    0.1480572100000000    0.2500000000000000 O
   0.8519427899999999    0.7500000000000000    0.6480572100000001 O
   0.6480572100000001    0.8519427899999999    0.7500000000000000 O
   0.9540870200000000    0.5459129800000000    0.7500000000000000 O
   0.4540870200000000    0.2500000000000000    0.0459129800000000 O
   0.2500000000000000    0.0459129800000000    0.4540870200000000 O
   0.5459129800000000    0.7500000000000000    0.9540870200000000 O
   0.1480572100000000    0.2500000000000000    0.3519427900000000 O
   0.7500000000000000    0.6480572100000001    0.8519427899999999 O
   0.2500000000000000    0.3519427900000000    0.1480572100000000 O
   0.0459129800000000    0.4540870200000000    0.2500000000000000 O
   0.7500000000000000    0.9540870200000000    0.5459129800000000 O
