La4 S2 O12
1.0
   7.1531411800000004   -2.1262546000000002    0.0150082500000000
   7.1531411800000004    2.1262546000000002    0.0150082500000000
  -2.4477398500000001    0.0000000000000000    7.9436976799999997
La S O
4 2 12
direct
   0.3386073500000000    0.3268863300000000    0.9163611200000000 La
   0.6731136700000000    0.6613926500000000    0.5836388800000000 La
   0.3268863300000000    0.3386073500000000    0.4163611200000000 La
   0.6613926500000000    0.6731136700000000    0.0836388800000000 La
   0.0564545800000000    0.9435454200000000    0.2500000000000000 S
   0.9435454200000000    0.0564545800000000    0.7500000000000000 S
   0.2277280300000000    0.9518404700000000    0.7935475300000000 O
   0.0481595300000000    0.7722719700000000    0.7064524700000000 O
   0.7722719700000000    0.0481595300000000    0.2064524700000000 O
   0.9518404700000000    0.2277280300000000    0.2935475300000000 O
   0.2342993400000000    0.2600370200000000    0.1235236700000000 O
   0.7399629800000000    0.7657006600000000    0.3764763300000000 O
   0.2633193600000000    0.7386923200000000    0.3959621000000000 O
   0.2600370200000000    0.2342993400000000    0.6235236700000000 O
   0.7386923200000000    0.2633193600000000    0.8959621000000000 O
   0.7657006600000000    0.7399629800000000    0.8764763300000000 O
   0.2613076800000000    0.7366806400000000    0.1040379000000000 O
   0.7366806400000000    0.2613076800000000    0.6040379000000000 O
