Cs2 Bi2 O4
1.0
   4.1339346399999997   -4.6012507999999999   -0.0027431800000000
   4.1339346399999997    4.6012507999999999   -0.0027431800000000
  -3.2629855200000000    0.0000000000000000    5.0217362200000002
Cs Bi O
2 2 4
direct
   0.6416466700000000    0.3583533300000000    0.7500000000000000 Cs
   0.3583533300000000    0.6416466700000000    0.2500000000000000 Cs
   0.9111841700000000    0.0888158300000000    0.2500000000000000 Bi
   0.0888158300000000    0.9111841700000000    0.7500000000000000 Bi
   0.8745207100000000    0.7652938300000000    0.2918860200000000 O
   0.2347061700000000    0.1254792900000000    0.2081139800000000 O
   0.7652938300000000    0.8745207100000000    0.7918860200000000 O
   0.1254792900000000    0.2347061700000000    0.7081139800000000 O
