Na1 In1 Se2
1.0
   1.9888595499999999    1.1482687700000000    6.9293749499999997
  -1.9888595499999999    1.1482687700000000    6.9293749499999997
   0.0000000000000000   -2.2965375300000002    6.9293749499999997
Na In Se
1 1 2
direct
   0.5000000000000000    0.5000000000000000    0.5000000000000000 Na
   0.0000000000000000    0.0000000000000000    0.0000000000000000 In
   0.7410751799999999    0.7410751799999999    0.7410751799999999 Se
   0.2589248200000000    0.2589248200000000    0.2589248200000000 Se
