Sr2 Ta1 In1 O6
1.0
   4.9704452999999997   -2.8828903600000002    0.0027701100000000
   4.9704452999999997    2.8828903600000002    0.0027701100000000
  -3.3570140099999999    0.0000000000000000    4.7366963100000001
Sr Ta In O
2 1 1 6
direct
   0.7508178700000000    0.7508178700000000    0.2622651700000000 Sr
   0.2491821300000000    0.2491821300000000    0.7377348300000000 Sr
   0.5000000000000000    0.5000000000000000    0.5000000000000000 Ta
   0.0000000000000000    0.0000000000000000    0.0000000000000000 In
   0.7378013000000000    0.7378013000000000    0.8226542100000001 O
   0.2621987000000000    0.2621987000000000    0.1773457900000000 O
   0.7885867200000000    0.3060033500000000    0.3098137700000000 O
   0.6939966500000000    0.2114132800000000    0.6901862300000000 O
   0.2114132800000000    0.6939966500000000    0.6901862300000000 O
   0.3060033500000000    0.7885867200000000    0.3098137700000000 O
