Al2 B2 O6
1.0
   2.2386215500000000    1.2924685199999999    4.5753419800000001
  -2.2386215500000000    1.2924685199999999    4.5753419800000001
   0.0000000000000000   -2.5849370399999998    4.5753419800000001
Al B O
2 2 6
direct
   0.5000000000000000    0.5000000000000000    0.5000000000000000 Al
   0.0000000000000000    0.0000000000000000    0.0000000000000000 Al
   0.7500000000000000    0.7500000000000000    0.7500000000000000 B
   0.2500000000000000    0.2500000000000000    0.2500000000000000 B
   0.7500000000000000    0.4409208300000000    0.0590791700000000 O
   0.4409208300000000    0.0590791700000000    0.7500000000000000 O
   0.9409208300000000    0.2500000000000000    0.5590791700000000 O
   0.2500000000000000    0.5590791700000000    0.9409208300000000 O
   0.5590791700000000    0.9409208300000000    0.2500000000000000 O
   0.0590791700000000    0.7500000000000000    0.4409208300000000 O
