Li4 Cu4 S4
1.0
   6.2395481699999999    0.0000000000000000    0.0000000000000000
   0.0000000000000000    3.6791527400000001   -0.0000000000000000
   0.0000000000000000   -0.0000000000000000    6.8859105100000004
Li Cu S
4 4 4
direct
   0.4679374800000000    0.7500000000000000    0.8276914200000000 Li
   0.9679374800000000    0.7500000000000000    0.6723085800000000 Li
   0.5320625200000000    0.2500000000000000    0.1723085800000000 Li
   0.0320625200000000    0.2500000000000000    0.3276914200000000 Li
   0.8681085100000000    0.7500000000000000    0.0603310900000000 Cu
   0.3681085100000000    0.7500000000000000    0.4396689100000000 Cu
   0.6318914900000000    0.2500000000000000    0.5603310900000000 Cu
   0.1318914900000000    0.2500000000000000    0.9396689100000000 Cu
   0.7457901300000001    0.7500000000000000    0.3780970700000000 S
   0.2457901300000000    0.7500000000000000    0.1219029300000000 S
   0.7542098699999999    0.2500000000000000    0.8780970700000000 S
   0.2542098700000000    0.2500000000000000    0.6219029300000000 S
