Mg2 Cu4 Si2 Se8
1.0
   7.9325047900000003    0.0000000000000000    0.0000000000000000
   0.0000000000000000    6.7399889100000001    0.0000000000000000
   0.0000000000000000    0.0000000000000000    6.4672141800000000
Mg Cu Si Se
2 4 2 8
direct
   0.5000000000000000    0.6536460500000000    0.9945231200000000 Mg
   0.0000000000000000    0.3463539500000000    0.4945231200000000 Mg
   0.2470531100000000    0.1781502800000000    0.0057142000000000 Cu
   0.7529468900000000    0.1781502800000000    0.0057142000000000 Cu
   0.2529468900000000    0.8218497200000000    0.5057142000000000 Cu
   0.7470531100000000    0.8218497200000000    0.5057142000000000 Cu
   0.5000000000000000    0.3233795100000000    0.4982976600000000 Si
   0.0000000000000000    0.6766204900000000    0.9982976600000000 Si
   0.2687539300000000    0.1570200500000000    0.3736234800000000 Se
   0.7312460700000000    0.1570200500000000    0.3736234800000000 Se
   0.2312460700000000    0.8429799500000000    0.8736234800000000 Se
   0.7687539300000000    0.8429799500000000    0.8736234800000000 Se
   0.5000000000000000    0.2998139200000000    0.8530203000000000 Se
   0.0000000000000000    0.7001860800000000    0.3530203000000000 Se
   0.5000000000000000    0.6486527000000000    0.3952815700000000 Se
   0.0000000000000000    0.3513473000000000    0.8952815700000000 Se
