Na12 Bi4 O12
1.0
  -4.7772854100000002    4.7772854100000002    4.7772854100000002
   4.7772854100000002   -4.7772854100000002    4.7772854100000002
   4.7772854100000002    4.7772854100000002   -4.7772854100000002
Na Bi O
12 4 12
direct
   0.2470790600000000    0.7213156500000000    0.7213156500000000 Na
   0.7213156500000000    0.7213156500000000    0.2470790600000000 Na
   0.7213156500000000    0.2470790600000000    0.7213156500000000 Na
   0.0000000000000000    0.5257634100000000    0.2786843500000000 Na
   0.0000000000000000    0.2786843500000000    0.5257634100000000 Na
   0.7529209400000000    0.4742365900000000    0.4742365900000000 Na
   0.4742365900000000    0.4742365900000000    0.7529209400000000 Na
   0.5257634100000000    0.2786843500000000    0.0000000000000000 Na
   0.2786843500000000    0.0000000000000000    0.5257634100000000 Na
   0.5257634100000000    0.0000000000000000    0.2786843500000000 Na
   0.4742365900000000    0.7529209400000000    0.4742365900000000 Na
   0.2786843500000000    0.5257634100000000    0.0000000000000000 Na
   0.0000000000000000    0.7184152700000001    0.0000000000000000 Bi
   0.0000000000000000    0.0000000000000000    0.7184152700000001 Bi
   0.2815847300000000    0.2815847300000000    0.2815847300000000 Bi
   0.7184152700000001    0.0000000000000000    0.0000000000000000 Bi
   0.4852229000000000    0.2548333500000000    0.4852229000000000 O
   0.2548333500000000    0.4852229000000000    0.4852229000000000 O
   0.4852229000000000    0.4852229000000000    0.2548333500000000 O
   0.5147771000000000    0.7696104499999999    0.0000000000000000 O
   0.7696104499999999    0.0000000000000000    0.5147771000000000 O
   0.5147771000000000    0.0000000000000000    0.7696104499999999 O
   0.2303895500000000    0.7451666500000000    0.2303895500000000 O
   0.7696104499999999    0.5147771000000000    0.0000000000000000 O
   0.0000000000000000    0.5147771000000000    0.7696104499999999 O
   0.2303895500000000    0.2303895500000000    0.7451666500000000 O
   0.7451666500000000    0.2303895500000000    0.2303895500000000 O
   0.0000000000000000    0.7696104499999999    0.5147771000000000 O
