Sr4 Se4 O16
1.0
   6.8560842500000003    0.0000000000000000   -0.0092451700000000
   0.0000000000000000    7.3499086699999996    0.0000000000000000
  -5.1671502199999999    0.0000000000000000    6.9210907300000004
Sr Se O
4 4 16
direct
   0.1809255500000000    0.6560107300000000    0.2802069000000000 Sr
   0.8190744500000000    0.1560107300000000    0.2197931000000000 Sr
   0.8190744500000000    0.3439892700000000    0.7197931000000000 Sr
   0.1809255500000000    0.8439892700000000    0.7802069000000000 Sr
   0.6927370200000000    0.6644390500000000    0.3068793700000000 Se
   0.3072629800000000    0.1644390500000000    0.1931206300000000 Se
   0.3072629800000000    0.3355609500000000    0.6931206300000000 Se
   0.6927370200000000    0.8355609500000000    0.8068793700000000 Se
   0.4087341100000000    0.7150649800000000    0.1225605000000000 O
   0.5912658900000000    0.2150649800000000    0.3774395000000000 O
   0.5912658900000000    0.2849350200000000    0.8774395000000000 O
   0.4087341100000000    0.7849350200000000    0.6225605000000000 O
   0.6685904700000000    0.6091705500000000    0.4818351200000000 O
   0.3314095300000000    0.1091705500000000    0.0181648800000000 O
   0.3314095300000000    0.3908294500000000    0.5181648800000000 O
   0.6685904700000000    0.8908294500000000    0.9818351200000000 O
   0.8131561000000000    0.9971953000000000    0.7533609999999999 O
   0.1868439000000000    0.4971953000000000    0.7466390000000001 O
   0.1868439000000000    0.0028047000000000    0.2466390000000000 O
   0.8131561000000000    0.5028047000000000    0.2533610000000000 O
   0.8880411300000000    0.6610831200000000    0.8874993000000000 O
   0.1119588700000000    0.1610831200000000    0.6125007000000000 O
   0.1119588700000000    0.3389168800000000    0.1125007000000000 O
   0.8880411300000000    0.8389168800000000    0.3874993000000000 O
