Na8 Ti2 O8
1.0
   5.7231584499999997   -0.0068351900000000    0.0002512800000000
   2.1082054600000002    5.3367097399999999   -0.0084624200000000
   2.7654593400000000    0.2204206700000000    8.1948638299999992
Na Ti O
8 2 8
direct
   0.7424576700000000    0.2568682400000000    0.4902925300000000 Na
   0.2575423300000000    0.7431317600000000    0.5097074700000001 Na
   0.4414275200000000    0.7460284200000000    0.0987418900000000 Na
   0.5585724800000000    0.2539715800000000    0.9012581100000000 Na
   0.9791318400000000    0.2346843200000000    0.0656754700000000 Na
   0.0208681600000000    0.7653156800000001    0.9343245300000000 Na
   0.8881358900000000    0.7740583700000000    0.3118228200000000 Na
   0.1118641100000000    0.2259416300000000    0.6881771800000001 Na
   0.6584084200000000    0.7799431900000000    0.7399772300000000 Ti
   0.3415915800000000    0.2200568100000000    0.2600227700000000 Ti
   0.8693781700000000    0.9780846100000000    0.6952504600000000 O
   0.1306218300000000    0.0219153900000000    0.3047495400000000 O
   0.6717560700000000    0.0241861800000000    0.1327800400000000 O
   0.3282439300000000    0.9758138200000001    0.8672199600000000 O
   0.2039879300000000    0.4797616300000000    0.1215010300000000 O
   0.7960120700000000    0.5202383700000000    0.8784989700000000 O
   0.3499854800000000    0.3417720700000000    0.4446585300000000 O
   0.6500145200000000    0.6582279300000000    0.5553414700000000 O
