Sr4 Y8 S16
1.0
  11.7970584200000008    0.0000000000000000    0.0000000000000000
   0.0000000000000000    3.9483647600000000    0.0000000000000000
   0.0000000000000000    0.0000000000000000   14.2088446899999994
Sr Y S
4 8 16
direct
   0.7559672000000000    0.2500000000000000    0.3384352000000000 Sr
   0.2440328000000000    0.7500000000000000    0.6615648000000000 Sr
   0.2559672000000000    0.2500000000000000    0.1615648000000000 Sr
   0.7440328000000000    0.7500000000000000    0.8384352000000000 Sr
   0.4276510200000000    0.2500000000000000    0.3912670500000000 Y
   0.5723489800000000    0.7500000000000000    0.6087329500000001 Y
   0.9276510200000000    0.2500000000000000    0.1087329500000000 Y
   0.0723489800000000    0.7500000000000000    0.8912670499999999 Y
   0.9213303300000000    0.2500000000000000    0.6014070200000000 Y
   0.0786696700000000    0.7500000000000000    0.3985929800000000 Y
   0.4213303300000000    0.2500000000000000    0.8985929800000000 Y
   0.5786696700000000    0.7500000000000000    0.1014070200000000 Y
   0.6334104100000000    0.2500000000000000    0.9750789700000000 S
   0.3665895900000000    0.7500000000000000    0.0249210300000000 S
   0.1334104100000000    0.2500000000000000    0.5249210300000000 S
   0.8665895900000000    0.7500000000000000    0.4750789700000000 S
   0.2904133700000000    0.7500000000000000    0.3230703700000000 S
   0.7095866300000000    0.2500000000000000    0.6769296299999999 S
   0.7904133700000000    0.7500000000000000    0.1769296300000000 S
   0.2095866300000000    0.2500000000000000    0.8230703700000001 S
   0.5836761600000000    0.7500000000000000    0.4196598500000000 S
   0.4163238400000000    0.2500000000000000    0.5803401500000001 S
   0.0836761600000000    0.7500000000000000    0.0803401500000000 S
   0.9163238400000000    0.2500000000000000    0.9196598499999999 S
   0.9808790300000000    0.7500000000000000    0.7165403200000000 S
   0.0191209700000000    0.2500000000000000    0.2834596800000000 S
   0.4808790300000000    0.7500000000000000    0.7834596800000000 S
   0.5191209700000000    0.2500000000000000    0.2165403200000000 S
