Rb2 Tl2 O2
1.0
   6.6997842500000004   -1.8339827500000001    0.0074855700000000
   6.6997842500000004    1.8339827500000001    0.0074855700000000
  -1.8451716400000000    0.0000000000000000    6.1136949800000000
Rb Tl O
2 2 2
direct
   0.1246101400000000    0.1246101400000000    0.3434617900000000 Rb
   0.8753898600000000    0.8753898600000000    0.6565382100000000 Rb
   0.3571726200000000    0.3571726200000000    0.1480386300000000 Tl
   0.6428273799999999    0.6428273799999999    0.8519613700000001 Tl
   0.7508589800000000    0.7508589800000000    0.2124334500000000 O
   0.2491410200000000    0.2491410200000000    0.7875665500000000 O
