Sr3 P2 O8
1.0
   2.6869323999999999    1.5513008399999999    6.5809560600000001
  -2.6869323999999999    1.5513008399999999    6.5809560600000001
   0.0000000000000000   -3.1026026700000000    6.5809560600000001
Sr P O
3 2 8
direct
   0.0000000000000000    0.0000000000000000    0.0000000000000000 Sr
   0.2063648900000000    0.2063648900000000    0.2063648900000000 Sr
   0.7936351100000000    0.7936351100000000    0.7936351100000000 Sr
   0.4067673700000000    0.4067673700000000    0.4067673700000000 P
   0.5932326300000000    0.5932326300000000    0.5932326300000000 P
   0.3288176800000000    0.3288176800000000    0.3288176800000000 O
   0.6711823200000000    0.6711823200000000    0.6711823200000000 O
   0.2761898900000000    0.7481500500000000    0.2761898900000000 O
   0.2761898900000000    0.2761898900000000    0.7481500500000000 O
   0.7481500500000000    0.2761898900000000    0.2761898900000000 O
   0.7238101100000000    0.2518499500000000    0.7238101100000000 O
   0.7238101100000000    0.7238101100000000    0.2518499500000000 O
   0.2518499500000000    0.7238101100000000    0.7238101100000000 O
