Li2 Tl2 O4
1.0
  -2.2868021000000001    2.2868021000000001    4.5663537500000002
   2.2868021000000001   -2.2868021000000001    4.5663537500000002
   2.2868021000000001    2.2868021000000001   -4.5663537500000002
Li Tl O
2 2 4
direct
   0.5000000000000000    0.5000000000000000    0.0000000000000000 Li
   0.2500000000000000    0.7500000000000000    0.5000000000000000 Li
   0.0000000000000000    0.0000000000000000    0.0000000000000000 Tl
   0.7500000000000000    0.2500000000000000    0.5000000000000000 Tl
   0.2452256000000000    0.2452256000000000    0.0000000000000000 O
   0.7547744000000000    0.7547744000000000    0.0000000000000000 O
   0.9952256000000000    0.4952256000000000    0.5000000000000000 O
   0.5047744000000000    0.0047744000000000    0.5000000000000000 O
