Sr4 Hf4 S12
1.0
   7.0944062700000003    0.0000000000000000    0.0000000000000000
   0.0000000000000000    9.7201033700000004    0.0000000000000000
   0.0000000000000000    0.0000000000000000    6.6987570099999996
Sr Hf S
4 4 12
direct
   0.4180403000000000    0.2500000000000000    0.0261709000000000 Sr
   0.5819597000000000    0.7500000000000000    0.9738291000000000 Sr
   0.0819597000000000    0.7500000000000000    0.5261709000000000 Sr
   0.9180403000000000    0.2500000000000000    0.4738291000000000 Sr
   0.0000000000000000    0.0000000000000000    0.0000000000000000 Hf
   0.5000000000000000    0.0000000000000000    0.5000000000000000 Hf
   0.0000000000000000    0.5000000000000000    0.0000000000000000 Hf
   0.5000000000000000    0.5000000000000000    0.5000000000000000 Hf
   0.1952410200000000    0.0512571200000000    0.3101562400000000 S
   0.8047589800000000    0.9487428800000000    0.6898437600000000 S
   0.3047589800000000    0.9487428800000000    0.8101562400000000 S
   0.8047589800000000    0.5512571200000000    0.6898437600000000 S
   0.6952410200000000    0.0512571200000000    0.1898437600000000 S
   0.1952410200000000    0.4487428800000000    0.3101562400000000 S
   0.6952410200000000    0.4487428800000000    0.1898437600000000 S
   0.3047589800000000    0.5512571200000000    0.8101562400000000 S
   0.5200271700000000    0.2500000000000000    0.6010072500000000 S
   0.4799728300000000    0.7500000000000000    0.3989927500000000 S
   0.9799728300000000    0.7500000000000000    0.1010072500000000 S
   0.0200271700000000    0.2500000000000000    0.8989927500000000 S
