Bi4 Te4 W2 O20
1.0
   6.1955099499999999   -2.7822644400000001   -0.0071373700000000
   6.1955099499999999    2.7822644400000001   -0.0071373700000000
  -0.2749008200000000    0.0000000000000000   12.2539735400000005
Bi Te W O
4 4 2 20
direct
   0.6600350400000000    0.1527344700000000    0.9529559100000000 Bi
   0.1527344700000000    0.6600350400000000    0.4529559100000000 Bi
   0.8472655300000000    0.3399649600000000    0.5470440900000000 Bi
   0.3399649600000000    0.8472655300000000    0.0470440900000000 Bi
   0.9237926500000000    0.4655355600000000    0.8583062900000000 Te
   0.0762073500000000    0.5344644400000000    0.1416937100000000 Te
   0.4655355600000000    0.9237926500000000    0.3583062900000000 Te
   0.5344644400000000    0.0762073500000000    0.6416937100000000 Te
   0.8161011800000000    0.1838988200000000    0.2500000000000000 W
   0.1838988200000000    0.8161011800000000    0.7500000000000000 W
   0.5268619700000000    0.3206202100000000    0.5612801200000000 O
   0.3206202100000000    0.5268619700000000    0.0612801200000000 O
   0.0949121300000000    0.9004234400000000    0.5998073100000000 O
   0.0114721400000000    0.2223568700000000    0.7446506000000001 O
   0.2231401400000000    0.2184365200000000    0.9523627500000000 O
   0.9885278600000000    0.7776431300000000    0.2553494000000000 O
   0.9050878700000000    0.0995765600000000    0.4001926900000000 O
   0.9004234400000000    0.0949121300000000    0.0998073100000000 O
   0.7768598600000000    0.7815634800000000    0.0476372500000000 O
   0.2223568700000000    0.0114721400000000    0.2446506000000000 O
   0.7231743800000000    0.5001414700000000    0.2410976800000000 O
   0.2768256200000000    0.4998585300000000    0.7589023200000000 O
   0.4731380300000000    0.6793797900000000    0.4387198800000000 O
   0.2184365200000000    0.2231401400000000    0.4523627500000000 O
   0.7776431300000000    0.9885278600000000    0.7553493999999999 O
   0.4998585300000000    0.2768256200000000    0.2589023200000000 O
   0.7815634800000000    0.7768598600000000    0.5476372500000000 O
   0.0995765600000000    0.9050878700000000    0.9001926900000000 O
   0.6793797900000000    0.4731380300000000    0.9387198800000000 O
   0.5001414700000000    0.7231743800000000    0.7410976800000000 O
