Li2 Al2 P4 S12
1.0
   3.3688602300000001   -5.1307333799999997    0.0041691700000000
   3.3688602300000001    5.1307333799999997    0.0041691700000000
  -0.9713292600000000    0.0000000000000000   11.9005259500000005
Li Al P S
2 2 4 12
direct
   0.1515746500000000    0.8484253500000000    0.7500000000000000 Li
   0.8484253500000000    0.1515746500000000    0.2500000000000000 Li
   0.5165606700000001    0.4834393300000000    0.7500000000000000 Al
   0.4834393300000000    0.5165606700000001    0.2500000000000000 Al
   0.6870472800000000    0.0114232200000000    0.7803169300000000 P
   0.9885767800000000    0.3129527200000000    0.7196830700000000 P
   0.3129527200000000    0.9885767800000000    0.2196830700000000 P
   0.0114232200000000    0.6870472800000000    0.2803169300000000 P
   0.8029200100000000    0.8074936200000000    0.8747438500000000 S
   0.1925063800000000    0.1970799900000000    0.6252561500000000 S
   0.1970799900000000    0.1925063800000000    0.1252561500000000 S
   0.8074936200000000    0.8029200100000000    0.3747438500000000 S
   0.5007297700000000    0.8086257000000000    0.6411681900000000 S
   0.1913743000000000    0.4992702300000000    0.8588318100000000 S
   0.4992702300000000    0.1913743000000000    0.3588318100000000 S
   0.8086257000000000    0.5007297700000000    0.1411681900000000 S
   0.5178165400000000    0.1798678800000000    0.8706110200000000 S
   0.8201321200000000    0.4821834600000000    0.6293889800000000 S
   0.4821834600000000    0.8201321200000000    0.1293889800000000 S
   0.1798678800000000    0.5178165400000000    0.3706110200000000 S
