Ag20 Bi4 O16
1.0
   5.7560844400000004    0.0000000000000000    0.0023948600000000
   0.0000000000000000    8.9060169400000007    0.0000000000000000
  -5.5151920900000002    0.0000000000000000   12.3825728900000005
Ag Bi O
20 4 16
direct
   0.1242754200000000    0.2263371300000000    0.3748460500000000 Ag
   0.1242754200000000    0.2736628700000000    0.8748460500000000 Ag
   0.0000000000000000    0.0000000000000000    0.5000000000000000 Ag
   0.0000000000000000    0.5000000000000000    0.0000000000000000 Ag
   0.3720349600000000    0.6440000100000000    0.8494378000000000 Ag
   0.6279650400000000    0.1440000100000000    0.6505622000000000 Ag
   0.6279650400000000    0.3559999900000000    0.1505622000000000 Ag
   0.3720349600000000    0.8559999900000000    0.3494378000000000 Ag
   0.2903556000000000    0.4927660100000000    0.2540748300000000 Ag
   0.7096444000000000    0.9927660100000000    0.2459251700000000 Ag
   0.7096444000000000    0.5072339900000000    0.7459251700000000 Ag
   0.2903556000000000    0.0072339900000000    0.7540748300000000 Ag
   0.5000000000000000    0.5000000000000000    0.5000000000000000 Ag
   0.5000000000000000    0.0000000000000000    0.0000000000000000 Ag
   0.3859569900000000    0.7680509900000000    0.6305067600000001 Ag
   0.6140430099999999    0.2680509900000000    0.8694932399999999 Ag
   0.6140430099999999    0.2319490100000000    0.3694932400000000 Ag
   0.3859569900000000    0.7319490100000000    0.1305067600000000 Ag
   0.8757245800000000    0.7736628700000000    0.6251539500000000 Ag
   0.8757245800000000    0.7263371300000000    0.1251539500000000 Ag
   0.9206880900000000    0.8796232200000000    0.8780930100000000 Bi
   0.0793119100000000    0.3796232200000000    0.6219069900000000 Bi
   0.0793119100000000    0.1203767800000000    0.1219069900000000 Bi
   0.9206880900000000    0.6203767800000000    0.3780930100000000 Bi
   0.9708322300000000    0.8651994500000000    0.3715066900000000 O
   0.0291677700000000    0.3651994500000000    0.1284933100000000 O
   0.0291677700000000    0.1348005500000000    0.6284933100000000 O
   0.9708322300000000    0.6348005500000000    0.8715066900000000 O
   0.3057591000000000    0.4095853200000000    0.8039647300000000 O
   0.6942409000000000    0.9095853200000000    0.6960352700000000 O
   0.0713908400000000    0.6336753100000000    0.5641079800000000 O
   0.9286091600000000    0.1336753100000000    0.9358920200000000 O
   0.9286091600000000    0.3663246900000000    0.4358920200000000 O
   0.0713908400000000    0.8663246900000000    0.0641079800000000 O
   0.5467049000000000    0.6348998600000000    0.3801582900000000 O
   0.4532951000000000    0.1348998600000000    0.1198417100000000 O
   0.4532951000000000    0.3651001400000000    0.6198417100000000 O
   0.5467049000000000    0.8651001400000000    0.8801582900000000 O
   0.6942409000000000    0.5904146800000000    0.1960352700000000 O
   0.3057591000000000    0.0904146800000000    0.3039647300000000 O
