Mg8 Ge4 S16
1.0
  12.7587439699999994    0.0000000000000000    0.0000000000000000
   0.0000000000000000    7.4280492999999996    0.0000000000000000
   0.0000000000000000    0.0000000000000000    6.0068511300000003
Mg Ge S
8 4 16
direct
   0.2305911400000000    0.2500000000000000    0.4951397300000000 Mg
   0.7305911400000000    0.2500000000000000    0.0048602700000000 Mg
   0.7694088600000000    0.7500000000000000    0.5048602700000000 Mg
   0.2694088600000000    0.7500000000000000    0.9951397300000000 Mg
   0.0000000000000000    0.0000000000000000    0.0000000000000000 Mg
   0.5000000000000000    0.5000000000000000    0.5000000000000000 Mg
   0.0000000000000000    0.5000000000000000    0.0000000000000000 Mg
   0.5000000000000000    0.0000000000000000    0.5000000000000000 Mg
   0.9105984200000000    0.2500000000000000    0.5871116500000000 Ge
   0.4105984200000000    0.2500000000000000    0.9128883500000000 Ge
   0.0894015800000000    0.7500000000000000    0.4128883500000000 Ge
   0.5894015800000000    0.7500000000000000    0.0871116500000000 Ge
   0.9070141700000000    0.2500000000000000    0.2201703500000000 S
   0.4070141700000000    0.2500000000000000    0.2798296500000000 S
   0.0929858300000000    0.7500000000000000    0.7798296500000000 S
   0.5929858300000000    0.7500000000000000    0.7201703500000000 S
   0.8318090200000000    0.0160633500000000    0.7536020200000000 S
   0.3318090200000000    0.4839366500000000    0.7463979800000000 S
   0.1681909800000000    0.5160633500000000    0.2463979800000000 S
   0.6681909800000000    0.9839366500000000    0.2536020200000000 S
   0.1681909800000000    0.9839366500000000    0.2463979800000000 S
   0.6681909800000000    0.5160633500000000    0.2536020200000000 S
   0.8318090200000000    0.4839366500000000    0.7536020200000000 S
   0.3318090200000000    0.0160633500000000    0.7463979800000000 S
   0.0699965300000000    0.2500000000000000    0.7458185899999999 S
   0.5699965299999999    0.2500000000000000    0.7541814100000001 S
   0.9300034700000001    0.7500000000000000    0.2541814100000000 S
   0.4300034700000000    0.7500000000000000    0.2458185900000000 S
