Li4 Ca4 B4 O12
1.0
  -3.0138557300000000    3.0427661700000002    6.6074369600000002
   3.0138557300000000   -3.0427661700000002    6.6074369600000002
   3.0138557300000000    3.0427661700000002   -6.6074369600000002
Li Ca B O
4 4 4 12
direct
   0.0283916500000000    0.2500000000000000    0.2783916500000000 Li
   0.4716083500000000    0.7500000000000000    0.2216083500000000 Li
   0.9716083500000000    0.7500000000000000    0.7216083500000000 Li
   0.5283916500000000    0.2500000000000000    0.7783916500000000 Li
   0.0694639600000000    0.3194639600000000    0.7500000000000000 Ca
   0.4305360400000000    0.1805360400000000    0.2500000000000000 Ca
   0.9305360400000000    0.6805360400000000    0.2500000000000000 Ca
   0.5694639600000000    0.8194639600000000    0.7500000000000000 Ca
   0.3516747700000000    0.6016747700000000    0.7500000000000000 B
   0.1483252300000000    0.8983252300000000    0.2500000000000000 B
   0.6483252300000000    0.3983252300000000    0.2500000000000000 B
   0.8516747700000000    0.1016747700000000    0.7500000000000000 B
   0.4568118700000000    0.2032080800000000    0.9700892300000000 O
   0.0431881300000000    0.0132773500000000    0.7463962100000000 O
   0.7331188600000000    0.4867226500000000    0.5299107700000000 O
   0.7668811400000000    0.2967919200000000    0.7536037900000000 O
   0.5431881300000000    0.7967919200000000    0.0299107700000000 O
   0.9568118700000000    0.9867226500000000    0.2536037900000000 O
   0.2668811400000000    0.5132773500000000    0.4700892300000000 O
   0.2331188600000000    0.7032080800000000    0.2463962100000000 O
   0.2474510500000000    0.4974510500000000    0.7500000000000000 O
   0.2525489500000000    0.0025489500000000    0.2500000000000000 O
   0.7525489500000000    0.5025489500000000    0.2500000000000000 O
   0.7474510500000000    0.9974510500000000    0.7500000000000000 O
