Sr2 Cu4 O4
1.0
  -2.6874477400000001    2.6874477400000001    4.8953738099999997
   2.6874477400000001   -2.6874477400000001    4.8953738099999997
   2.6874477400000001    2.6874477400000001   -4.8953738099999997
Sr Cu O
2 4 4
direct
   0.2500000000000000    0.7500000000000000    0.5000000000000000 Sr
   0.5000000000000000    0.5000000000000000    0.0000000000000000 Sr
   0.8750000000000000    0.6250000000000000    0.7500000000000000 Cu
   0.8750000000000000    0.1250000000000000    0.7500000000000000 Cu
   0.8750000000000000    0.1250000000000000    0.2500000000000000 Cu
   0.3750000000000000    0.1250000000000000    0.2500000000000000 Cu
   0.2509018200000000    0.2509018200000000    0.0000000000000000 O
   0.0009018200000000    0.5009018200000001    0.5000000000000000 O
   0.4990981800000000    0.9990981799999999    0.5000000000000000 O
   0.7490981799999999    0.7490981799999999    0.0000000000000000 O
