Cd4 Mo1 W3 O16
1.0
   5.0175182999999999   -5.8876882000000004    0.0249606400000000
   5.0175182999999999    5.8876882000000004    0.0249606400000000
  -0.1651899000000000    0.0000000000000000    5.0950003099999996
Cd Mo W O
4 1 3 16
direct
   0.9027734800000000    0.5931579200000000    0.5008580600000000 Cd
   0.4068420800000000    0.0972265200000000    0.4991419400000000 Cd
   0.0932275400000000    0.4056016400000000    0.9986314100000000 Cd
   0.5943983600000000    0.9067724600000000    0.0013685900000000 Cd
   0.4114317500000000    0.5885682500000000    0.5000000000000000 Mo
   0.5859296100000000    0.4140703900000000    0.0000000000000000 W
   0.0864294900000000    0.9135705100000000    0.0000000000000000 W
   0.9148787300000000    0.0851212700000000    0.5000000000000000 W
   0.8061973400000000    0.4370489600000000    0.1335481600000000 O
   0.3061941500000000    0.9371570400000000    0.1334817100000000 O
   0.0628429600000000    0.6938058499999999    0.8665182900000000 O
   0.5629510400000000    0.1938026600000000    0.8664518400000000 O
   0.1924426400000000    0.5621279900000000    0.3671261700000000 O
   0.6947905400000000    0.0612945900000000    0.3683485700000000 O
   0.9387054100000000    0.3052094600000000    0.6316514300000000 O
   0.4378720100000000    0.8075573600000000    0.6328738300000000 O
   0.0525569700000000    0.1486565700000000    0.1939542800000000 O
   0.5525270300000000    0.6491995800000000    0.1955438700000000 O
   0.3508004200000000    0.4474729700000000    0.8044561300000000 O
   0.8513434300000000    0.9474430300000000    0.8060457200000000 O
   0.9486730000000000    0.8501694600000000    0.3057758300000000 O
   0.4469675400000000    0.3506090900000000    0.3022577400000000 O
   0.6493909100000000    0.5530324599999999    0.6977422599999999 O
   0.1498305400000000    0.0513270000000000    0.6942241700000000 O
