Zr4 Se2 N4
1.0
   3.6690348099999999    0.0000000000000000    0.0000000000000000
  -1.8345174000000000    3.1774776199999999    0.0000000000000000
   0.0000000000000000    0.0000000000000000   13.2623622399999999
Zr Se N
4 2 4
direct
   0.6666670000000000    0.3333330000000000    0.0991514100000000 Zr
   0.3333330000000000    0.6666670000000000    0.9008485899999999 Zr
   0.3333330000000000    0.6666670000000000    0.5991514100000001 Zr
   0.6666670000000000    0.3333330000000000    0.4008485900000000 Zr
   0.0000000000000000    0.0000000000000000    0.7500000000000000 Se
   0.0000000000000000    0.0000000000000000    0.2500000000000000 Se
   0.6666670000000000    0.3333330000000000    0.9335143299999999 N
   0.3333330000000000    0.6666670000000000    0.0664856700000000 N
   0.3333330000000000    0.6666670000000000    0.4335143300000000 N
   0.6666670000000000    0.3333330000000000    0.5664856700000001 N
