Rb8 As8 Se16
1.0
  11.4767390599999999   -4.9515889599999996   -0.0051362300000000
  11.4767390599999999    4.9515889599999996   -0.0051362300000000
  -1.9281504199999999    0.0000000000000000    9.1533122999999996
Rb As Se
8 8 16
direct
   0.5360768100000000    0.4639231900000000    0.2500000000000000 Rb
   0.4639231900000000    0.5360768100000000    0.7500000000000000 Rb
   0.9773026700000000    0.0226973300000000    0.2500000000000000 Rb
   0.0226973300000000    0.9773026700000000    0.7500000000000000 Rb
   0.2725553800000000    0.1290207100000000    0.8387344600000000 Rb
   0.8709792900000000    0.7274446200000000    0.6612655400000000 Rb
   0.7274446200000000    0.8709792900000000    0.1612655400000000 Rb
   0.1290207100000000    0.2725553800000000    0.3387344600000000 Rb
   0.7946257100000000    0.5070344100000000    0.0507943300000000 As
   0.4047598100000000    0.8087054100000000    0.1592061000000000 As
   0.1912945900000000    0.5952401899999999    0.3407939000000000 As
   0.5952401899999999    0.1912945900000000    0.8407939000000000 As
   0.8087054100000000    0.4047598100000000    0.6592061000000000 As
   0.4929655900000000    0.2053742900000000    0.4492056700000000 As
   0.2053742900000000    0.4929655900000000    0.9492056700000000 As
   0.5070344100000000    0.7946257100000000    0.5507943300000000 As
   0.0223186200000000    0.1826482600000000    0.5638274400000000 Se
   0.8173517400000000    0.9776813800000000    0.9361725600000000 Se
   0.9776813800000000    0.8173517400000000    0.4361725600000000 Se
   0.4822317300000000    0.9142167200000000    0.3510556000000000 Se
   0.1826482600000000    0.0223186200000000    0.0638274400000000 Se
   0.9142167200000000    0.4822317300000000    0.8510556000000000 Se
   0.5177682700000000    0.0857832800000000    0.6489444000000000 Se
   0.0857832800000000    0.5177682700000000    0.1489444000000000 Se
   0.3262675800000000    0.7826368400000000    0.4864221000000000 Se
   0.2173631600000000    0.6737324200000000    0.0135779000000000 Se
   0.6737324200000000    0.2173631600000000    0.5135779000000000 Se
   0.7826368400000000    0.3262675800000000    0.9864221000000000 Se
   0.7406522100000000    0.5545078600000000    0.4645753000000000 Se
   0.4454921400000000    0.2593477900000000    0.0354247000000000 Se
   0.2593477900000000    0.4454921400000000    0.5354247000000000 Se
   0.5545078600000000    0.7406522100000000    0.9645753000000000 Se
