Mg2 In4 S8
1.0
   0.0000000000000000    5.3969468799999998    5.3969468799999998
   5.3969468799999998    0.0000000000000000    5.3969468799999998
   5.3969468799999998    5.3969468799999998    0.0000000000000000
Mg In S
2 4 8
direct
   0.5000000000000000    0.5000000000000000    0.5000000000000000 Mg
   0.7500000000000000    0.7500000000000000    0.7500000000000000 Mg
   0.1250000000000000    0.1250000000000000    0.6250000000000000 In
   0.1250000000000000    0.6250000000000000    0.1250000000000000 In
   0.6250000000000000    0.1250000000000000    0.1250000000000000 In
   0.1250000000000000    0.1250000000000000    0.1250000000000000 In
   0.8818738900000000    0.8818738900000000    0.8818738900000000 S
   0.3543793200000000    0.8818738900000000    0.8818738900000000 S
   0.8818738900000000    0.3543793200000000    0.8818738900000000 S
   0.8818738900000000    0.8818738900000000    0.3543793200000000 S
   0.3681261100000000    0.8956206799999999    0.3681261100000000 S
   0.3681261100000000    0.3681261100000000    0.8956206799999999 S
   0.8956206799999999    0.3681261100000000    0.3681261100000000 S
   0.3681261100000000    0.3681261100000000    0.3681261100000000 S
