Cs4 Sb4 S8
1.0
   7.4926247400000001    0.0000000000000000   -0.0170244400000000
   0.0000000000000000    9.7063828999999995    0.0000000000000000
  -1.5391541900000001    0.0000000000000000    6.9538082299999999
Cs Sb S
4 4 8
direct
   0.6490270400000000    0.0650504800000000    0.2892750200000000 Cs
   0.3509729600000000    0.5650504800000000    0.2107249800000000 Cs
   0.3509729600000000    0.9349495200000000    0.7107249800000000 Cs
   0.6490270400000000    0.4349495200000000    0.7892750200000000 Cs
   0.9164256800000000    0.8311462900000000    0.8678807500000000 Sb
   0.0835743200000000    0.1688537100000000    0.1321192500000000 Sb
   0.0835743200000000    0.3311462900000000    0.6321192500000000 Sb
   0.9164256800000000    0.6688537100000000    0.3678807500000000 Sb
   0.1726585500000000    0.9312348800000000    0.2010905800000000 S
   0.8273414500000000    0.4312348800000000    0.2989094200000000 S
   0.8273414500000000    0.0687651200000000    0.7989094200000000 S
   0.1726585500000000    0.5687651200000000    0.7010905800000000 S
   0.6889950600000000    0.7535209700000000    0.0468784600000000 S
   0.3110049400000000    0.2535209700000000    0.4531215400000000 S
   0.3110049400000000    0.2464790300000000    0.9531215400000000 S
   0.6889950600000000    0.7464790300000000    0.5468784600000000 S
