Ba1 Mo4 P2 O16
1.0
  -3.7542075600000002    3.7542075600000002    5.5822662500000000
   3.7542075600000002   -3.7542075600000002    5.5822662500000000
   3.7542075600000002    3.7542075600000002   -5.5822662500000000
Ba Mo P O
1 4 2 16
direct
   0.0000000000000000    0.0000000000000000    0.0000000000000000 Ba
   0.2502100700000000    0.2502100700000000    0.7565684800000000 Mo
   0.7497899300000000    0.5063584200000000    0.0000000000000000 Mo
   0.4936415800000000    0.4936415800000000    0.2434315200000000 Mo
   0.5063584200000000    0.7497899300000000    0.0000000000000000 Mo
   0.5000000000000000    0.0000000000000000    0.5000000000000000 P
   0.0000000000000000    0.5000000000000000    0.5000000000000000 P
   0.0804790200000000    0.0804790200000000    0.7223122700000000 O
   0.1926544700000000    0.7051809300000000    0.7403510900000000 O
   0.5465508600000000    0.2839775600000000    0.0000000000000000 O
   0.5476956200000000    0.8073455300000000    0.5125254600000000 O
   0.8073455300000000    0.5476956200000000    0.5125254600000000 O
   0.2948190700000000    0.0351701700000000    0.4874745400000000 O
   0.4523043800000000    0.9648298300000000    0.2596489100000000 O
   0.9648298300000000    0.4523043800000000    0.2596489100000000 O
   0.7160224400000000    0.7160224400000000    0.2625743000000000 O
   0.7051809300000000    0.1926544700000000    0.7403510900000000 O
   0.4534491400000000    0.4534491400000000    0.7374257000000000 O
   0.3581657400000000    0.3581657400000000    0.2776877300000000 O
   0.2839775600000000    0.5465508600000000    0.0000000000000000 O
   0.0351701700000000    0.2948190700000000    0.4874745400000000 O
   0.9195209800000000    0.6418342600000000    0.0000000000000000 O
   0.6418342600000000    0.9195209800000000    0.0000000000000000 O
