Ti6 N4 O6
1.0
   4.8985785899999996   -1.9552758299999999    0.0032485500000000
   4.8985785899999996    1.9552758299999999    0.0032485500000000
  -0.0668578800000000    0.0000000000000000    9.8780569400000005
Ti N O
6 4 6
direct
   0.8542992600000000    0.8542992600000000    0.4369306500000000 Ti
   0.8515452100000001    0.8515452100000001    0.0601216600000000 Ti
   0.8003819200000000    0.8003819200000000    0.7516950100000001 Ti
   0.1998498000000000    0.1998498000000000    0.2442602500000000 Ti
   0.1424225700000000    0.1424225700000000    0.9432495100000000 Ti
   0.1387599300000000    0.1387599300000000    0.5604444000000000 Ti
   0.6928774100000000    0.6928774100000000    0.5715493699999999 N
   0.6876345400000000    0.6876345400000000    0.9216278000000000 N
   0.7622220000000000    0.7622220000000000    0.2547820300000000 N
   0.3077643400000000    0.3077643400000000    0.0714695300000000 N
   0.9517851100000000    0.9517851100000000    0.8814696100000000 O
   0.9554899400000000    0.9554899400000000    0.6201829700000000 O
   0.0488265000000000    0.0488265000000000    0.3839331800000000 O
   0.0460061600000000    0.0460061600000000    0.1185563500000000 O
   0.3149234300000000    0.3149234300000000    0.4312758200000000 O
   0.2452198900000000    0.2452198900000000    0.7484498500000000 O
