Cs4 Al4 Si4 O16
1.0
   8.9583606200000006    0.0000000000000000    0.0000000000000000
   0.0000000000000000    9.4015794499999998    0.0000000000000000
   0.0000000000000000    0.0000000000000000    5.4198517099999997
Cs Al Si O
4 4 4 16
direct
   0.0007663300000000    0.2971698100000000    0.4875047500000000 Cs
   0.9992336700000000    0.7028301900000000    0.9875047500000000 Cs
   0.4992336700000000    0.7971698100000000    0.9875047500000000 Cs
   0.5007663300000000    0.2028301900000000    0.4875047500000000 Cs
   0.8163546400000000    0.0843159400000000    0.9998214100000000 Al
   0.1836453600000000    0.9156840600000000    0.4998214100000000 Al
   0.6836453600000000    0.5843159400000000    0.4998214100000000 Al
   0.3163546400000000    0.4156840600000000    0.9998214100000000 Al
   0.6904767500000000    0.4156825200000000    0.0000760000000000 Si
   0.3095232500000000    0.5843174799999999    0.5000760000000000 Si
   0.8095232500000000    0.9156825200000001    0.5000760000000000 Si
   0.1904767500000000    0.0843174800000000    0.0000760000000000 Si
   0.5098172700000000    0.4114210100000000    0.0002671000000000 O
   0.4901827300000000    0.5885789900000000    0.5002671000000000 O
   0.9901827300000000    0.9114210100000000    0.5002671000000000 O
   0.0098172700000000    0.0885789900000000    0.0002671000000000 O
   0.7530104100000000    0.4726008000000000    0.7339336800000000 O
   0.2469895900000000    0.5273992000000000    0.2339336800000000 O
   0.7469895900000000    0.9726008000000000    0.2339336800000000 O
   0.2530104100000000    0.0273992000000000    0.7339336800000000 O
   0.7524934700000000    0.5223281800000000    0.2163608900000000 O
   0.2475065300000000    0.4776718200000000    0.7163608900000000 O
   0.7475065300000000    0.0223281800000000    0.7163608900000000 O
   0.2524934700000000    0.9776718200000000    0.2163608900000000 O
   0.7531606500000000    0.2565732800000000    0.0550351800000000 O
   0.2468393500000000    0.7434267200000000    0.5550351800000000 O
   0.7468393500000000    0.7565732800000000    0.5550351800000000 O
   0.2531606500000000    0.2434267200000000    0.0550351800000000 O
