Sr3 Cu6 Ge3 S12
1.0
   6.0889741099999997    0.0000000000000000    0.0000000000000000
  -3.0444870599999998    5.2732061899999998    0.0000000000000000
   0.0000000000000000    0.0000000000000000   15.1062093500000003
Sr Cu Ge S
3 6 3 12
direct
   0.4480858600000000    0.4480858600000000    0.0000000000000000 Sr
   0.0000000000000000    0.5519141400000001    0.3333330000000000 Sr
   0.5519141400000001    0.0000000000000000    0.6666670000000000 Sr
   0.3486304800000000    0.4241690700000000    0.7551611800000000 Cu
   0.9244604100000000    0.5758309300000000    0.5781718200000000 Cu
   0.4241690700000000    0.3486304800000000    0.2448388200000000 Cu
   0.0755395900000000    0.6513695200000000    0.0884951800000000 Cu
   0.5758309300000000    0.9244604100000000    0.4218281800000000 Cu
   0.6513695200000000    0.0755395900000000    0.9115048200000000 Cu
   0.7131171800000000    0.0000000000000000    0.1666670000000000 Ge
   1.0000000000000000    0.7131171800000000    0.8333330000000000 Ge
   0.2868828200000000    0.2868828200000000    0.5000000000000000 Ge
   0.7670113800000000    0.6617587700000001    0.1687490700000000 S
   0.8947473900000000    0.2329886200000000    0.5020820700000000 S
   0.3382412300000000    0.1052526100000000    0.8354160700000000 S
   0.1052526100000000    0.3382412300000000    0.1645839300000000 S
   0.2329886200000000    0.8947473900000000    0.4979179300000000 S
   0.6617587700000001    0.7670113800000000    0.8312509300000001 S
   0.9634865600000000    0.4691969600000000    0.9492094800000000 S
   0.5057104100000001    0.0365134400000000    0.2825434800000000 S
   0.0365134400000000    0.5057104100000001    0.7174565200000000 S
   0.4691969600000000    0.9634865600000000    0.0507905200000000 S
   0.4942895900000000    0.5308030400000000    0.3841235200000000 S
   0.5308030400000000    0.4942895900000000    0.6158764799999999 S
