Li10 W2 N2 O8
1.0
   4.5752335300000002   -2.4489849499999998    0.0000000000000000
   4.5752335300000002    2.4489849499999998    0.0000000000000000
   0.0000000000000000    0.0000000000000000    9.6239844399999992
Li W N O
10 2 2 8
direct
   0.2347140000000000    0.1952446200000000    0.9950382300000000 Li
   0.1952446200000000    0.2347140000000000    0.4950382300000000 Li
   0.4426631900000000    0.1714655300000000    0.7436083300000000 Li
   0.1714655300000000    0.4426631900000000    0.2436083300000000 Li
   0.4252418100000000    0.5747581899999999    0.4726572500000000 Li
   0.5747581899999999    0.4252418100000000    0.9726572500000000 Li
   0.8285344700000000    0.5573368100000000    0.7436083300000000 Li
   0.5573368100000000    0.8285344700000000    0.2436083300000000 Li
   0.8047553800000000    0.7652860000000000    0.9950382300000000 Li
   0.7652860000000000    0.8047553800000000    0.4950382300000000 Li
   0.8122629800000000    0.1877370200000000    0.2508715500000000 W
   0.1877370200000000    0.8122629800000000    0.7508715500000001 W
   0.1690454400000000    0.8309545600000000    0.2694472000000000 N
   0.8309545600000000    0.1690454400000000    0.7694472000000000 N
   0.5364647800000000    0.1679801000000000    0.3787463800000000 O
   0.1679801000000000    0.5364647800000000    0.8787463800000000 O
   0.5786223400000000    0.1284507400000000    0.1113550600000000 O
   0.1284507400000000    0.5786223400000000    0.6113550600000000 O
   0.8715492600000000    0.4213776600000000    0.1113550600000000 O
   0.4213776600000000    0.8715492600000000    0.6113550600000000 O
   0.8320199000000000    0.4635352200000000    0.3787463800000000 O
   0.4635352200000000    0.8320199000000000    0.8787463800000000 O
