Ba2 Mg1 B2 O6
1.0
   2.6767308500000002    1.5454117000000001    5.4727759300000001
  -2.6767308500000002    1.5454117000000001    5.4727759300000001
   0.0000000000000000   -3.0908234000000001    5.4727759300000001
Ba Mg B O
2 1 2 6
direct
   0.2234068700000000    0.2234068700000000    0.2234068700000000 Ba
   0.7765931300000000    0.7765931300000000    0.7765931300000000 Ba
   0.0000000000000000    0.0000000000000000    0.0000000000000000 Mg
   0.5892688100000000    0.5892688100000000    0.5892688100000000 B
   0.4107311900000000    0.4107311900000000    0.4107311900000000 B
   0.2595799000000000    0.7101327300000000    0.2595799000000000 O
   0.7101327300000000    0.2595799000000000    0.2595799000000000 O
   0.2595799000000000    0.2595799000000000    0.7101327300000000 O
   0.7404201000000000    0.7404201000000000    0.2898672700000000 O
   0.2898672700000000    0.7404201000000000    0.7404201000000000 O
   0.7404201000000000    0.2898672700000000    0.7404201000000000 O
