Ca4 Be4 B8 O20
1.0
   5.1834158099999996    0.0000000000000000    0.0004663800000000
   0.0000000000000000    3.7384892399999998    0.0000000000000000
  -2.8996106500000001    0.0000000000000000   16.9424329200000017
Ca Be B O
4 4 8 20
direct
   0.2724437900000000    0.8846463100000000    0.5746613100000000 Ca
   0.7275562100000000    0.1153536900000000    0.4253386900000000 Ca
   0.7275562100000000    0.3846463100000000    0.9253386900000000 Ca
   0.2724437900000000    0.6153536900000000    0.0746613100000000 Ca
   0.3950745200000000    0.7628818400000000    0.7894549400000000 Be
   0.6049254800000000    0.2628818400000000    0.7105450600000000 Be
   0.3950745200000000    0.7371181600000000    0.2894549400000000 Be
   0.6049254800000000    0.2371181600000000    0.2105450600000000 Be
   0.9034189700000000    0.7460421699999999    0.7874389800000000 B
   0.2047650600000000    0.0314382800000000    0.9049190100000000 B
   0.0965810300000000    0.2460421700000000    0.7125610200000000 B
   0.0965810300000000    0.2539578300000000    0.2125610200000000 B
   0.7952349399999999    0.9685617200000000    0.0950809900000000 B
   0.7952349399999999    0.5314382800000000    0.5950809900000000 B
   0.2047650600000000    0.4685617200000000    0.4049190100000000 B
   0.9034189700000000    0.7539578300000001    0.2874389800000000 B
   0.0419976600000000    0.4071439200000000    0.6327644800000000 O
   0.5728998500000000    0.4280910800000000    0.6229597100000001 O
   0.8714732700000000    0.0165722100000000    0.7231293000000000 O
   0.7920350800000000    0.7484366400000000    0.5317599800000000 O
   0.0419976600000000    0.0928560800000000    0.1327644800000000 O
   0.2079649200000000    0.2515633600000000    0.4682400200000000 O
   0.3401700800000000    0.0472714000000000    0.7170119000000000 O
   0.7920350800000000    0.7515633600000000    0.0317599800000000 O
   0.1285267300000000    0.5165722100000000    0.7768707000000000 O
   0.6598299200000000    0.9527286000000000    0.2829881000000000 O
   0.5728998500000000    0.0719089200000000    0.1229597100000000 O
   0.4271001500000000    0.5719089200000000    0.3770402900000000 O
   0.2079649200000000    0.2484366400000000    0.9682400200000000 O
   0.1285267300000000    0.9834277900000000    0.2768707000000000 O
   0.9580023400000000    0.9071439200000000    0.8672355200000000 O
   0.3401700800000000    0.4527286000000000    0.2170119000000000 O
   0.9580023400000000    0.5928560800000000    0.3672355200000000 O
   0.8714732700000000    0.4834277900000000    0.2231293000000000 O
   0.6598299200000000    0.5472714000000000    0.7829881000000000 O
   0.4271001500000000    0.9280910800000000    0.8770402899999999 O
