Zr4 P4 O18
1.0
   3.3462978300000001   -4.3729400199999997    0.0000000000000000
   3.3462978300000001    4.3729400199999997    0.0000000000000000
   0.0000000000000000    0.0000000000000000   11.9910730000000001
Zr P O
4 4 18
direct
   0.7070345400000000    0.2929654600000000    0.9371725200000000 Zr
   0.7929654600000000    0.2070345400000000    0.4371725200000000 Zr
   0.2929654600000000    0.7070345400000000    0.0628274800000000 Zr
   0.2070345400000000    0.7929654600000000    0.5628274800000000 Zr
   0.6068417600000000    0.3931582400000000    0.6465137600000000 P
   0.8931582400000000    0.1068417600000000    0.1465137600000000 P
   0.3931582400000000    0.6068417600000000    0.3534862400000000 P
   0.1068417600000000    0.8931582400000000    0.8534862400000000 P
   0.4367244100000000    0.5632755900000000    0.6229730800000000 O
   0.0632755900000000    0.9367244100000000    0.1229730800000000 O
   0.5632755900000000    0.4367244100000000    0.3770269200000000 O
   0.9367244100000000    0.0632755900000000    0.8770269200000000 O
   0.0000000000000000    0.0000000000000000    0.5000000000000000 O
   0.5000000000000000    0.5000000000000000    0.0000000000000000 O
   0.1392108500000000    0.8607891500000000    0.7295645100000000 O
   0.3607891500000000    0.6392108500000000    0.2295645100000000 O
   0.3656310100000000    0.9850546900000000    0.9155275400000000 O
   0.1343689900000000    0.5149453100000000    0.4155275400000000 O
   0.9850546900000000    0.3656310100000000    0.0844724600000000 O
   0.5149453100000000    0.1343689900000000    0.5844724600000000 O
   0.6343689900000000    0.0149453100000000    0.0844724600000000 O
   0.8656310100000000    0.4850546900000000    0.5844724600000000 O
   0.0149453100000000    0.6343689900000000    0.9155275400000000 O
   0.4850546900000000    0.8656310100000000    0.4155275400000000 O
   0.6392108500000000    0.3607891500000000    0.7704354900000000 O
   0.8607891500000000    0.1392108500000000    0.2704354900000000 O
