Mg4 Al8 S16
1.0
  12.4746539999999992    0.0000000000000000    0.0000000000000000
   0.0000000000000000    7.1938604799999997    0.0000000000000000
   0.0000000000000000    0.0000000000000000    5.9097744800000003
Mg Al S
4 8 16
direct
   0.7347702000000000    0.7500000000000000    0.0008478900000000 Mg
   0.7652298000000000    0.2500000000000000    0.5008478900000000 Mg
   0.2652298000000000    0.2500000000000000    0.9991521100000000 Mg
   0.2347702000000000    0.7500000000000000    0.4991521100000000 Mg
   0.9150593400000000    0.7500000000000000    0.5903677300000000 Al
   0.5849406600000000    0.2500000000000000    0.0903677300000000 Al
   0.0849406600000000    0.2500000000000000    0.4096322700000000 Al
   0.4150593400000000    0.7500000000000000    0.9096322700000000 Al
   0.0000000000000000    0.0000000000000000    0.0000000000000000 Al
   0.5000000000000000    0.0000000000000000    0.5000000000000000 Al
   0.0000000000000000    0.5000000000000000    0.0000000000000000 Al
   0.5000000000000000    0.5000000000000000    0.5000000000000000 Al
   0.9154267600000000    0.7500000000000000    0.2118505300000000 S
   0.5845732400000000    0.2500000000000000    0.7118505300000000 S
   0.0845732400000000    0.2500000000000000    0.7881494700000000 S
   0.4154267600000000    0.7500000000000000    0.2881494700000000 S
   0.5751468199999999    0.7500000000000000    0.7277901500000000 S
   0.9248531800000001    0.2500000000000000    0.2277901500000000 S
   0.4248531800000000    0.2500000000000000    0.2722098500000000 S
   0.0751468200000000    0.7500000000000000    0.7722098500000000 S
   0.8412195500000000    0.9967731800000000    0.7617887900000000 S
   0.6587804500000000    0.0032268200000000    0.2617887900000000 S
   0.1587804500000000    0.4967731800000000    0.2382112100000000 S
   0.3412195500000000    0.5032268200000000    0.7382112100000000 S
   0.1587804500000000    0.0032268200000000    0.2382112100000000 S
   0.3412195500000000    0.9967731800000000    0.7382112100000000 S
   0.8412195500000000    0.5032268200000000    0.7617887900000000 S
   0.6587804500000000    0.4967731800000000    0.2617887900000000 S
