Sr8 Li4 Si8 N16 O2
1.0
   9.3035509500000000    0.0000000000000000    0.0000000000000000
   0.0000000000000000    9.3035509500000000    0.0000000000000000
   0.0000000000000000    0.0000000000000000    5.5722042099999998
Sr Li Si N O
8 4 8 16 2
direct
   0.9440457500000000    0.7347990400000000    0.5000000000000000 Sr
   0.0559542500000000    0.2652009600000000    0.5000000000000000 Sr
   0.4440457500000000    0.7652009600000000    0.0000000000000000 Sr
   0.5559542500000000    0.2347990400000000    0.0000000000000000 Sr
   0.2652009600000000    0.9440457500000000    0.5000000000000000 Sr
   0.7347990400000000    0.0559542500000000    0.5000000000000000 Sr
   0.2347990400000000    0.4440457500000000    0.0000000000000000 Sr
   0.7652009600000000    0.5559542500000000    0.0000000000000000 Sr
   0.0000000000000000    0.0000000000000000    0.1827795500000000 Li
   0.5000000000000000    0.5000000000000000    0.6827795500000000 Li
   0.0000000000000000    0.0000000000000000    0.8172204500000000 Li
   0.5000000000000000    0.5000000000000000    0.3172204500000000 Li
   0.6190991800000000    0.7321400900000000    0.5000000000000000 Si
   0.3809008200000000    0.2678599100000000    0.5000000000000000 Si
   0.1190991800000000    0.7678599100000000    0.0000000000000000 Si
   0.8809008200000000    0.2321400900000000    0.0000000000000000 Si
   0.2678599100000000    0.6190991800000000    0.5000000000000000 Si
   0.7321400900000000    0.3809008200000000    0.5000000000000000 Si
   0.2321400900000000    0.1190991800000000    0.0000000000000000 Si
   0.7678599100000000    0.8809008200000000    0.0000000000000000 Si
   0.4354943900000000    0.7044928800000000    0.5000000000000000 N
   0.5645056100000000    0.2955071200000000    0.5000000000000000 N
   0.9354943900000000    0.7955071200000000    0.0000000000000000 N
   0.0645056100000000    0.2044928800000000    0.0000000000000000 N
   0.2955071200000000    0.4354943900000000    0.5000000000000000 N
   0.7044928800000000    0.5645056100000000    0.5000000000000000 N
   0.2044928800000000    0.9354943900000000    0.0000000000000000 N
   0.7955071200000000    0.0645056100000000    0.0000000000000000 N
   0.6723569800000000    0.8276430200000000    0.2500000000000000 N
   0.3276430200000000    0.1723569800000000    0.2500000000000000 N
   0.1723569800000000    0.6723569800000000    0.7500000000000000 N
   0.8276430200000000    0.3276430200000000    0.7500000000000000 N
   0.1723569800000000    0.6723569800000000    0.2500000000000000 N
   0.8276430200000000    0.3276430200000000    0.2500000000000000 N
   0.3276430200000000    0.1723569800000000    0.7500000000000000 N
   0.6723569800000000    0.8276430200000000    0.7500000000000000 N
   0.0000000000000000    0.0000000000000000    0.5000000000000000 O
   0.5000000000000000    0.5000000000000000    0.0000000000000000 O
