Li10 Al2 O8
1.0
   6.2899994799999996    0.0000000000000000    0.0000000000000000
   0.0000000000000000    6.4156697400000002    0.0000000000000000
   0.0000000000000000    0.0000000000000000    4.6143210000000003
Li Al O
10 2 8
direct
   0.2389367800000000    0.1969422000000000    0.7455082900000000 Li
   0.7610632200000000    0.8030578000000000    0.7455082900000000 Li
   0.7389367800000000    0.3030578000000000    0.2544917100000000 Li
   0.2610632200000000    0.6969422000000000    0.2544917100000000 Li
   0.2610632200000000    0.3030578000000000    0.2544917100000000 Li
   0.7389367800000000    0.6969422000000000    0.2544917100000000 Li
   0.7610632200000000    0.1969422000000000    0.7455082900000000 Li
   0.2389367800000000    0.8030578000000000    0.7455082900000000 Li
   0.0000000000000000    0.5000000000000000    0.7947260600000000 Li
   0.5000000000000000    0.0000000000000000    0.2052739400000000 Li
   0.0000000000000000    0.0000000000000000    0.2244484700000000 Al
   0.5000000000000000    0.5000000000000000    0.7755515300000000 Al
   0.0000000000000000    0.2330458600000000    0.0152698800000000 O
   0.0000000000000000    0.7669541400000000    0.0152698800000000 O
   0.7372551800000000    0.5000000000000000    0.5696387000000001 O
   0.2627448200000000    0.5000000000000000    0.5696387000000001 O
   0.2372551800000000    0.0000000000000000    0.4303613000000000 O
   0.7627448200000000    0.0000000000000000    0.4303613000000000 O
   0.5000000000000000    0.7330458600000000    0.9847301200000000 O
   0.5000000000000000    0.2669541400000000    0.9847301200000000 O
