Li28 Sb8 S4
1.0
   5.7480946800000003    0.0000000000000000   -0.0039057100000000
   0.0000000000000000   13.7470264899999997    0.0000000000000000
  -0.8858169200000000    0.0000000000000000    9.1484333400000004
Li Sb S
28 8 4
direct
   0.1841832600000000    0.1498175500000000    0.8645176300000000 Li
   0.9734209100000000    0.3744043500000000    0.8292626800000000 Li
   0.4794756200000000    0.3902797800000000    0.8524465700000000 Li
   0.2081371500000000    0.9472392600000000    0.9737586000000000 Li
   0.5577860500000000    0.7597231800000001    0.9059750100000000 Li
   0.0521817300000000    0.7413107500000000    0.8971622000000000 Li
   0.7606683700000000    0.0478529700000000    0.6994222800000000 Li
   0.2393316300000000    0.5478529700000000    0.8005777200000000 Li
   0.9478182700000000    0.2413107500000000    0.6028378000000000 Li
   0.4422139500000000    0.2597231800000000    0.5940249900000000 Li
   0.7918628500000000    0.4472392600000000    0.5262414000000000 Li
   0.5205243800000000    0.8902797800000000    0.6475534300000000 Li
   0.0265790900000000    0.8744043500000001    0.6707373200000000 Li
   0.8158167400000000    0.6498175500000000    0.6354823700000000 Li
   0.1841832600000000    0.3501824500000000    0.3645176300000000 Li
   0.9734209100000000    0.1255956500000000    0.3292626800000000 Li
   0.4794756200000000    0.1097202200000000    0.3524465700000000 Li
   0.2081371500000000    0.5527607400000000    0.4737586000000000 Li
   0.5577860500000000    0.7402768199999999    0.4059750100000000 Li
   0.0521817300000000    0.7586892500000000    0.3971622000000000 Li
   0.7606683700000000    0.4521470300000000    0.1994222800000000 Li
   0.2393316300000000    0.9521470300000000    0.3005777200000000 Li
   0.9478182700000000    0.2586892500000000    0.1028378000000000 Li
   0.4422139500000000    0.2402768200000000    0.0940249900000000 Li
   0.7918628500000000    0.0527607400000000    0.0262414000000000 Li
   0.5205243800000000    0.6097202200000000    0.1475534300000000 Li
   0.0265790900000000    0.6255956499999999    0.1707373200000000 Li
   0.8158167400000000    0.8501824500000000    0.1354823700000000 Li
   0.6829000600000000    0.2131094700000000    0.8482735900000000 Sb
   0.7964936200000000    0.5548398900000000    0.9124995800000000 Sb
   0.2035063800000000    0.0548398900000000    0.5875004200000000 Sb
   0.3170999400000000    0.7131094700000000    0.6517264100000000 Sb
   0.6829000600000000    0.2868905300000000    0.3482735900000000 Sb
   0.7964936200000000    0.9451601100000000    0.4124995800000000 Sb
   0.2035063800000000    0.4451601100000000    0.0875004200000000 Sb
   0.3170999400000000    0.7868905300000000    0.1517264100000000 Sb
   0.8036189200000000    0.9024759400000000    0.8763925900000000 S
   0.1963810800000000    0.4024759400000000    0.6236074100000000 S
   0.8036189200000000    0.5975240600000000    0.3763925900000000 S
   0.1963810800000000    0.0975240600000000    0.1236074100000000 S
