Na6 Y2 C6 O18
1.0
   9.8422271699999992    0.0000000000000000    0.0000000000000000
   0.0000000000000000    5.4038553000000000    3.4918299699999999
   0.0000000000000000   -5.4038553000000000    3.4918299699999999
Na Y C O
6 2 6 18
direct
   0.2500000000000000    0.4033140500000000    0.3658230700000000 Na
   0.7500000000000000    0.3658230700000000    0.4033140500000000 Na
   0.2500000000000000    0.7973255299999999    0.2041492900000000 Na
   0.7500000000000000    0.2041492900000000    0.7973255299999999 Na
   0.0000000000000000    0.0720256600000000    0.0720256600000000 Na
   0.5000000000000000    0.0720256600000000    0.0720256600000000 Na
   0.2500000000000000    0.2272278700000000    0.7713964100000000 Y
   0.7500000000000000    0.7713964100000000    0.2272278700000000 Y
   0.2500000000000000    0.7850347800000000    0.7592869100000000 C
   0.7500000000000000    0.7592869100000000    0.7850347800000000 C
   0.0020567000000000    0.1191782100000000    0.5344320500000000 C
   0.9979433000000000    0.5344320500000000    0.1191782100000000 C
   0.4979433000000000    0.1191782100000000    0.5344320500000000 C
   0.5020567000000000    0.5344320500000000    0.1191782100000000 C
   0.2500000000000000    0.5875022400000000    0.7639873600000000 O
   0.7500000000000000    0.7639873600000000    0.5875022400000000 O
   0.2500000000000000    0.8108147500000000    0.5708483500000000 O
   0.7500000000000000    0.5708483500000000    0.8108147500000000 O
   0.0150300100000000    0.1040063000000000    0.7264093000000000 O
   0.9849699900000000    0.7264093000000000    0.1040063000000000 O
   0.4849699900000000    0.1040063000000000    0.7264093000000000 O
   0.5150300100000000    0.7264093000000000    0.1040063000000000 O
   0.2500000000000000    0.9711879100000000    0.9497658400000000 O
   0.7500000000000000    0.9497658400000000    0.9711879100000000 O
   0.1148093600000000    0.4368150100000000    0.0990547000000000 O
   0.8851906400000000    0.0990547000000000    0.4368150100000000 O
   0.3851906400000000    0.4368150100000000    0.0990547000000000 O
   0.6148093600000000    0.0990547000000000    0.4368150100000000 O
   0.1106985100000000    0.1618883900000000    0.4432892200000000 O
   0.8893014900000000    0.4432892200000000    0.1618883900000000 O
   0.3893014900000000    0.1618883900000000    0.4432892200000000 O
   0.6106985100000000    0.4432892200000000    0.1618883900000000 O
