Li2 Ti4 P6 O24
1.0
   4.2979117300000000    2.4814011400000000    6.9814365199999999
  -4.2979117300000000    2.4814011400000000    6.9814365199999999
   0.0000000000000000   -4.9628012899999998    6.9814365299999999
Li Ti P O
2 4 6 24
direct
   0.0000000000000000    0.0000000000000000    0.0000000000000000 Li
   0.5000000000000000    0.5000000000000000    0.5000000000000000 Li
   0.1404952500000000    0.1404952500000000    0.1404952500000000 Ti
   0.6404952500000000    0.6404952500000000    0.6404952500000000 Ti
   0.8595047500000000    0.8595047500000000    0.8595047500000000 Ti
   0.3595047500000000    0.3595047500000000    0.3595047500000000 Ti
   0.5414102100000000    0.2500000000000000    0.9585897900000000 P
   0.7500000000000000    0.0414102100000000    0.4585897900000000 P
   0.4585897900000000    0.7500000000000000    0.0414102100000000 P
   0.0414102100000000    0.4585897900000000    0.7500000000000000 P
   0.2500000000000000    0.9585897900000000    0.5414102100000000 P
   0.9585897900000000    0.5414102100000000    0.2500000000000000 P
   0.0002364000000000    0.3794046100000000    0.1896795100000000 O
   0.4141579100000000    0.7660613900000000    0.5568596800000000 O
   0.5568596800000000    0.4141579100000000    0.7660613900000000 O
   0.7660613900000000    0.5568596800000000    0.4141579100000000 O
   0.0858420900000000    0.9431403200000000    0.7339386100000000 O
   0.7339386100000000    0.0858420900000000    0.9431403200000000 O
   0.9431403200000000    0.7339386100000000    0.0858420900000000 O
   0.5858420900000000    0.2339386100000000    0.4431403200000000 O
   0.4431403200000000    0.5858420900000000    0.2339386100000000 O
   0.2339386100000000    0.4431403200000000    0.5858420900000000 O
   0.9997636000000000    0.6205953900000000    0.8103204899999999 O
   0.3794046100000000    0.1896795100000000    0.0002364000000000 O
   0.1896795100000000    0.0002364000000000    0.3794046100000000 O
   0.1205953900000000    0.4997636000000000    0.3103204900000000 O
   0.4997636000000000    0.3103204900000000    0.1205953900000000 O
   0.3103204900000000    0.1205953900000000    0.4997636000000000 O
   0.6205953900000000    0.8103204899999999    0.9997636000000000 O
   0.2660613900000000    0.9141579100000000    0.0568596800000000 O
   0.8103204899999999    0.9997636000000000    0.6205953900000000 O
   0.8794046100000000    0.5002364000000000    0.6896795100000001 O
   0.5002364000000000    0.6896795100000001    0.8794046100000000 O
   0.6896795100000001    0.8794046100000000    0.5002364000000000 O
   0.0568596800000000    0.2660613900000000    0.9141579100000000 O
   0.9141579100000000    0.0568596800000000    0.2660613900000000 O
