Hf2 Se1 N2
1.0
   3.6485926599999998    0.0000000000000000    0.0000000000000000
  -1.8242963299999999    3.1597739200000001    0.0000000000000000
   0.0000000000000000    0.0000000000000000    6.6525065500000000
Hf Se N
2 1 2
direct
   0.6666670000000000    0.3333330000000000    0.6970747400000000 Hf
   0.3333330000000000    0.6666670000000000    0.3029252600000000 Hf
   0.0000000000000000    0.0000000000000000    0.0000000000000000 Se
   0.6666670000000000    0.3333330000000000    0.3684841500000000 N
   0.3333330000000000    0.6666670000000000    0.6315158500000000 N
