Na1 In1 S2
1.0
   1.9054232600000001    1.1000960799999999    6.5952006599999997
  -1.9054232600000001    1.1000960799999999    6.5952006599999997
   0.0000000000000000   -2.2001931300000002    6.5952006599999997
Na In S
1 1 2
direct
   0.5000000000000000    0.5000000000000000    0.5000000000000000 Na
   0.0000000000000000    0.0000000000000000    0.0000000000000000 In
   0.7409031900000000    0.7409031900000000    0.7409031900000000 S
   0.2590968100000000    0.2590968100000000    0.2590968100000000 S
