Cs12 Ga4 Se12
1.0
   8.5317110799999991    0.0000000000000000   -0.0632603300000000
   0.0000000000000000   13.5914327200000002    0.0000000000000000
  -6.7370364199999999    0.0000000000000000    9.0312136400000007
Cs Ga Se
12 4 12
direct
   0.6482324100000000    0.9257591100000000    0.3875742600000000 Cs
   0.3517675900000000    0.4257591100000000    0.1124257400000000 Cs
   0.3517675900000000    0.0742408900000000    0.6124257400000001 Cs
   0.6482324100000000    0.5742408900000000    0.8875742599999999 Cs
   0.8718116000000000    0.1968822900000000    0.5979602400000000 Cs
   0.1281884000000000    0.6968822900000000    0.9020397600000000 Cs
   0.1281884000000000    0.8031177100000000    0.4020397600000000 Cs
   0.8718116000000000    0.3031177100000000    0.0979602400000000 Cs
   0.6209276900000000    0.6299495500000000    0.4795576200000000 Cs
   0.3790723100000000    0.1299495500000000    0.0204423800000000 Cs
   0.3790723100000000    0.3700504500000000    0.5204423800000000 Cs
   0.6209276900000000    0.8700504500000000    0.9795576200000000 Cs
   0.9295389600000000    0.9447708400000000    0.8383780000000000 Ga
   0.0704610400000000    0.4447708400000000    0.6616220000000000 Ga
   0.0704610400000000    0.0552291600000000    0.1616220000000000 Ga
   0.9295389600000000    0.5552291600000000    0.3383780000000000 Ga
   0.8613445600000000    0.3927180200000000    0.3940982100000000 Se
   0.1386554400000000    0.8927180200000000    0.1059017900000000 Se
   0.1386554400000000    0.6072819800000000    0.6059017900000000 Se
   0.8613445600000000    0.1072819800000000    0.8940982100000000 Se
   0.6478028400000000    0.6605217400000000    0.1889884800000000 Se
   0.3521971600000000    0.1605217400000000    0.3110115200000000 Se
   0.3521971600000000    0.3394782600000000    0.8110115200000000 Se
   0.6478028400000000    0.8394782600000000    0.6889884800000000 Se
   0.1128864600000000    0.5496602500000000    0.2416465900000000 Se
   0.8871135400000000    0.0496602500000000    0.2583534100000000 Se
   0.8871135400000000    0.4503397500000000    0.7583534100000000 Se
   0.1128864600000000    0.9503397500000000    0.7416465900000000 Se
