Hg4 W2 O8
1.0
   4.3604958299999996   -5.7225660300000003    0.0285763900000000
   4.3604958299999996    5.7225660300000003    0.0285763900000000
  -2.0722261199999998    0.0000000000000000    4.5137957699999998
Hg W O
4 2 8
direct
   0.5297480600000000    0.7505207400000000    0.9795827900000000 Hg
   0.2494792600000000    0.4702519400000000    0.5204172100000000 Hg
   0.4702519400000000    0.2494792600000000    0.0204172100000000 Hg
   0.7505207400000000    0.5297480600000000    0.4795827900000000 Hg
   0.9038863900000000    0.0961136100000000    0.7500000000000000 W
   0.0961136100000000    0.9038863900000000    0.2500000000000000 W
   0.6607689800000000    0.0496124300000000    0.7949300100000000 O
   0.9503875700000000    0.3392310200000000    0.7050699900000000 O
   0.3392310200000000    0.9503875700000000    0.2050699900000000 O
   0.0496124300000000    0.6607689800000000    0.2949300100000000 O
   0.8187246300000000    0.9173296500000000    0.3468055200000000 O
   0.0826703500000000    0.1812753700000000    0.1531944800000000 O
   0.9173296500000000    0.8187246300000000    0.8468055200000000 O
   0.1812753700000000    0.0826703500000000    0.6531944800000000 O
