Li2 Tl6 Mo4 O16
1.0
   5.9932572400000002    0.0000000100000000    0.0000000000000000
  -2.9966291100000002    5.1903129500000000    0.0000000000000000
   0.0000000000000000    0.0000000000000000   15.7229465099999999
Li Tl Mo O
2 6 4 16
direct
   0.3333330000000000    0.6666670000000000    0.8976032800000000 Li
   0.6666670000000000    0.3333330000000000    0.3976032800000000 Li
   0.3333330000000000    0.6666670000000000    0.0949774500000000 Tl
   0.6666670000000000    0.3333330000000000    0.5949774500000000 Tl
   0.0000000000000000    0.0000000000000000    0.4985728800000000 Tl
   0.0000000000000000    0.0000000000000000    0.7531552800000000 Tl
   0.0000000000000000    0.0000000000000000    0.2531552800000000 Tl
   0.0000000000000000    0.0000000000000000    0.9985728800000000 Tl
   0.6666670000000000    0.3333330000000000    0.9026651200000000 Mo
   0.6666670000000000    0.3333330000000000    0.1681825300000000 Mo
   0.3333330000000000    0.6666670000000000    0.6681825300000001 Mo
   0.3333330000000000    0.6666670000000000    0.4026651200000000 Mo
   0.4953484100000000    0.5046515900000000    0.4432180600000000 O
   0.1686694100000000    0.3373398100000000    0.6322551500000000 O
   0.6666670000000000    0.3333330000000000    0.2797500100000000 O
   0.8313305900000000    0.6626601900000000    0.1322551500000000 O
   0.0093031900000000    0.5046515900000000    0.4432180600000000 O
   0.8313305900000000    0.1686694100000000    0.1322551500000000 O
   0.6626601900000000    0.8313305900000000    0.6322551500000000 O
   0.1686694100000000    0.8313305900000000    0.6322551500000000 O
   0.3373398100000000    0.1686694100000000    0.1322551500000000 O
   0.3333330000000000    0.6666670000000000    0.7797500100000000 O
   0.5046515900000000    0.0093031900000000    0.9432180600000000 O
   0.9906968100000000    0.4953484100000000    0.9432180600000000 O
   0.5046515900000000    0.4953484100000000    0.9432180600000000 O
   0.6666670000000000    0.3333330000000000    0.7899748300000000 O
   0.3333330000000000    0.6666670000000000    0.2899748300000000 O
   0.4953484100000000    0.9906968100000000    0.4432180600000000 O
