Cs4 Ti2 Ag4 S8
1.0
   5.9751235200000004    0.0000000000000000    0.0000000000000000
   0.0000000000000000    5.9751235200000004    0.0000000000000000
   0.0000000000000000    0.0000000000000000   13.5118523199999991
Cs Ti Ag S
4 2 4 8
direct
   0.7682548700000000    0.7682548700000000    0.0000000000000000 Cs
   0.2317451300000000    0.7682548700000000    0.5000000000000000 Cs
   0.7682548700000000    0.2317451300000000    0.5000000000000000 Cs
   0.2317451300000000    0.2317451300000000    0.0000000000000000 Cs
   0.5000000000000000    0.5000000000000000    0.7500000000000000 Ti
   0.5000000000000000    0.5000000000000000    0.2500000000000000 Ti
   0.0000000000000000    0.5000000000000000    0.7500000000000000 Ag
   0.5000000000000000    0.0000000000000000    0.7500000000000000 Ag
   0.0000000000000000    0.5000000000000000    0.2500000000000000 Ag
   0.5000000000000000    0.0000000000000000    0.2500000000000000 Ag
   0.7196615500000000    0.7196615500000000    0.6483222199999999 S
   0.2803384500000000    0.2803384500000000    0.6483222199999999 S
   0.7196615500000000    0.7196615500000000    0.3516777800000000 S
   0.7196615500000000    0.2803384500000000    0.1483222200000000 S
   0.2803384500000000    0.7196615500000000    0.8516777800000001 S
   0.2803384500000000    0.2803384500000000    0.3516777800000000 S
   0.2803384500000000    0.7196615500000000    0.1483222200000000 S
   0.7196615500000000    0.2803384500000000    0.8516777800000001 S
