Ag2 Hg6 Sb2 O12
1.0
   4.8329032200000004    2.7902784199999999    4.1219718099999998
  -4.8329032200000004    2.7902784199999999    4.1219718099999998
   0.0000000000000000   -5.5805558700000004    4.1219718299999997
Ag Hg Sb O
2 6 2 12
direct
   0.2500000000000000    0.2500000000000000    0.2500000000000000 Ag
   0.7500000000000000    0.7500000000000000    0.7500000000000000 Ag
   0.7500000000000000    0.0901874700000000    0.4098125300000000 Hg
   0.4098125300000000    0.7500000000000000    0.0901874700000000 Hg
   0.2500000000000000    0.9098125300000000    0.5901874700000000 Hg
   0.5901874700000000    0.2500000000000000    0.9098125300000000 Hg
   0.0901874700000000    0.4098125300000000    0.7500000000000000 Hg
   0.9098125300000000    0.5901874700000000    0.2500000000000000 Hg
   0.0000000000000000    0.0000000000000000    0.0000000000000000 Sb
   0.5000000000000000    0.5000000000000000    0.5000000000000000 Sb
   0.7903670800000000    0.4923086000000000    0.5064627300000000 O
   0.5064627300000000    0.7903670800000000    0.4923086000000000 O
   0.4923086000000000    0.5064627300000000    0.7903670800000000 O
   0.0076914000000000    0.7096329200000000    0.9935372700000000 O
   0.9935372700000000    0.0076914000000000    0.7096329200000000 O
   0.7096329200000000    0.9935372700000000    0.0076914000000000 O
   0.2096329200000000    0.5076914000000000    0.4935372700000000 O
   0.4935372700000000    0.2096329200000000    0.5076914000000000 O
   0.5076914000000000    0.4935372700000000    0.2096329200000000 O
   0.9923086000000000    0.2903670800000000    0.0064627300000000 O
   0.2903670800000000    0.0064627300000000    0.9923086000000000 O
   0.0064627300000000    0.9923086000000000    0.2903670800000000 O
