Na4 Mg1 Si2 Se6
1.0
   3.8056950000000001   -5.8775880200000001    0.0010582600000000
   3.8056950000000001    5.8775880200000001    0.0010582600000000
  -2.0035454800000001    0.0000000000000000    6.6940044800000003
Na Mg Si Se
4 1 2 6
direct
   0.4878003300000000    0.5121996700000000    0.5000000000000000 Na
   0.6418220800000000    0.3581779200000000    0.0000000000000000 Na
   0.3175484100000000    0.6824515900000000    0.0000000000000000 Na
   0.9520732100000000    0.0479267900000000    0.0000000000000000 Na
   0.1281513500000000    0.8718486500000000    0.5000000000000000 Mg
   0.9621883800000000    0.3560858300000000    0.5552713800000000 Si
   0.6439141700000000    0.0378116200000000    0.4447286200000000 Si
   0.2001659000000000    0.2600193400000000    0.7324820600000000 Se
   0.7399806600000000    0.7998341000000000    0.2675179400000000 Se
   0.0597259500000000    0.4727156600000000    0.2823228800000000 Se
   0.5272843400000000    0.9402740500000000    0.7176771199999999 Se
   0.9176691000000000    0.6214848800000000    0.7478967399999999 Se
   0.3785151200000000    0.0823309000000000    0.2521032600000000 Se
