As4 P4 O20
1.0
   4.5679192400000002    0.0000000000000000    0.0000000000000000
   0.0000000000000000    8.2331917699999995    0.0000000000000000
   0.0000000000000000    0.0000000000000000    8.5133338199999997
As P O
4 4 20
direct
   0.6235560700000000    0.3501984200000000    0.5982296200000000 As
   0.1235560700000000    0.1498015800000000    0.4017703800000000 As
   0.3764439300000000    0.8501984200000000    0.9017703800000000 As
   0.8764439300000000    0.6498015800000000    0.0982296200000000 As
   0.6126824300000000    0.9654291699999999    0.2169530100000000 P
   0.1126824300000000    0.5345708300000001    0.7830469900000000 P
   0.3873175700000000    0.4654291700000000    0.2830469900000000 P
   0.8873175700000000    0.0345708300000000    0.7169530100000000 P
   0.0452050800000000    0.5028655300000000    0.9600030600000000 O
   0.5452050800000000    0.9971344700000000    0.0399969400000000 O
   0.9547949200000000    0.0028655300000000    0.5399969400000000 O
   0.4547949200000000    0.4971344700000000    0.4600030600000000 O
   0.2107674900000000    0.7126760500000000    0.7512970300000000 O
   0.7107674899999999    0.7873239500000000    0.2487029700000000 O
   0.7892325100000001    0.2126760500000000    0.7487029700000000 O
   0.2892325100000000    0.2873239500000000    0.2512970300000000 O
   0.9128517900000001    0.3222995400000000    0.4585089400000000 O
   0.4128517900000000    0.1777004600000000    0.5414910600000000 O
   0.0871482100000000    0.8222995400000001    0.0414910600000000 O
   0.5871482099999999    0.6777004599999999    0.9585089400000000 O
   0.1561217000000000    0.5960410100000000    0.2478369900000000 O
   0.6561217000000000    0.9039589900000000    0.7521630100000000 O
   0.8438783000000000    0.0960410100000000    0.2521630100000000 O
   0.3438783000000000    0.4039589900000000    0.7478369900000000 O
   0.6628732600000000    0.4779450200000000    0.1779128700000000 O
   0.1628732600000000    0.0220549800000000    0.8220871300000000 O
   0.3371267400000000    0.9779450200000001    0.3220871300000000 O
   0.8371267400000000    0.5220549799999999    0.6779128700000000 O
