Cs12 Sb4 O12
1.0
   9.1107257100000005    0.0000000000000000    0.0000000000000000
   0.0000000000000000    9.1107257100000005    0.0000000000000000
   0.0000000000000000    0.0000000000000000    9.1107257100000005
Cs Sb O
12 4 12
direct
   0.2769360900000000    0.7230639100000000    0.2230639100000000 Cs
   0.4837152500000000    0.9837152500000000    0.5162847500000000 Cs
   0.2230639100000000    0.2769360900000000    0.7230639100000000 Cs
   0.0162847500000000    0.0162847500000000    0.0162847500000000 Cs
   0.7730286700000000    0.2269713300000000    0.7269713300000000 Cs
   0.7269713300000000    0.7730286700000000    0.2269713300000000 Cs
   0.5162847500000000    0.4837152500000000    0.9837152500000000 Cs
   0.9837152500000000    0.5162847500000000    0.4837152500000000 Cs
   0.2269713300000000    0.7269713300000000    0.7730286700000000 Cs
   0.7230639100000000    0.2230639100000000    0.2769360900000000 Cs
   0.7769360900000000    0.7769360900000000    0.7769360900000000 Cs
   0.2730286700000000    0.2730286700000000    0.2730286700000000 Cs
   0.5028019800000000    0.5028019800000000    0.5028019800000000 Sb
   0.9971980200000000    0.4971980200000000    0.0028019800000000 Sb
   0.4971980200000000    0.0028019800000000    0.9971980200000000 Sb
   0.0028019800000000    0.9971980200000000    0.4971980200000000 Sb
   0.4615034100000000    0.0052906700000000    0.2090795800000000 O
   0.7090795800000000    0.0384965900000000    0.9947093299999999 O
   0.0052906700000000    0.2090795800000000    0.4615034100000000 O
   0.9615034099999999    0.4947093300000000    0.7909204200000000 O
   0.0384965900000000    0.9947093299999999    0.7090795800000000 O
   0.4947093300000000    0.7909204200000000    0.9615034099999999 O
   0.7909204200000000    0.9615034099999999    0.4947093300000000 O
   0.2090795800000000    0.4615034100000000    0.0052906700000000 O
   0.9947093299999999    0.7090795800000000    0.0384965900000000 O
   0.5384965900000001    0.5052906700000001    0.2909204200000000 O
   0.2909204200000000    0.5384965900000001    0.5052906700000001 O
   0.5052906700000001    0.2909204200000000    0.5384965900000001 O
