Cs4 Hg6 Se8
1.0
  -3.2573171300000001    6.0640768200000004    7.1997210100000002
   3.2573171300000001   -6.0640768200000004    7.1997210100000002
   3.2573171300000001    6.0640768200000004   -7.1997210100000002
Cs Hg Se
4 6 8
direct
   0.6170938400000000    0.2310922700000000    0.8481861100000000 Cs
   0.3829061600000000    0.7689077300000000    0.1518138900000000 Cs
   0.1170938400000000    0.2689077300000000    0.3860015700000000 Cs
   0.8829061600000000    0.7310922700000000    0.6139984300000000 Cs
   0.7500000000000000    0.7500000000000000    0.0000000000000000 Hg
   0.2500000000000000    0.2500000000000000    0.0000000000000000 Hg
   0.0660989100000000    0.7500000000000000    0.3160989100000000 Hg
   0.4339010900000000    0.7500000000000000    0.6839010900000000 Hg
   0.9339010900000000    0.2500000000000000    0.6839010900000000 Hg
   0.5660989100000000    0.2500000000000000    0.3160989100000000 Hg
   0.9970071100000000    0.6471570800000001    0.9216884900000000 Se
   0.7254685900000000    0.0753186200000000    0.0783115100000000 Se
   0.7745314100000000    0.8528429199999999    0.3498500300000000 Se
   0.5029928900000000    0.4246813800000000    0.6501499700000000 Se
   0.0029928900000000    0.3528429200000000    0.0783115100000000 Se
   0.2745314100000000    0.9246813800000000    0.9216884900000000 Se
   0.2254685900000000    0.1471570800000000    0.6501499700000000 Se
   0.4970071100000000    0.5753186200000000    0.3498500300000000 Se
