Sr2 Sn2 P4 O16
1.0
   8.3788177800000003   -2.6216673199999998   -0.0625985600000000
   8.3788177800000003    2.6216673199999998   -0.0625985600000000
  -3.5361355900000002    0.0000000000000000    7.3245544799999998
Sr Sn P O
2 2 4 16
direct
   0.8265512300000000    0.1734487700000000    0.7500000000000000 Sr
   0.1734487700000000    0.8265512300000000    0.2500000000000000 Sr
   0.5000000000000000    0.0000000000000000    0.5000000000000000 Sn
   0.0000000000000000    0.5000000000000000    0.0000000000000000 Sn
   0.1214836900000000    0.5961714900000000    0.7429677099999999 P
   0.4038285100000000    0.8785163100000000    0.7570322900000001 P
   0.8785163100000000    0.4038285100000000    0.2570322900000000 P
   0.5961714900000000    0.1214836900000000    0.2429677100000000 P
   0.0506533400000000    0.5056697999999999    0.7849926500000000 O
   0.4943302000000000    0.9493466600000000    0.7150073500000000 O
   0.9493466600000000    0.4943302000000000    0.2150073500000000 O
   0.5056697999999999    0.0506533400000000    0.2849926500000000 O
   0.1672449000000000    0.7315688500000000    0.9014914600000000 O
   0.2684311500000000    0.8327551000000000    0.5985085400000000 O
   0.8327551000000000    0.2684311500000000    0.0985085400000000 O
   0.7315688500000000    0.1672449000000000    0.4014914600000000 O
   0.3828240700000000    0.3373937700000000    0.6479885600000000 O
   0.6626062300000000    0.6171759300000000    0.8520114400000000 O
   0.6171759300000000    0.6626062300000000    0.3520114400000000 O
   0.3373937700000000    0.3828240700000000    0.1479885600000000 O
   0.8846455400000000    0.7995379600000000    0.6005562100000000 O
   0.2004620400000000    0.1153544600000000    0.8994437900000000 O
   0.1153544600000000    0.2004620400000000    0.3994437900000000 O
   0.7995379600000000    0.8846455400000000    0.1005562100000000 O
