Sr4 In8 O16
1.0
   9.8468091799999993    0.0000000000000000    0.0000000000000000
   0.0000000000000000    3.2935891000000002    0.0000000000000000
   0.0000000000000000    0.0000000000000000   11.6107853100000007
Sr In O
4 8 16
direct
   0.7559543900000000    0.7500000000000000    0.3460407000000000 Sr
   0.2440456100000000    0.2500000000000000    0.6539593000000000 Sr
   0.2559543900000000    0.7500000000000000    0.1539593000000000 Sr
   0.7440456100000000    0.2500000000000000    0.8460407000000000 Sr
   0.4184541400000000    0.7500000000000000    0.8948311900000000 In
   0.5815458600000000    0.2500000000000000    0.1051688100000000 In
   0.9184541400000000    0.7500000000000000    0.6051688100000000 In
   0.0815458600000000    0.2500000000000000    0.3948311900000000 In
   0.4302779100000000    0.7500000000000000    0.3890385900000000 In
   0.5697220900000000    0.2500000000000000    0.6109614100000000 In
   0.9302779100000000    0.7500000000000000    0.1109614100000000 In
   0.0697220900000000    0.2500000000000000    0.8890385900000000 In
   0.2065054200000000    0.7500000000000000    0.8303927100000000 O
   0.7934945799999999    0.2500000000000000    0.1696072900000000 O
   0.7065054200000001    0.7500000000000000    0.6696072900000000 O
   0.2934945800000000    0.2500000000000000    0.3303927100000000 O
   0.1234145400000000    0.7500000000000000    0.5221651600000000 O
   0.8765854600000000    0.2500000000000000    0.4778348400000000 O
   0.6234145400000000    0.7500000000000000    0.9778348400000000 O
   0.3765854600000000    0.2500000000000000    0.0221651600000000 O
   0.5228939600000000    0.7500000000000000    0.2171437000000000 O
   0.4771060400000000    0.2500000000000000    0.7828562999999999 O
   0.0228939600000000    0.7500000000000000    0.2828563000000000 O
   0.9771060400000000    0.2500000000000000    0.7171437000000001 O
   0.4179836400000000    0.7500000000000000    0.5758240500000000 O
   0.5820163600000000    0.2500000000000000    0.4241759500000000 O
   0.9179836400000000    0.7500000000000000    0.9241759500000000 O
   0.0820163600000000    0.2500000000000000    0.0758240500000000 O
