Ba8 B4 N8 O2
1.0
   7.8441834500000001   -3.6335791400000002    0.0000000000000000
   7.8441834500000001    3.6335791400000002    0.0000000000000000
   0.0000000000000000    0.0000000000000000    7.2961555300000001
Ba B N O
8 4 8 2
direct
   0.6743353700000000    0.6743353700000000    0.5000000000000000 Ba
   0.3086326600000000    0.6913673400000000    0.8087129500000000 Ba
   0.6913673400000000    0.3086326600000000    0.1912870500000000 Ba
   0.8086326600000000    0.1913673400000000    0.6912870500000000 Ba
   0.1743353700000000    0.1743353700000000    0.0000000000000000 Ba
   0.3256646300000000    0.3256646300000000    0.5000000000000000 Ba
   0.1913673400000000    0.8086326600000000    0.3087129500000000 Ba
   0.8256646300000000    0.8256646300000000    0.0000000000000000 Ba
   0.6379562600000001    0.6379562600000001    0.0000000000000000 B
   0.3620437400000000    0.3620437400000000    0.0000000000000000 B
   0.8620437399999999    0.8620437399999999    0.5000000000000000 B
   0.1379562600000000    0.1379562600000000    0.5000000000000000 B
   0.0032922400000000    0.2653207700000000    0.3697592600000000 N
   0.2346792300000000    0.4967077600000000    0.1302407400000000 N
   0.5032922399999999    0.7653207700000000    0.1302407400000000 N
   0.4967077600000000    0.2346792300000000    0.8697592600000000 N
   0.9967077600000001    0.7346792300000000    0.6302407400000000 N
   0.7346792300000000    0.9967077600000001    0.3697592600000000 N
   0.2653207700000000    0.0032922400000000    0.6302407400000000 N
   0.7653207700000000    0.5032922399999999    0.8697592600000000 N
   0.5000000000000000    0.5000000000000000    0.5000000000000000 O
   0.0000000000000000    0.0000000000000000    0.0000000000000000 O
