Zn2 C2 O6
1.0
   2.3046080000000000    1.3305659999999999    4.8833209999999996
  -2.3046080000000000    1.3305659999999999    4.8833209999999996
   0.0000000000000000   -2.6611319999999998    4.8833209999999996
Zn C O
2 2 6
direct
   0.0000000000000000    0.0000000000000000    0.0000000000000000 Zn
   0.5000000000000000    0.5000000000000000    0.5000000000000000 Zn
   0.7500000000000000    0.7500000000000000    0.7500000000000000 C
   0.2500000000000000    0.2500000000000000    0.2500000000000000 C
   0.0305220000000000    0.4694780000000000    0.7500000000000000 O
   0.9694780000000000    0.5305220000000000    0.2500000000000000 O
   0.2500000000000000    0.9694780000000000    0.5305220000000000 O
   0.5305220000000000    0.2500000000000000    0.9694780000000000 O
   0.7500000000000000    0.0305220000000000    0.4694780000000000 O
   0.4694780000000000    0.7500000000000000    0.0305220000000000 O
