Rb2 Na2 S2
1.0
   4.6475186400000004    0.0000000000000000    0.0000000000000000
   0.0000000000000000    4.6475186400000004    0.0000000000000000
   0.0000000000000000    0.0000000000000000    7.5121869400000003
Rb Na S
2 2 2
direct
   0.0000000000000000    0.5000000000000000    0.3509007800000000 Rb
   0.5000000000000000    0.0000000000000000    0.6490992200000000 Rb
   0.0000000000000000    0.0000000000000000    0.0000000000000000 Na
   0.5000000000000000    0.5000000000000000    0.0000000000000000 Na
   0.5000000000000000    0.0000000000000000    0.2067162300000000 S
   0.0000000000000000    0.5000000000000000    0.7932837700000001 S
