Na2 Ca2 C3 O9
1.0
   4.9371365799999998    0.0000000000000000    0.0000000000000000
   0.0000000000000000    5.4721756099999999    3.5131108499999999
   0.0000000000000000   -5.4721756099999999    3.5131108499999999
Na Ca C O
2 2 3 9
direct
   0.0000000000000000    0.0771020100000000    0.0771020100000000 Na
   0.5000000000000000    0.3856589600000000    0.3856589600000000 Na
   0.5000000000000000    0.2179586600000000    0.7861944100000000 Ca
   0.5000000000000000    0.7861944100000000    0.2179586600000000 Ca
   0.0000000000000000    0.5355678800000000    0.1245520900000000 C
   0.0000000000000000    0.1245520900000000    0.5355678800000000 C
   0.5000000000000000    0.7739197300000000    0.7739197300000000 C
   0.5000000000000000    0.7888964000000001    0.5829169000000000 O
   0.5000000000000000    0.5829169000000000    0.7888964000000001 O
   0.0000000000000000    0.7304300900000000    0.1177417600000000 O
   0.5000000000000000    0.9612816500000000    0.9612816500000000 O
   0.0000000000000000    0.1177417600000000    0.7304300900000000 O
   0.2282198900000000    0.4396072400000000    0.1312309900000000 O
   0.7717801100000000    0.1312309900000000    0.4396072400000000 O
   0.7717801100000000    0.4396072400000000    0.1312309900000000 O
   0.2282198900000000    0.1312309900000000    0.4396072400000000 O
