Hg6 B4 O12
1.0
   4.4676273599999998    2.5793854399999998    4.4054703799999997
  -4.4676273599999998    2.5793854399999998    4.4054703799999997
   0.0000000000000000   -5.1587717900000003    4.4054703399999999
Hg B O
6 4 12
direct
   0.7500000000000000    0.1035886400000000    0.3964113600000000 Hg
   0.3964113600000000    0.7500000000000000    0.1035886400000000 Hg
   0.1035886400000000    0.3964113600000000    0.7500000000000000 Hg
   0.2500000000000000    0.8964113600000000    0.6035886400000000 Hg
   0.6035886400000000    0.2500000000000000    0.8964113600000000 Hg
   0.8964113600000000    0.6035886400000000    0.2500000000000000 Hg
   0.1105974000000000    0.1105974000000000    0.1105974000000000 B
   0.8894026000000000    0.8894026000000000    0.8894026000000000 B
   0.6105974000000000    0.6105974000000000    0.6105974000000000 B
   0.3894026000000000    0.3894026000000000    0.3894026000000000 B
   0.7115733400000001    0.9631148700000000    0.9930337600000000 O
   0.9930337600000000    0.7115733400000001    0.9631148700000000 O
   0.9631148700000000    0.9930337600000000    0.7115733400000001 O
   0.5368851300000000    0.7884266599999999    0.5069662400000000 O
   0.7884266599999999    0.5069662400000000    0.5368851300000000 O
   0.5069662400000000    0.5368851300000000    0.7884266599999999 O
   0.0069662400000000    0.2884266600000000    0.0368851300000000 O
   0.2884266600000000    0.0368851300000000    0.0069662400000000 O
   0.0368851300000000    0.0069662400000000    0.2884266600000000 O
   0.2115733400000000    0.4930337600000000    0.4631148700000000 O
   0.4930337600000000    0.4631148700000000    0.2115733400000000 O
   0.4631148700000000    0.2115733400000000    0.4930337600000000 O
