Sr4 V6 Bi2 O22
1.0
   6.9683080799999999    0.0283104200000000   -0.0007152400000000
  -0.3246300800000000    6.9922575100000000    0.0286057000000000
  -1.0591483500000001   -1.6560453300000000    9.9911289300000004
Sr V Bi O
4 6 2 22
direct
   0.6465495200000000    0.2552036400000000    0.9767609000000000 Sr
   0.3534504800000000    0.7447963600000000    0.0232391000000000 Sr
   0.3394931500000000    0.3877230200000000    0.6365776600000000 Sr
   0.6605068500000000    0.6122769800000000    0.3634223400000000 Sr
   0.6403742000000000    0.1107368900000000    0.3356505200000000 V
   0.3596258000000000    0.8892631100000000    0.6643494800000000 V
   0.1570906800000000    0.2368615000000000    0.9609849300000000 V
   0.8429093200000000    0.7631385000000001    0.0390150700000000 V
   0.1335152300000000    0.4236273800000000    0.2649691000000000 V
   0.8664847700000000    0.5763726200000000    0.7350309000000000 V
   0.8396565800000000    0.0808395700000000    0.6367365100000000 Bi
   0.1603434200000000    0.9191604300000000    0.3632634900000000 Bi
   0.9893919300000000    0.3976518100000000    0.6511031800000000 O
   0.0106080700000000    0.6023481900000000    0.3488968200000000 O
   0.0228687800000000    0.3397465100000000    0.0956711100000000 O
   0.9771312200000000    0.6602534900000000    0.9043288900000001 O
   0.4126404600000000    0.7482021900000000    0.5205165800000000 O
   0.5873595400000000    0.2517978100000000    0.4794834200000000 O
   0.6995360700000000    0.2647583200000000    0.2325078800000000 O
   0.3004639300000000    0.7352416800000000    0.7674921200000000 O
   0.9663272100000000    0.1255210300000000    0.8500713700000000 O
   0.0336727900000000    0.8744789700000000    0.1499286300000000 O
   0.6828744200000000    0.9152455000000000    0.9885929400000000 O
   0.3171255800000000    0.0847545000000000    0.0114070600000000 O
   0.5441964700000000    0.0614998000000000    0.7339159600000000 O
   0.4558035300000000    0.9385002000000000    0.2660840400000000 O
   0.1681027900000000    0.0290508800000000    0.6058661100000000 O
   0.8318972100000001    0.9709491200000000    0.3941338900000000 O
   0.3018233200000000    0.3970461700000000    0.8998544300000000 O
   0.6981766800000000    0.6029538300000000    0.1001455700000000 O
   0.6615488700000000    0.4621209500000000    0.7646166000000000 O
   0.3384511300000000    0.5378790500000000    0.2353834000000000 O
   0.8186898200000000    0.7467240200000000    0.6326432300000000 O
   0.1813101800000000    0.2532759800000000    0.3673567700000000 O
