Rb8 Ga8 S16
1.0
   5.2261358900000001   -5.2258538200000002   -0.0008759900000000
   5.2261358900000001    5.2258538200000002   -0.0008759900000000
  -2.6166440000000000    0.0000000000000000   15.1232552899999995
Rb Ga S
8 8 16
direct
   0.7237444600000000    0.8476812200000000    0.8932608600000000 Rb
   0.8476812200000000    0.7237444600000000    0.3932608600000000 Rb
   0.2762555400000000    0.1523187800000000    0.1067391400000000 Rb
   0.2759581900000000    0.6508536600000000    0.1056017100000000 Rb
   0.3491463400000000    0.7240418100000000    0.3943982900000000 Rb
   0.7240418100000000    0.3491463400000000    0.8943982900000000 Rb
   0.6508536600000000    0.2759581900000000    0.6056017100000000 Rb
   0.1523187800000000    0.2762555400000000    0.6067391400000000 Rb
   0.4140295800000000    0.7919042700000000    0.6675471800000000 Ga
   0.5859704200000000    0.2080957300000000    0.3324528200000000 Ga
   0.7919042700000000    0.4140295800000000    0.1675471800000000 Ga
   0.0800691700000000    0.2081241200000000    0.3327186000000000 Ga
   0.7918758800000000    0.9199308300000000    0.1672814000000000 Ga
   0.2081241200000000    0.0800691700000000    0.8327186000000000 Ga
   0.9199308300000000    0.7918758800000000    0.6672814000000000 Ga
   0.2080957300000000    0.5859704200000000    0.8324528200000000 Ga
   0.0685524600000000    0.9314475400000000    0.2500000000000000 S
   0.2308804600000000    0.8558827400000000    0.9247560000000000 S
   0.8558827400000000    0.2308804600000000    0.4247560000000000 S
   0.7691195400000000    0.1441172600000000    0.0752440000000000 S
   0.3555674900000000    0.2301209300000000    0.4216557200000000 S
   0.0685249400000000    0.4439228400000000    0.2503572400000000 S
   0.5560771600000000    0.9314750600000000    0.2496427600000000 S
   0.1441172600000000    0.7691195400000000    0.5752440000000000 S
   0.9314750600000000    0.5560771600000000    0.7496427600000000 S
   0.6444325100000000    0.7698790700000000    0.5783442800000000 S
   0.7698790700000000    0.6444325100000000    0.0783442800000000 S
   0.9314475400000000    0.0685524600000000    0.7500000000000000 S
   0.4439228400000000    0.0685249400000000    0.7503572400000000 S
   0.2301209300000000    0.3555674900000000    0.9216557200000000 S
   0.4437710800000000    0.5562289200000000    0.7500000000000000 S
   0.5562289200000000    0.4437710800000000    0.2500000000000000 S
