Rb12 B4 S12
1.0
  10.3241906900000000    0.0000000000000000   -0.0198999700000000
   0.0000000000000000    6.3230233299999998    0.0000000000000000
  -3.2808666700000000    0.0000000000000000   12.5567194000000004
Rb B S
12 4 12
direct
   0.7515357100000000    0.1406585700000000    0.0073418200000000 Rb
   0.2484642900000000    0.6406585700000000    0.4926581800000000 Rb
   0.2484642900000000    0.8593414300000000    0.9926581799999999 Rb
   0.7515357100000000    0.3593414300000000    0.5073418200000001 Rb
   0.9717266900000000    0.7879040000000000    0.6411524000000000 Rb
   0.0282733100000000    0.2879040000000000    0.8588476000000000 Rb
   0.0282733100000000    0.2120960000000000    0.3588476000000000 Rb
   0.9717266900000000    0.7120960000000000    0.1411524000000000 Rb
   0.5944272000000000    0.9345405800000000    0.6956159000000000 Rb
   0.4055728000000000    0.4345405800000000    0.8043841000000000 Rb
   0.4055728000000000    0.0654594200000000    0.3043841000000000 Rb
   0.5944272000000000    0.5654594200000000    0.1956159000000000 Rb
   0.7662071600000000    0.6154994800000000    0.8718390300000000 B
   0.2337928400000000    0.1154994800000000    0.6281609700000000 B
   0.2337928400000000    0.3845005200000000    0.1281609700000000 B
   0.7662071600000000    0.8845005200000000    0.3718390300000000 B
   0.7140318500000000    0.4209124600000000    0.7643055900000000 S
   0.2859681500000000    0.9209124600000000    0.7356944100000000 S
   0.2859681500000000    0.5790875400000000    0.2356944100000000 S
   0.7140318500000000    0.0790875400000000    0.2643055900000000 S
   0.9109509300000000    0.7880049700000000    0.8782665200000001 S
   0.0890490700000000    0.2880049700000000    0.6217334799999999 S
   0.0890490700000000    0.2119950300000000    0.1217334800000000 S
   0.9109509300000000    0.7119950300000000    0.3782665200000000 S
   0.6689245300000000    0.8564465900000000    0.4706402500000000 S
   0.3310754700000000    0.3564465900000000    0.0293597500000000 S
   0.3310754700000000    0.1435534100000000    0.5293597500000000 S
   0.6689245300000000    0.6435534100000000    0.9706402500000000 S
