Na6 Mg2 P2 C2 O14
1.0
   5.1169655399999998    0.0000000000000000    0.0159950300000000
   0.0000000000000000    6.5975744100000000    0.0000000000000000
  -0.1154006400000000    0.0000000000000000    8.7597015700000007
Na Mg P C O
6 2 2 2 14
direct
   0.7488142300000000    0.4949023000000000    0.2651765800000000 Na
   0.2511857700000000    0.9949023000000000    0.7348234200000000 Na
   0.2511857700000000    0.5050977000000000    0.7348234200000000 Na
   0.7488142300000000    0.0050977000000000    0.2651765800000000 Na
   0.7633853800000000    0.7500000000000000    0.9176034500000000 Na
   0.2366146200000000    0.2500000000000000    0.0823965500000000 Na
   0.7831141700000001    0.2500000000000000    0.6470604500000000 Mg
   0.2168858300000000    0.7500000000000000    0.3529395500000000 Mg
   0.7074302400000000    0.7500000000000000    0.5855238699999999 P
   0.2925697600000000    0.2500000000000000    0.4144761300000000 P
   0.7284515300000000    0.2500000000000000    0.9373377600000000 C
   0.2715484700000000    0.7500000000000000    0.0626622400000000 C
   0.9581693900000000    0.2500000000000000    0.8757426000000000 O
   0.0418306100000000    0.7500000000000000    0.1242574000000000 O
   0.5242397200000000    0.2500000000000000    0.8477932000000000 O
   0.4757602800000000    0.7500000000000000    0.1522068000000000 O
   0.7034078000000000    0.2500000000000000    0.0837979700000000 O
   0.2965922000000000    0.7500000000000000    0.9162020300000000 O
   0.7815441100000000    0.9384536300000000    0.6826467300000000 O
   0.2184558900000000    0.4384536300000000    0.3173532700000000 O
   0.2184558900000000    0.0615463700000000    0.3173532700000000 O
   0.7815441100000000    0.5615463700000000    0.6826467300000000 O
   0.8477012600000000    0.7500000000000000    0.4305261200000000 O
   0.1522987400000000    0.2500000000000000    0.5694738800000000 O
   0.5930159400000000    0.2500000000000000    0.4445525100000000 O
   0.4069840600000000    0.7500000000000000    0.5554474900000000 O
