Rb2 Sn4 P6 O24
1.0
   4.1778192499999998    2.4120656399999998    8.0420602599999995
  -4.1778194500000003    2.4120652900000001    8.0420602599999995
   0.0000002100000000   -4.8241299399999997    8.0420602599999995
Rb Sn P O
2 4 6 24
direct
   0.5000000000000000    0.5000000000000000    0.5000000000000000 Rb
   0.0000000000000000    0.0000000000000000    0.0000000000000000 Rb
   0.3508532300000000    0.3508532300000000    0.3508532300000000 Sn
   0.6491467700000000    0.6491467700000000    0.6491467700000000 Sn
   0.8442685500000000    0.8442685500000000    0.8442685500000000 Sn
   0.1557314500000000    0.1557314500000000    0.1557314500000000 Sn
   0.2479614700000000    0.9614688300000001    0.5392947200000000 P
   0.5392947200000000    0.2479614700000000    0.9614688300000001 P
   0.9614688300000001    0.5392947200000000    0.2479614700000000 P
   0.7520385300000000    0.0385311700000000    0.4607052800000000 P
   0.4607052800000000    0.7520385300000000    0.0385311700000000 P
   0.0385311700000000    0.4607052800000000    0.7520385300000000 P
   0.0397128100000000    0.9725601400000000    0.6784031000000000 O
   0.6784031000000000    0.0397128100000000    0.9725601400000000 O
   0.9725601400000000    0.6784031000000000    0.0397128100000000 O
   0.9602871900000000    0.0274398600000000    0.3215969000000000 O
   0.3215969000000000    0.9602871900000000    0.0274398600000000 O
   0.0274398600000000    0.3215969000000000    0.9602871900000000 O
   0.2656157800000000    0.1241503700000000    0.5226869400000000 O
   0.5226869400000000    0.2656157800000000    0.1241503700000000 O
   0.1241503700000000    0.5226869400000000    0.2656157800000000 O
   0.7343842200000000    0.8758496300000000    0.4773130600000000 O
   0.4773130600000000    0.7343842200000000    0.8758496300000000 O
   0.8758496300000000    0.4773130600000000    0.7343842200000000 O
   0.3911694800000000    0.7667783200000000    0.6267811300000000 O
   0.6267811300000000    0.3911694800000000    0.7667783200000000 O
   0.7667783200000000    0.6267811300000000    0.3911694800000000 O
   0.6088305200000000    0.2332216800000000    0.3732188700000000 O
   0.3732188700000000    0.6088305200000000    0.2332216800000000 O
   0.2332216800000000    0.3732188700000000    0.6088305200000000 O
   0.2950242500000000    0.9728048200000000    0.3444467500000000 O
   0.3444467500000000    0.2950242500000000    0.9728048200000000 O
   0.9728048200000000    0.3444467500000000    0.2950242500000000 O
   0.7049757500000000    0.0271951800000000    0.6555532500000000 O
   0.6555532500000000    0.7049757500000000    0.0271951800000000 O
   0.0271951800000000    0.6555532500000000    0.7049757500000000 O
