Ca2 S2 O8
1.0
   3.4924452600000002   -3.0877129399999999    0.0000000000000000
   3.4924452600000002    3.0877129399999999    0.0000000000000000
   0.0000000000000000    0.0000000000000000    6.9923897100000003
Ca S O
2 2 8
direct
   0.6488248000000000    0.3511752000000000    0.7500000000000000 Ca
   0.3511752000000000    0.6488248000000000    0.2500000000000000 Ca
   0.1531734300000000    0.8468265699999999    0.7500000000000000 S
   0.8468265699999999    0.1531734300000000    0.2500000000000000 S
   0.8395344700000000    0.8182836600000000    0.7500000000000000 O
   0.1604655300000000    0.1817163400000000    0.2500000000000000 O
   0.1817163400000000    0.1604655300000000    0.7500000000000000 O
   0.8182836600000000    0.8395344700000000    0.2500000000000000 O
   0.7019868900000000    0.2980131100000000    0.0805157700000000 O
   0.2980131100000000    0.7019868900000000    0.5805157700000000 O
   0.7019868900000000    0.2980131100000000    0.4194842300000000 O
   0.2980131100000000    0.7019868900000000    0.9194842300000000 O
