Mg4 Al4 B4 O16
1.0
   9.8735611399999996    0.0000000000000000    0.0000000000000000
   0.0000000000000000    5.6864940700000002    0.0000000000000000
   0.0000000000000000    0.0000000000000000    4.3356963100000003
Mg Al B O
4 4 4 16
direct
   0.2246415200000000    0.7500000000000000    0.4850509400000000 Mg
   0.2753584800000000    0.2500000000000000    0.9850509400000000 Mg
   0.7753584800000000    0.2500000000000000    0.5149490600000000 Mg
   0.7246415200000000    0.7500000000000000    0.0149490600000000 Mg
   0.5000000000000000    0.5000000000000000    0.5000000000000000 Al
   0.0000000000000000    0.5000000000000000    0.0000000000000000 Al
   0.5000000000000000    0.0000000000000000    0.5000000000000000 Al
   0.0000000000000000    0.0000000000000000    0.0000000000000000 Al
   0.5868392400000000    0.2500000000000000    0.0910650000000000 B
   0.4131607600000000    0.7500000000000000    0.9089350000000000 B
   0.0868392400000000    0.2500000000000000    0.4089350000000000 B
   0.9131607600000000    0.7500000000000000    0.5910650000000000 B
   0.3506780500000000    0.5384910600000000    0.7653413600000000 O
   0.1493219500000000    0.4615089400000000    0.2653413600000000 O
   0.6493219500000000    0.0384910600000000    0.2346586400000000 O
   0.8506780500000000    0.9615089400000000    0.7346586400000000 O
   0.1493219500000000    0.0384910600000000    0.2653413600000000 O
   0.6493219500000000    0.4615089400000000    0.2346586400000000 O
   0.3506780500000000    0.9615089400000000    0.7653413600000000 O
   0.8506780500000000    0.5384910600000000    0.7346586400000000 O
   0.9191633100000000    0.7500000000000000    0.2582197100000000 O
   0.5808366900000000    0.2500000000000000    0.7582197100000000 O
   0.0808366900000000    0.2500000000000000    0.7417802900000000 O
   0.4191633100000000    0.7500000000000000    0.2417802900000000 O
   0.5559573900000000    0.7500000000000000    0.7461297900000000 O
   0.9440426100000000    0.2500000000000000    0.2461297900000000 O
   0.4440426100000000    0.2500000000000000    0.2538702100000000 O
   0.0559573900000000    0.7500000000000000    0.7538702100000000 O
