Na6 Li2 W2 O10
1.0
   5.5744321200000000    0.0052969300000000   -0.0304444300000000
   1.7074707200000001    5.7463384800000004   -0.0074789800000000
   2.3459939300000001    1.1231073199999999    6.9556317700000001
Na Li W O
6 2 2 10
direct
   0.7019329900000000    0.0495290000000000    0.5963433400000000 Na
   0.3217137000000000    0.4460921300000000    0.3870088100000000 Na
   0.5178972500000000    0.7453994200000000    0.9904191700000000 Na
   0.6782863000000000    0.5539078700000000    0.6129911900000000 Na
   0.2980670100000000    0.9504710000000000    0.4036566600000000 Na
   0.4821027500000000    0.2546005800000000    0.0095808300000000 Na
   0.8889456500000000    0.3586709400000000    0.1583285600000000 Li
   0.1110543500000000    0.6413290600000000    0.8416714400000000 Li
   0.1021993900000000    0.1604169100000000    0.7948720000000000 W
   0.8978006100000000    0.8395830900000000    0.2051280000000000 W
   0.0116807300000000    0.2305245700000000    0.5670494600000000 O
   0.8462005200000000    0.9482412300000000    0.9252581700000000 O
   0.8430755000000000    0.4221380400000000    0.8931444300000000 O
   0.6432622800000000    0.6649918600000000    0.2748977300000000 O
   0.9883192700000000    0.7694754300000000    0.4329505400000000 O
   0.3524637700000000    0.8790198800000000    0.7242291199999999 O
   0.6475362300000000    0.1209801200000000    0.2757708800000000 O
   0.1537994800000000    0.0517587700000000    0.0747418300000000 O
   0.1569245000000000    0.5778619600000000    0.1068555700000000 O
   0.3567377200000000    0.3350081400000000    0.7251022700000000 O
