Ba8 Si4 O16
1.0
   7.5101849899999999    0.0000000000000000    0.0000000000000000
   0.0000000000000000    5.7813387100000000    0.0000000000000000
   0.0000000000000000    0.0000000000000000   10.2346207800000002
Ba Si O
8 4 16
direct
   0.4905729300000000    0.2500000000000000    0.8067019700000000 Ba
   0.5094270700000000    0.7500000000000000    0.1932980300000000 Ba
   0.9905729300000000    0.2500000000000000    0.6932980300000000 Ba
   0.0094270700000000    0.7500000000000000    0.3067019700000000 Ba
   0.1588530900000000    0.2500000000000000    0.0838297900000000 Ba
   0.8411469100000000    0.7500000000000000    0.9161702100000000 Ba
   0.6588530900000000    0.2500000000000000    0.4161702100000000 Ba
   0.3411469100000000    0.7500000000000000    0.5838297900000000 Ba
   0.2284719600000000    0.2500000000000000    0.4209152400000000 Si
   0.7284719600000000    0.2500000000000000    0.0790847600000000 Si
   0.2715280400000000    0.7500000000000000    0.9209152400000000 Si
   0.7715280400000000    0.7500000000000000    0.5790847600000000 Si
   0.8092321700000000    0.0165420600000000    0.1493943500000000 O
   0.1907678300000000    0.5165420600000000    0.8506056500000000 O
   0.3092321700000000    0.4834579400000000    0.3506056500000000 O
   0.6907678300000000    0.9834579400000000    0.6493943500000000 O
   0.3092321700000000    0.0165420600000000    0.3506056500000000 O
   0.1907678300000000    0.9834579400000000    0.8506056500000000 O
   0.6907678300000000    0.5165420600000000    0.6493943500000000 O
   0.8092321700000000    0.4834579400000000    0.1493943500000000 O
   0.9897821200000000    0.7500000000000000    0.5847611200000000 O
   0.0102178800000000    0.2500000000000000    0.4152388800000000 O
   0.4897821200000000    0.7500000000000000    0.9152388800000000 O
   0.5102178800000000    0.2500000000000000    0.0847611200000000 O
   0.6932718100000000    0.7500000000000000    0.4273779900000000 O
   0.3067281900000000    0.2500000000000000    0.5726220100000000 O
   0.1932718100000000    0.7500000000000000    0.0726220100000000 O
   0.8067281900000000    0.2500000000000000    0.9273779900000000 O
