Rb16 Si4 O16
1.0
  10.8329119899999995    0.0000000000000000    0.0066526000000000
   0.0000000000000000    6.6337357299999997    0.0000000000000000
  -4.0867320700000000    0.0000000000000000    9.8357974499999994
Rb Si O
16 4 16
direct
   0.9310191300000000    0.4139366900000000    0.2948749400000000 Rb
   0.8467704700000001    0.8823182400000000    0.4225197100000000 Rb
   0.9310191300000000    0.0860633100000000    0.7948749400000000 Rb
   0.6263742200000000    0.6707260000000000    0.1077850700000000 Rb
   0.5825109200000000    0.1780459000000000    0.2118434500000000 Rb
   0.8467704700000001    0.6176817600000000    0.9225197100000000 Rb
   0.6263742200000000    0.8292740000000000    0.6077850700000000 Rb
   0.4174890800000000    0.6780459000000000    0.2881565500000000 Rb
   0.5825109200000000    0.3219541000000000    0.7118434500000000 Rb
   0.3736257800000000    0.1707260000000000    0.3922149300000000 Rb
   0.1532295300000000    0.3823182400000000    0.0774802900000000 Rb
   0.4174890800000000    0.8219541000000000    0.7881565500000000 Rb
   0.3736257800000000    0.3292740000000000    0.8922149300000000 Rb
   0.0689808700000000    0.9139366900000000    0.2051250600000000 Rb
   0.1532295300000000    0.1176817600000000    0.5774802900000000 Rb
   0.0689808700000000    0.5860633100000000    0.7051250600000000 Rb
   0.7604000500000000    0.1265629800000000    0.0129318000000000 Si
   0.7604000500000000    0.3734370200000000    0.5129318000000000 Si
   0.2395999500000000    0.6265629800000000    0.4870682000000000 Si
   0.2395999500000000    0.8734370200000000    0.9870682000000000 Si
   0.9048949600000000    0.2260912700000000    0.0244528500000000 O
   0.7860196000000000    0.9958132500000000    0.1542669800000000 O
   0.9048949600000000    0.2739087300000000    0.5244528500000000 O
   0.6959187999999999    0.5216915100000000    0.3759512500000000 O
   0.7860196000000000    0.5041867500000000    0.6542669800000001 O
   0.6532519000000000    0.1847858400000000    0.4985450400000000 O
   0.6959187999999999    0.9783084900000000    0.8759512500000000 O
   0.3467481000000000    0.6847858400000000    0.0014549600000000 O
   0.6532519000000000    0.3152141600000000    0.9985450400000000 O
   0.3040812000000000    0.0216915100000000    0.1240487500000000 O
   0.3467481000000000    0.8152141600000000    0.5014549600000000 O
   0.2139804000000000    0.4958132500000000    0.3457330200000000 O
   0.3040812000000000    0.4783084900000000    0.6240487500000000 O
   0.0951050400000000    0.7260912700000000    0.4755471500000000 O
   0.2139804000000000    0.0041867500000000    0.8457330199999999 O
   0.0951050400000000    0.7739087300000000    0.9755471500000000 O
