Cu8 P8 O24
1.0
  10.9720920000000000    0.0000000000000000    0.0000000000000000
   0.0000000000000000    4.7670849999999998    0.0000000000000000
  -6.6435000000000004    0.0000000000000000   10.1702990000000000
Cu P O
8 8 24
direct
   0.4635470000000000    0.0312810000000000    0.1721590000000000 Cu
   0.8930150000000000    0.6974220000000000    0.0281430000000000 Cu
   0.5364530000000000    0.5312810000000000    0.3278410000000000 Cu
   0.1069850000000000    0.1974220000000000    0.4718570000000000 Cu
   0.8930150000000000    0.8025780000000000    0.5281430000000000 Cu
   0.4635470000000000    0.4687190000000000    0.6721590000000000 Cu
   0.1069850000000000    0.3025780000000000    0.9718570000000000 Cu
   0.5364530000000000    0.9687190000000000    0.8278410000000000 Cu
   0.2202750000000000    0.7863410000000000    0.2168980000000000 P
   0.6928029999999999    0.7841160000000000    0.1150200000000000 P
   0.7797250000000000    0.2863410000000000    0.2831020000000000 P
   0.3071970000000000    0.2841160000000000    0.3849800000000000 P
   0.6928029999999999    0.7158840000000000    0.6150200000000000 P
   0.2202750000000000    0.7136590000000000    0.7168980000000000 P
   0.3071970000000000    0.2158840000000000    0.8849800000000000 P
   0.7797250000000000    0.2136590000000000    0.7831020000000000 P
   0.3621120000000000    0.7824989999999999    0.2259370000000000 O
   0.5461000000000000    0.7692200000000000    0.0927490000000000 O
   0.7096400000000000    0.7308380000000000    0.0005970000000000 O
   0.4539000000000000    0.2692200000000000    0.4072510000000000 O
   0.7729540000000000    0.0805470000000000    0.1754380000000000 O
   0.8074110000000000    0.5807520000000000    0.2367790000000000 O
   0.0873990000000000    0.7200230000000000    0.0832020000000000 O
   0.6378880000000000    0.2824990000000000    0.2740630000000000 O
   0.9126010000000000    0.2200230000000000    0.4167980000000000 O
   0.1925890000000000    0.0807520000000000    0.2632210000000000 O
   0.2270460000000000    0.5805470000000000    0.3245620000000000 O
   0.7096400000000000    0.7691620000000000    0.5005970000000000 O
   0.2903600000000000    0.2308380000000000    0.4994030000000000 O
   0.7729540000000000    0.4194530000000000    0.6754380000000000 O
   0.8074110000000000    0.9192480000000000    0.7367790000000000 O
   0.0873990000000000    0.7799770000000000    0.5832020000000000 O
   0.3621120000000000    0.7175010000000001    0.7259370000000001 O
   0.9126010000000000    0.2799770000000000    0.9167980000000000 O
   0.1925890000000000    0.4192480000000000    0.7632210000000000 O
   0.2270460000000000    0.9194530000000000    0.8245620000000000 O
   0.5461000000000000    0.7307800000000000    0.5927490000000000 O
   0.2903600000000000    0.2691620000000000    0.9994030000000000 O
   0.4539000000000000    0.2307800000000000    0.9072510000000000 O
   0.6378880000000000    0.2175010000000000    0.7740629999999999 O
