Rb4 Cu4 O4
1.0
  -4.6996105500000001    4.6996105500000001    2.8869726099999999
   4.6996105500000001   -4.6996105500000001    2.8869726099999999
   4.6996105500000001    4.6996105500000001   -2.8869726099999999
Rb Cu O
4 4 4
direct
   0.5000000000000000    0.1949812900000000    0.6949812900000000 Rb
   0.1949812900000000    0.5000000000000000    0.6949812900000000 Rb
   0.5000000000000000    0.8050187100000000    0.3050187100000000 Rb
   0.8050187100000000    0.5000000000000000    0.3050187100000000 Rb
   0.8652373700000000    0.1347626300000000    0.0000000000000000 Cu
   0.1347626300000000    0.8652373700000000    0.0000000000000000 Cu
   0.8652373700000000    0.8652373700000000    0.7304747300000000 Cu
   0.1347626300000000    0.1347626300000000    0.2695252700000000 Cu
   0.2722227300000000    0.0000000000000000    0.2722227300000000 O
   0.0000000000000000    0.7277772700000000    0.7277772700000000 O
   0.0000000000000000    0.2722227300000000    0.2722227300000000 O
   0.7277772700000000    0.0000000000000000    0.7277772700000000 O
