Cd4 Se4 O12
1.0
   6.2836410999999996    0.0000000000000000    0.0000000000000000
   0.0000000000000000    8.0848709099999994    0.0000000000000000
   0.0000000000000000    0.0000000000000000    5.3273580300000001
Cd Se O
4 4 12
direct
   0.0000000000000000    0.5000000000000000    0.0000000000000000 Cd
   0.5000000000000000    0.5000000000000000    0.5000000000000000 Cd
   0.5000000000000000    0.0000000000000000    0.5000000000000000 Cd
   0.0000000000000000    0.0000000000000000    0.0000000000000000 Cd
   0.9747350299999999    0.7500000000000000    0.4841217400000000 Se
   0.5252649700000001    0.2500000000000000    0.9841217400000000 Se
   0.4747350300000000    0.7500000000000000    0.0158782600000000 Se
   0.0252649700000000    0.2500000000000000    0.5158782600000000 Se
   0.1738269800000000    0.4143627000000000    0.6338098900000000 O
   0.3261730200000000    0.5856373000000000    0.1338098900000000 O
   0.6738269800000000    0.0856373000000000    0.8661901100000000 O
   0.8261730200000000    0.9143627000000000    0.3661901100000000 O
   0.8261730200000000    0.5856373000000000    0.3661901100000000 O
   0.6738269800000000    0.4143627000000000    0.8661901100000000 O
   0.3261730200000000    0.9143627000000000    0.1338098900000000 O
   0.1738269800000000    0.0856373000000000    0.6338098900000000 O
   0.0938153900000000    0.2500000000000000    0.2017980900000000 O
   0.4061846100000000    0.7500000000000000    0.7017980900000000 O
   0.5938153900000001    0.2500000000000000    0.2982019100000000 O
   0.9061846099999999    0.7500000000000000    0.7982019100000000 O
