Hg8 Se4 O12
1.0
  -5.3179722199999997    5.9701776799999999    3.8814104999999999
   5.3179722199999997   -5.9701776799999999    3.8814104999999999
   5.3179722199999997    5.9701776799999999   -3.8814104999999999
Hg Se O
8 4 12
direct
   0.8509635400000000    0.0768086600000000    0.4403718600000000 Hg
   0.1364377900000000    0.5768086600000000    0.2258451200000000 Hg
   0.3635622100000000    0.5894073300000000    0.4403718600000000 Hg
   0.6364377900000000    0.4105926700000000    0.5596281400000001 Hg
   0.3509635400000000    0.9105926700000000    0.7741548800000000 Hg
   0.1490364600000000    0.9231913400000000    0.5596281400000001 Hg
   0.8635622100000000    0.4231913400000000    0.7741548800000000 Hg
   0.6490364600000000    0.0894073300000000    0.2258451200000000 Hg
   0.3011391800000000    0.5348606500000000    0.8359998300000000 Se
   0.8011391800000000    0.9651393500000000    0.7662785300000000 Se
   0.6988608200000000    0.4651393500000000    0.1640001700000000 Se
   0.1988608200000000    0.0348606500000000    0.2337214700000000 Se
   0.3885016800000000    0.3107459100000000    0.3510428000000000 O
   0.1726058400000000    0.4659134800000000    0.6385193200000000 O
   0.8885016800000000    0.5374588700000000    0.0777567600000000 O
   0.6726058400000000    0.0340865200000000    0.7066933600000000 O
   0.8273941600000000    0.5340865200000000    0.3614806800000000 O
   0.6114983200000000    0.6892540900000000    0.6489572000000000 O
   0.9597031100000000    0.0374588700000000    0.6489572000000000 O
   0.4597031100000000    0.8107459100000000    0.9222432400000000 O
   0.5402968900000000    0.1892540900000000    0.0777567600000000 O
   0.3273941600000000    0.9659134800000000    0.2933066400000000 O
   0.0402968900000000    0.9625411300000000    0.3510428000000000 O
   0.1114983200000000    0.4625411300000000    0.9222432400000000 O
