Na2 In2 W4 O16
1.0
  10.0321062199999993    0.0000000000000000   -0.0003753100000000
   0.0000000000000000    5.8217117199999997    0.0000000000000000
  -0.1335338200000000    0.0000000000000000    5.0784187999999997
Na In W O
2 2 4 16
direct
   0.0000000000000000    0.3229068100000000    0.2500000000000000 Na
   0.0000000000000000    0.6770931900000000    0.7500000000000000 Na
   0.5000000000000000    0.6832534200000000    0.7500000000000000 In
   0.5000000000000000    0.3167465800000000    0.2500000000000000 In
   0.7472456500000000    0.1720831000000000    0.7470952600000000 W
   0.7472456500000000    0.8279169000000000    0.2470952600000000 W
   0.2527543500000000    0.8279169000000000    0.2529047400000000 W
   0.2527543500000000    0.1720831000000000    0.7529047400000000 W
   0.8377550600000000    0.0974412900000000    0.4371453700000000 O
   0.8620850200000000    0.6332255300000000    0.3780874900000000 O
   0.3642935100000000    0.1009474300000000    0.4493380500000000 O
   0.1622449400000000    0.0974412900000000    0.0628546300000000 O
   0.3642935100000000    0.8990525700000001    0.9493380500000000 O
   0.8377550600000000    0.9025587100000000    0.9371453700000000 O
   0.3811616300000000    0.3771384600000000    0.8918784700000000 O
   0.6188383700000000    0.3771384600000000    0.6081215300000000 O
   0.1379149800000000    0.3667744700000000    0.6219125100000000 O
   0.6188383700000000    0.6228615400000000    0.1081215300000000 O
   0.1379149800000000    0.6332255300000000    0.1219125100000000 O
   0.1622449400000000    0.9025587100000000    0.5628546300000000 O
   0.6357064900000000    0.1009474300000000    0.0506619500000000 O
   0.8620850200000000    0.3667744700000000    0.8780874900000000 O
   0.3811616300000000    0.6228615400000000    0.3918784700000000 O
   0.6357064900000000    0.8990525700000001    0.5506619500000000 O
