Rb4 Ge4 Bi4 S16
1.0
   6.5594562999999999    0.0000000000000000    0.0156519500000000
   0.0000000000000000    6.7449202599999998    0.0000000000000000
  -5.5356554600000001    0.0000000000000000   16.9981297399999995
Rb Ge Bi S
4 4 4 16
direct
   0.7287045900000000    0.2495905600000000    0.9667859800000000 Rb
   0.2712954100000000    0.7495905600000000    0.5332140200000000 Rb
   0.2712954100000000    0.7504094400000000    0.0332140200000000 Rb
   0.7287045900000000    0.2504094400000000    0.4667859800000000 Rb
   0.7873695500000000    0.7350667500000000    0.8382725800000000 Ge
   0.2126304500000000    0.2350667500000000    0.6617274200000000 Ge
   0.2126304500000000    0.2649332500000000    0.1617274200000000 Ge
   0.7873695500000000    0.7649332500000000    0.3382725800000000 Ge
   0.7647493000000000    0.2861853600000000    0.7220259600000000 Bi
   0.7647493000000000    0.2138146400000000    0.2220259600000000 Bi
   0.2352507000000000    0.7861853600000001    0.7779740400000000 Bi
   0.2352507000000000    0.7138146399999999    0.2779740400000000 Bi
   0.0282324900000000    0.0073172200000000    0.3616224500000000 S
   0.4194808100000000    0.2455686500000000    0.5846315700000000 S
   0.9932642900000000    0.4960741400000000    0.3525170600000000 S
   0.9932642900000000    0.0039258600000000    0.8525170600000000 S
   0.0067357100000000    0.5039258599999999    0.6474829400000000 S
   0.5765400500000000    0.8289665400000000    0.2158486200000000 S
   0.5805191900000000    0.7544313499999999    0.4153684300000000 S
   0.0282324900000000    0.4926827800000000    0.8616224500000000 S
   0.5805191900000000    0.7455686500000001    0.9153684300000000 S
   0.9717675099999999    0.5073172200000000    0.1383775500000000 S
   0.4194808100000000    0.2544313500000000    0.0846315700000000 S
   0.4234599500000000    0.1710334600000000    0.7841513800000000 S
   0.0067357100000000    0.9960741400000001    0.1474829400000000 S
   0.4234599500000000    0.3289665400000000    0.2841513800000000 S
   0.5765400500000000    0.6710334600000000    0.7158486200000000 S
   0.9717675099999999    0.9926827800000000    0.6383775500000000 S
