Ag4 Mo4 O14
1.0
   6.0860544900000004    0.0000690500000000   -0.0002014900000000
  -2.5517740199999999    6.9233659100000002    0.0001660400000000
  -0.6179281200000000   -3.2478953300000000    6.8991266299999996
Ag Mo O
4 4 14
direct
   0.7680709800000000    0.2703244700000000    0.9462368799999999 Ag
   0.2319290200000000    0.7296755300000000    0.0537631200000000 Ag
   0.2468021000000000    0.2598437000000000    0.7409279000000000 Ag
   0.7531979000000000    0.7401563000000000    0.2590721000000000 Ag
   0.7674941300000000    0.2677287700000000    0.4475978000000000 Mo
   0.2325058700000000    0.7322712300000001    0.5524022000000000 Mo
   0.3314355100000000    0.3245895600000000    0.2482846400000000 Mo
   0.6685644900000000    0.6754104399999999    0.7517153600000001 Mo
   0.7512257400000000    0.5961344000000000    0.9322428500000000 O
   0.2487742600000000    0.4038656000000000    0.0677571500000000 O
   0.9193028100000000    0.6215327600000000    0.6083984500000000 O
   0.0806971900000000    0.3784672400000000    0.3916015500000000 O
   0.3529257100000000    0.6399062200000000    0.7718901900000000 O
   0.6470742900000001    0.3600937800000000    0.2281098100000000 O
   0.5025664500000000    0.6694537600000000    0.4766434100000000 O
   0.4974335500000000    0.3305462400000000    0.5233565900000000 O
   0.6386810500000000    0.0011290300000000    0.2723146600000000 O
   0.3613189500000000    0.9988709700000000    0.7276853400000000 O
   0.1826677100000000    0.0492836500000000    0.1481149800000000 O
   0.8173322900000000    0.9507163500000000    0.8518850200000000 O
   0.8730608000000000    0.2456376800000000    0.6577059100000000 O
   0.1269392000000000    0.7543623200000000    0.3422940900000000 O
