Ba6 Bi2 Te3 O18
1.0
  -2.9962276800000001    4.2563735100000004    9.0204344699999996
   2.9962276800000001   -4.2563735100000004    9.0204344699999996
   2.9962276800000001    4.2563735100000004   -9.0204344699999996
Ba Bi Te O
6 2 3 18
direct
   0.7767103000000000    0.5000000000000000    0.2767103000000000 Ba
   0.3860090600000000    0.1531795900000000    0.2328294700000000 Ba
   0.0796498800000000    0.8468204100000000    0.2328294700000000 Ba
   0.2232897000000000    0.5000000000000000    0.7232897000000000 Ba
   0.9203501200000000    0.1531795900000000    0.7671705300000000 Ba
   0.6139909400000000    0.8468204100000000    0.7671705300000000 Ba
   0.6666575000000000    0.6666575000000000    0.0000000000000000 Bi
   0.3333425000000000    0.3333425000000000    0.0000000000000000 Bi
   0.5000000000000000    0.0000000000000000    0.5000000000000000 Te
   0.1676821900000000    0.6676821900000000    0.5000000000000000 Te
   0.8323178100000000    0.3323178100000000    0.5000000000000000 Te
   0.7237490800000000    0.0000000000000000    0.7237490800000000 O
   0.3989557600000000    0.6675103100000001    0.7314454500000001 O
   0.0639351400000000    0.3324896900000000    0.7314454500000001 O
   0.5776507200000000    0.8464760099999999    0.2688252900000000 O
   0.2439723800000000    0.5132137200000000    0.2692423300000000 O
   0.9071286500000000    0.1799832000000000    0.2728555500000000 O
   0.4223492800000000    0.6911735700000000    0.2688252900000000 O
   0.0928713500000000    0.3657269000000000    0.2728555500000000 O
   0.7560276200000000    0.0252699500000000    0.2692423300000000 O
   0.2762509200000000    0.0000000000000000    0.2762509200000000 O
   0.9360648600000000    0.6675103100000001    0.2685545500000000 O
   0.6010442400000000    0.3324896900000000    0.2685545500000000 O
   0.4223492800000000    0.1535239900000000    0.7311747100000000 O
   0.0928713500000000    0.8200168000000000    0.7271444500000001 O
   0.7560276200000000    0.4867862800000000    0.7307576700000000 O
   0.5776507200000000    0.3088264300000000    0.7311747100000000 O
   0.2439723800000000    0.9747300500000000    0.7307576700000000 O
   0.9071286500000000    0.6342731000000000    0.7271444500000001 O
