Mg4 Ge2 O8
1.0
   0.0000000000000000    4.1452239999999998    4.1452239999999998
   4.1452239999999998    0.0000000000000000    4.1452239999999998
   4.1452239999999998    4.1452239999999998    0.0000000000000000
Mg Ge O
4 2 8
direct
   0.6250000000000000    0.6250000000000000    0.6250000000000000 Mg
   0.1250000000000000    0.6250000000000000    0.6250000000000000 Mg
   0.6250000000000000    0.6250000000000000    0.1250000000000000 Mg
   0.6250000000000000    0.1250000000000000    0.6250000000000000 Mg
   0.2500000000000000    0.2500000000000000    0.2500000000000000 Ge
   0.0000000000000000    0.0000000000000000    0.0000000000000000 Ge
   0.3759686200000000    0.3759686200000000    0.8720941500000000 O
   0.8740313800000000    0.3779058500000000    0.8740313800000000 O
   0.8740313800000000    0.8740313800000000    0.8740313800000000 O
   0.3779058500000000    0.8740313800000000    0.8740313800000000 O
   0.8720941500000000    0.3759686200000000    0.3759686200000000 O
   0.3759686200000000    0.8720941500000000    0.3759686200000000 O
   0.8740313800000000    0.8740313800000000    0.3779058500000000 O
   0.3759686200000000    0.3759686200000000    0.3759686200000000 O
