Cs2 V2 Te2 O12
1.0
  -3.5129395200000002    3.5941682300000002    5.0244924199999996
   3.5129395200000002   -3.5941682300000002    5.0244924199999996
   3.5129395200000002    3.5941682300000002   -5.0244924199999996
Cs V Te O
2 2 2 12
direct
   0.3627099200000000    0.6127099200000000    0.7500000000000000 Cs
   0.6372900800000000    0.3872900800000000    0.2500000000000000 Cs
   0.0000000000000000    0.0000000000000000    0.5000000000000000 V
   0.0000000000000000    0.5000000000000000    0.0000000000000000 V
   0.0000000000000000    0.0000000000000000    0.0000000000000000 Te
   0.5000000000000000    0.0000000000000000    0.5000000000000000 Te
   0.3298780500000000    0.0798780500000000    0.2500000000000000 O
   0.9511317500000001    0.7011317500000001    0.2500000000000000 O
   0.3144450000000000    0.6775471300000000    0.2381726000000000 O
   0.9393745300000000    0.0762724000000000    0.2618274000000000 O
   0.3144450000000000    0.0762724000000000    0.6368978600000000 O
   0.9393745300000000    0.6775471300000000    0.8631021400000000 O
   0.6701219500000000    0.9201219500000000    0.7500000000000000 O
   0.0488682500000000    0.2988682500000000    0.7500000000000000 O
   0.6855550000000000    0.3224528700000000    0.7618274000000000 O
   0.0606254700000000    0.9237276000000000    0.7381726000000000 O
   0.6855550000000000    0.9237276000000000    0.3631021400000000 O
   0.0606254700000000    0.3224528700000000    0.1368978600000000 O
