Ta4 Bi8 O22
1.0
   6.5647611699999997   -0.0009109100000000    0.0123735700000000
   0.0067404700000000    7.6692910100000002    0.0012256700000000
   0.0778539900000000    1.9113307900000001    9.7555209200000004
Ta Bi O
4 8 22
direct
   0.0814237700000000    0.2970110500000000    0.8092117300000000 Ta
   0.9185762300000000    0.7029889499999999    0.1907882700000000 Ta
   0.0842351900000000    0.7984449000000000    0.8093501000000000 Ta
   0.9157648100000000    0.2015551000000000    0.1906499000000000 Ta
   0.2458075700000000    0.6291016200000000    0.4790865000000000 Bi
   0.7541924300000000    0.3708983800000000    0.5209135000000000 Bi
   0.2470501500000000    0.1276303300000000    0.4792404200000000 Bi
   0.7529498500000000    0.8723696700000000    0.5207595800000000 Bi
   0.5504335700000000    0.0466817800000000    0.8184922700000000 Bi
   0.4495664300000000    0.9533182200000000    0.1815077300000000 Bi
   0.6103354400000000    0.5447341700000000    0.8313427799999999 Bi
   0.3896645600000000    0.4552658300000000    0.1686572200000000 Bi
   0.7810233500000000    0.2698423700000000    0.7623488300000000 O
   0.2189766500000000    0.7301576300000000    0.2376511700000000 O
   0.3720884700000000    0.3361726400000000    0.8342622600000000 O
   0.6279115300000000    0.6638273600000000    0.1657377400000000 O
   0.3721442500000000    0.7459321300000000    0.8487278400000000 O
   0.6278557500000000    0.2540678700000000    0.1512721600000000 O
   0.1139452300000000    0.8329180900000001    0.6020398100000000 O
   0.8860547700000000    0.1670819100000000    0.3979601900000000 O
   0.7841599100000000    0.8513291700000000    0.7625252300000001 O
   0.2158400900000000    0.1486708300000000    0.2374747700000000 O
   0.0954032900000000    0.3625280500000000    0.5981818000000000 O
   0.9045967100000000    0.6374719500000000    0.4018182000000000 O
   0.9813709000000000    0.4531301000000000    0.1868475400000000 O
   0.0186291000000000    0.5468699000000000    0.8131524600000000 O
   0.0025843500000000    0.2156261900000000    0.9995866700000000 O
   0.9974156500000000    0.7843738099999999    0.0004133300000000 O
   0.4175539700000000    0.3926701500000000    0.3856745100000000 O
   0.5824460299999999    0.6073298499999999    0.6143254900000000 O
   0.8321309200000000    0.9463309100000000    0.2137710400000000 O
   0.1678690800000000    0.0536690900000000    0.7862289600000000 O
   0.4567001500000000    0.9064991000000000    0.3974384900000000 O
   0.5432998500000000    0.0935009000000000    0.6025615100000000 O
