Rb4 Ag4 Te4 S12
1.0
   7.4644935300000004    0.0000000000000000   -0.0014689200000000
   0.0000000000000000   10.5494634999999999    0.0000000000000000
  -2.3416030000000001    0.0000000000000000    8.0816799800000005
Rb Ag Te S
4 4 4 12
direct
   0.4834468100000000    0.2458403700000000    0.1186307800000000 Rb
   0.5165531900000000    0.7541596300000000    0.8813692200000000 Rb
   0.5165531900000000    0.7458403700000000    0.3813692200000000 Rb
   0.4834468100000000    0.2541596300000000    0.6186307800000000 Rb
   0.9206815300000000    0.2504972000000000    0.4804065200000000 Ag
   0.0793184700000000    0.7495028000000000    0.5195934800000001 Ag
   0.0793184700000000    0.7504972000000000    0.0195934800000000 Ag
   0.9206815300000000    0.2495028000000000    0.9804065199999999 Ag
   0.9278603000000000    0.5075918900000000    0.2306391300000000 Te
   0.0721397000000000    0.4924081100000000    0.7693608700000000 Te
   0.0721397000000000    0.0075918900000000    0.2693608700000000 Te
   0.9278603000000000    0.9924081100000000    0.7306391300000000 Te
   0.7382101300000000    0.0464409400000000    0.4614809200000000 S
   0.2617898700000000    0.9535590600000000    0.5385190800000000 S
   0.2617898700000000    0.5464409400000000    0.0385190800000000 S
   0.7382101300000000    0.4535590600000000    0.9614809200000000 S
   0.8730297299999999    0.7329468900000000    0.2189780600000000 S
   0.1269702700000000    0.2670531100000000    0.7810219400000000 S
   0.1269702700000000    0.2329468900000000    0.2810219400000000 S
   0.8730297299999999    0.7670531100000000    0.7189780600000000 S
   0.7339689200000000    0.4522321500000000    0.4036897400000000 S
   0.2660310800000000    0.5477678499999999    0.5963102600000000 S
   0.2660310800000000    0.9522321500000001    0.0963102600000000 S
   0.7339689200000000    0.0477678500000000    0.9036897400000000 S
