La8 Ge4 S20
1.0
   7.5693561999999996    0.0000000000000000    0.0031311200000000
   0.0000000000000000   12.6415731200000003    0.0000000000000000
  -1.5225522400000000    0.0000000000000000    7.6723727899999998
La Ge S
8 4 20
direct
   0.1571887600000000    0.1667573200000000    0.6355768300000000 La
   0.7614050300000000    0.0940614700000000    0.9609281300000000 La
   0.2385949700000000    0.5940614700000000    0.5390718700000000 La
   0.7614050300000000    0.4059385300000000    0.4609281300000000 La
   0.8428112400000000    0.8332426800000000    0.3644231700000000 La
   0.2385949700000000    0.9059385300000000    0.0390718700000000 La
   0.8428112400000000    0.6667573200000000    0.8644231700000000 La
   0.1571887600000000    0.3332426800000000    0.1355768300000000 La
   0.3408051700000000    0.6175194200000000    0.0885667100000000 Ge
   0.6591948300000000    0.1175194200000000    0.4114332900000000 Ge
   0.6591948300000000    0.3824805800000000    0.9114332900000000 Ge
   0.3408051700000000    0.8824805800000000    0.5885667100000000 Ge
   0.1254551300000000    0.7072557700000000    0.1964465700000000 S
   0.8315031200000000    0.0241112200000000    0.6220289100000000 S
   0.4580380100000000    0.2370188600000000    0.4545653900000000 S
   0.1684968800000000    0.5241112200000000    0.8779710900000000 S
   0.1254551300000000    0.7927442300000000    0.6964465700000000 S
   0.8745448700000000    0.2927442300000000    0.8035534300000000 S
   0.8745448700000000    0.2072557700000000    0.3035534300000000 S
   0.8599449600000000    0.8797539400000000    0.9978165000000000 S
   0.1684968800000000    0.9758887800000000    0.3779710900000000 S
   0.8599449600000000    0.6202460600000000    0.4978165000000000 S
   0.4214001200000000    0.4913864100000000    0.2836471300000000 S
   0.5419619900000000    0.7629811399999999    0.5454346100000000 S
   0.8315031200000000    0.4758887800000000    0.1220289100000000 S
   0.5785998800000000    0.9913864100000001    0.2163528700000000 S
   0.1400550400000000    0.3797539400000000    0.5021835000000000 S
   0.5785998800000000    0.5086135899999999    0.7163528700000000 S
   0.4214001200000000    0.0086135900000000    0.7836471300000000 S
   0.1400550400000000    0.1202460600000000    0.0021835000000000 S
   0.5419619900000000    0.7370188600000001    0.0454346100000000 S
   0.4580380100000000    0.2629811400000000    0.9545653900000000 S
