Na2 Nb2 Se4 O14
1.0
   5.4468014499999997   -3.8452186799999999    0.0000000000000000
   5.4468014499999997    3.8452186799999999    0.0000000000000000
   0.0000000000000000    0.0000000000000000    7.3601951400000001
Na Nb Se O
2 2 4 14
direct
   0.0000000000000000    0.0000000000000000    0.0000000000000000 Na
   0.0000000000000000    0.0000000000000000    0.5000000000000000 Na
   0.5000000000000000    0.5000000000000000    0.5000000000000000 Nb
   0.5000000000000000    0.5000000000000000    0.0000000000000000 Nb
   0.5639148600000000    0.0174461200000000    0.7500000000000000 Se
   0.9825538800000000    0.4360851400000000    0.7500000000000000 Se
   0.4360851400000000    0.9825538800000000    0.2500000000000000 Se
   0.0174461200000000    0.5639148600000000    0.2500000000000000 Se
   0.5464766200000000    0.1927209100000000    0.5647297400000000 O
   0.8072790900000000    0.4535233800000000    0.5647297400000000 O
   0.4535233800000000    0.8072790900000000    0.0647297400000000 O
   0.1927209100000000    0.5464766200000000    0.0647297400000000 O
   0.5464766200000000    0.1927209100000000    0.9352702600000000 O
   0.8072790900000000    0.4535233800000000    0.9352702600000000 O
   0.4535233800000000    0.8072790900000000    0.4352702600000000 O
   0.1927209100000000    0.5464766200000000    0.4352702600000000 O
   0.8260416400000000    0.8890125400000000    0.7500000000000000 O
   0.1109874600000000    0.1739583600000000    0.7500000000000000 O
   0.1739583600000000    0.1109874600000000    0.2500000000000000 O
   0.8890125400000000    0.8260416400000000    0.2500000000000000 O
   0.4132708700000000    0.5867291300000000    0.7500000000000000 O
   0.5867291300000000    0.4132708700000000    0.2500000000000000 O
