Sr4 Y2 Ta2 O12
1.0
   5.7883845899999997    0.0000000000000000   -0.0002658200000000
   0.0000000000000000    5.8761753199999998    0.0000000000000000
  -5.7612196999999998    0.0000000000000000    8.2237807600000004
Sr Y Ta O
4 2 2 12
direct
   0.2586815200000000    0.4617934600000000    0.2494960800000000 Sr
   0.7413184800000000    0.9617934600000000    0.2505039200000000 Sr
   0.2586815200000000    0.0382065400000000    0.7494960800000000 Sr
   0.7413184800000000    0.5382065400000000    0.7505039200000000 Sr
   0.0000000000000000    0.0000000000000000    0.0000000000000000 Y
   0.0000000000000000    0.5000000000000000    0.5000000000000000 Y
   0.5000000000000000    0.5000000000000000    0.0000000000000000 Ta
   0.5000000000000000    0.0000000000000000    0.5000000000000000 Ta
   0.6484958400000000    0.7239952800000000    0.4534900300000000 O
   0.3515041600000000    0.2239952800000000    0.0465099700000000 O
   0.3515041600000000    0.2760047200000000    0.5465099700000000 O
   0.6484958400000000    0.7760047200000000    0.9534900300000000 O
   0.7331419000000000    0.1978186400000000    0.4575741200000000 O
   0.2668581000000000    0.6978186400000000    0.0424258800000000 O
   0.2668581000000000    0.8021813600000000    0.5424258800000000 O
   0.7331419000000000    0.3021813600000000    0.9575741200000000 O
   0.1807325100000000    0.0256628200000000    0.2642575500000000 O
   0.8192674900000000    0.5256628200000000    0.2357424500000000 O
   0.8192674900000000    0.9743371800000000    0.7357424500000000 O
   0.1807325100000000    0.4743371800000000    0.7642575500000000 O
