Sr4 Mg2 Si4 O14
1.0
   8.0123308899999994    0.0000000000000000    0.0000000000000000
   0.0000000000000000    8.0123308899999994    0.0000000000000000
   0.0000000000000000    0.0000000000000000    5.1502728700000002
Sr Mg Si O
4 2 4 14
direct
   0.6653644500000000    0.1653644500000000    0.5077456000000000 Sr
   0.8346355500000000    0.6653644500000000    0.4922544000000000 Sr
   0.1653644500000000    0.3346355500000000    0.4922544000000000 Sr
   0.3346355500000000    0.8346355500000000    0.5077456000000000 Sr
   0.0000000000000000    0.0000000000000000    0.0000000000000000 Mg
   0.5000000000000000    0.5000000000000000    0.0000000000000000 Mg
   0.8608300900000000    0.3608300900000000    0.9434058400000001 Si
   0.1391699100000000    0.6391699100000000    0.9434058400000001 Si
   0.6391699100000000    0.8608300900000000    0.0565941600000000 Si
   0.3608300900000000    0.1391699100000000    0.0565941600000000 Si
   0.6888281100000000    0.4205734800000000    0.7987755100000000 O
   0.3111718900000000    0.5794265199999999    0.7987755100000000 O
   0.4205734800000000    0.3111718900000000    0.2012244900000000 O
   0.5794265199999999    0.6888281100000000    0.2012244900000000 O
   0.9205734800000001    0.1888281100000000    0.7987755100000000 O
   0.8111718900000000    0.9205734800000001    0.2012244900000000 O
   0.1888281100000000    0.0794265200000000    0.2012244900000000 O
   0.0794265200000000    0.8111718900000000    0.7987755100000000 O
   0.8601673900000000    0.3601673900000000    0.2570812500000000 O
   0.6398326100000000    0.8601673900000000    0.7429187500000000 O
   0.5000000000000000    0.0000000000000000    0.1663403900000000 O
   0.0000000000000000    0.5000000000000000    0.8336596100000000 O
   0.1398326100000000    0.6398326100000000    0.2570812500000000 O
   0.3601673900000000    0.1398326100000000    0.7429187500000000 O
