Ta4 Sn2 O12
1.0
   8.6285956800000001   -2.4392912400000002   -0.0003149100000000
   8.6285956800000001    2.4392912400000002   -0.0003149100000000
  -0.1388005900000000    0.0000000000000000    5.5595691399999998
Ta Sn O
4 2 12
direct
   0.4160010900000000    0.9235070000000000    0.6545345700000000 Ta
   0.9235070000000000    0.4160010900000000    0.1545345700000000 Ta
   0.0764930000000000    0.5839989100000000    0.8454654300000000 Ta
   0.5839989100000000    0.0764930000000000    0.3454654300000000 Ta
   0.2333089100000000    0.7666910900000000    0.2500000000000000 Sn
   0.7666910900000000    0.2333089100000000    0.7500000000000000 Sn
   0.4029355000000000    0.3137518000000000    0.0709784900000000 O
   0.5970645000000000    0.6862482000000000    0.9290215100000000 O
   0.1556035400000000    0.2823325100000000    0.8524610600000000 O
   0.3137518000000000    0.4029355000000000    0.5709784900000000 O
   0.9936590900000000    0.1508846200000000    0.0903730200000000 O
   0.0063409100000000    0.8491153800000000    0.9096269800000000 O
   0.1508846200000000    0.9936590900000000    0.5903730200000000 O
   0.8443964600000000    0.7176674900000000    0.1475389400000000 O
   0.8491153800000000    0.0063409100000000    0.4096269800000000 O
   0.2823325100000000    0.1556035400000000    0.3524610600000000 O
   0.7176674900000000    0.8443964600000000    0.6475389400000000 O
   0.6862482000000000    0.5970645000000000    0.4290215100000000 O
