Tl12 P4 S16
1.0
   8.6866791400000007    0.0000000000000000    0.0000000000000000
   0.0000000000000000   10.5590858099999991    0.0000000000000000
   0.0000000000000000    0.0000000000000000    8.9019471800000005
Tl P S
12 4 16
direct
   0.9400811900000000    0.5474511900000000    0.1969025800000000 Tl
   0.4400811900000000    0.9525488100000000    0.3030974200000000 Tl
   0.5599188100000000    0.4525488100000000    0.6969025800000000 Tl
   0.0599188100000000    0.0474511900000000    0.8030974200000000 Tl
   0.0599188100000000    0.4525488100000000    0.8030974200000000 Tl
   0.5599188100000000    0.0474511900000000    0.6969025800000000 Tl
   0.4400811900000000    0.5474511900000000    0.3030974200000000 Tl
   0.9400811900000000    0.9525488100000000    0.1969025800000000 Tl
   0.3859080800000000    0.2500000000000000    0.1111048300000000 Tl
   0.8859080800000000    0.2500000000000000    0.3888951700000000 Tl
   0.1140919200000000    0.7500000000000000    0.6111048300000000 Tl
   0.6140919200000000    0.7500000000000000    0.8888951700000000 Tl
   0.2789097700000000    0.2500000000000000    0.5288940900000000 P
   0.7789097699999999    0.2500000000000000    0.9711059100000000 P
   0.2210902300000000    0.7500000000000000    0.0288940900000000 P
   0.7210902300000001    0.7500000000000000    0.4711059100000000 P
   0.8395574500000000    0.5911361200000000    0.5340204900000000 S
   0.3395574500000000    0.9088638800000000    0.9659795100000000 S
   0.6604425500000000    0.4088638800000000    0.0340204900000000 S
   0.1604425500000000    0.0911361200000000    0.4659795100000000 S
   0.1604425500000000    0.4088638800000000    0.4659795100000000 S
   0.6604425500000000    0.0911361200000000    0.0340204900000000 S
   0.3395574500000000    0.5911361200000000    0.9659795100000000 S
   0.8395574500000000    0.9088638800000000    0.5340204900000000 S
   0.6975699900000000    0.7500000000000000    0.2392178400000000 S
   0.1975699900000000    0.7500000000000000    0.2607821600000000 S
   0.8024300100000000    0.2500000000000000    0.7392178400000000 S
   0.3024300100000000    0.2500000000000000    0.7607821600000000 S
   0.0037083800000000    0.7500000000000000    0.9387743800000000 S
   0.5037083800000000    0.7500000000000000    0.5612256200000000 S
   0.4962916200000000    0.2500000000000000    0.4387743800000000 S
   0.9962916200000000    0.2500000000000000    0.0612256200000000 S
