Na4 Ga4 Se8 O24
1.0
  12.3505389099999991    0.0000000000000000    0.0000000000000000
   0.0000000000000000    5.3408345400000004    0.0000000000000000
   0.0000000000000000    0.0000000000000000    7.8320790400000000
Na Ga Se O
4 4 8 24
direct
   0.3894255600000000    0.2500000000000000    0.4874112800000000 Na
   0.8894255599999999    0.2500000000000000    0.0125887200000000 Na
   0.6105744400000001    0.7500000000000000    0.5125887200000000 Na
   0.1105744400000000    0.7500000000000000    0.9874112800000000 Na
   0.3997095800000000    0.7500000000000000    0.7988823500000000 Ga
   0.8997095800000000    0.7500000000000000    0.7011176500000000 Ga
   0.6002904200000000    0.2500000000000000    0.2011176500000000 Ga
   0.1002904200000000    0.2500000000000000    0.2988823500000000 Ga
   0.5692859600000000    0.2500000000000000    0.7904883300000000 Se
   0.0692859600000000    0.2500000000000000    0.7095116700000000 Se
   0.4307140400000000    0.7500000000000000    0.2095116700000000 Se
   0.9307140400000000    0.7500000000000000    0.2904883300000000 Se
   0.2052350500000000    0.7500000000000000    0.5105064499999999 Se
   0.7052350500000000    0.7500000000000000    0.9894935500000001 Se
   0.7947649500000000    0.2500000000000000    0.4894935500000000 Se
   0.2947649500000000    0.2500000000000000    0.0105064500000000 Se
   0.5156169500000000    0.2500000000000000    0.9924050200000000 O
   0.0156169500000000    0.2500000000000000    0.5075949800000000 O
   0.4843830500000000    0.7500000000000000    0.0075949800000000 O
   0.9843830500000000    0.7500000000000000    0.4924050200000000 O
   0.5002954900000000    0.0049647800000000    0.6973033199999999 O
   0.0002954900000000    0.4950352200000000    0.8026966800000001 O
   0.4997045100000000    0.5049647800000000    0.3026966800000000 O
   0.9997045100000000    0.9950352200000000    0.1973033200000000 O
   0.4997045100000000    0.9950352200000000    0.3026966800000000 O
   0.9997045100000000    0.5049647800000000    0.1973033200000000 O
   0.5002954900000000    0.4950352200000000    0.6973033199999999 O
   0.0002954900000000    0.0049647800000000    0.8026966800000001 O
   0.3408018400000000    0.7500000000000000    0.5642763900000000 O
   0.8408018400000000    0.7500000000000000    0.9357236100000000 O
   0.6591981600000000    0.2500000000000000    0.4357236100000000 O
   0.1591981600000000    0.2500000000000000    0.0642763900000000 O
   0.2123375700000000    0.0020918700000000    0.3724999700000000 O
   0.7123375700000000    0.4979081300000000    0.1275000300000000 O
   0.7876624300000000    0.5020918700000000    0.6275000300000000 O
   0.2876624300000000    0.9979081300000000    0.8724999700000000 O
   0.7876624300000000    0.9979081300000000    0.6275000300000000 O
   0.2876624300000000    0.5020918700000000    0.8724999700000000 O
   0.2123375700000000    0.4979081300000000    0.3724999700000000 O
   0.7123375700000000    0.0020918700000000    0.1275000300000000 O
