Ba1 Ca1 Ga4 O8
1.0
  -4.1043284699999996    4.5834452299999997    2.5798082999999998
   4.1043284699999996   -4.5834452299999997    2.5798082999999998
   4.1043284699999996    4.5834452299999997   -2.5798082999999998
Ba Ca Ga O
1 1 4 8
direct
   0.0129130500000000    0.0129130500000000    0.0000000000000000 Ba
   0.9305125700000000    0.4305125700000000    0.5000000000000000 Ca
   0.6270317300000000    0.1686152700000000    0.8763685100000000 Ga
   0.2922467600000000    0.1686152700000000    0.5415845300000000 Ga
   0.2922467600000000    0.7506622200000000    0.1236314900000000 Ga
   0.6270317300000000    0.7506622200000000    0.4584154700000000 Ga
   0.2646649800000000    0.3965595400000000    0.4596919500000000 O
   0.9368675900000000    0.8049730300000000    0.5403080500000000 O
   0.5743862100000000    0.3846665900000000    0.8102803800000000 O
   0.5743862100000000    0.7641058300000000    0.1897196200000000 O
   0.9368675900000000    0.3965595400000000    0.1318945600000000 O
   0.2646649800000000    0.8049730300000000    0.8681054400000000 O
   0.4184592600000000    0.0928409200000000    0.3256183400000000 O
   0.7672235900000000    0.0928409200000000    0.6743816600000000 O
