Ca4 Ge8 O20
1.0
   7.3490787900000001    0.0000000000000000    0.0000000000000000
   0.0000000000000000    8.3421501100000004    0.0000000000000000
   0.0000000000000000    0.0000000000000000    5.7661781200000002
Ca Ge O
4 8 20
direct
   0.3651524500000000    0.1665121000000000    0.5000000000000000 Ca
   0.6348475500000000    0.8334878999999999    0.5000000000000000 Ca
   0.8651524500000000    0.3334879000000000    0.5000000000000000 Ca
   0.1348475500000000    0.6665121000000001    0.5000000000000000 Ca
   0.6079982600000000    0.1466306200000000    0.0000000000000000 Ge
   0.3920017400000000    0.8533693800000000    0.0000000000000000 Ge
   0.1079982600000000    0.3533693800000000    0.0000000000000000 Ge
   0.8920017400000000    0.6466306200000000    0.0000000000000000 Ge
   0.5000000000000000    0.5000000000000000    0.2539938600000000 Ge
   0.0000000000000000    0.0000000000000000    0.7460061400000000 Ge
   0.5000000000000000    0.5000000000000000    0.7460061400000000 Ge
   0.0000000000000000    0.0000000000000000    0.2539938600000000 Ge
   0.8454650500000001    0.0739035700000000    0.0000000000000000 O
   0.1545349500000000    0.9260964300000000    0.0000000000000000 O
   0.3454650500000000    0.4260964300000000    0.0000000000000000 O
   0.6545349499999999    0.5739035700000000    0.0000000000000000 O
   0.3401499300000000    0.4438752700000000    0.5000000000000000 O
   0.6598500700000000    0.5561247300000000    0.5000000000000000 O
   0.8401499300000000    0.0561247300000000    0.5000000000000000 O
   0.1598500700000000    0.9438752700000000    0.5000000000000000 O
   0.5000000000000000    0.0000000000000000    0.2105512600000000 O
   0.0000000000000000    0.5000000000000000    0.7894487400000000 O
   0.5000000000000000    0.0000000000000000    0.7894487400000000 O
   0.0000000000000000    0.5000000000000000    0.2105512600000000 O
   0.1077286600000000    0.2079013300000000    0.2440860200000000 O
   0.8922713400000000    0.7920986700000000    0.2440860200000000 O
   0.6077286600000000    0.2920986700000000    0.7559139800000000 O
   0.3922713400000000    0.7079013300000000    0.7559139800000000 O
   0.8922713400000000    0.7920986700000000    0.7559139800000000 O
   0.1077286600000000    0.2079013300000000    0.7559139800000000 O
   0.3922713400000000    0.7079013300000000    0.2440860200000000 O
   0.6077286600000000    0.2920986700000000    0.2440860200000000 O
