Ta9 V1 O25
1.0
  -7.8624965500000004    7.8624962600000003    1.9435530200000000
   7.8624965500000004   -7.8624962600000003    1.9435530200000000
   7.8624962600000003    7.8624965500000004   -1.9435530200000000
Ta V O
9 1 25
direct
   0.1462289300000000    0.9702408700000000    0.6209755600000000 Ta
   0.9258292900000000    0.8717322400000000    0.2973476300000000 Ta
   0.5743846100000000    0.6284806600000000    0.7026523700000000 Ta
   0.3715193400000000    0.0741707100000000    0.9459039500000000 Ta
   0.1282677600000000    0.4256153900000000    0.0540960500000000 Ta
   0.4747466200000000    0.8537710700000000    0.8240119299999999 Ta
   0.0297591300000000    0.6507346899999999    0.1759880700000000 Ta
   0.3492653100000000    0.5252533800000000    0.3790244400000000 Ta
   0.2500000000000000    0.7500000000000000    0.5000000000000000 Ta
   0.5000000000000000    0.5000000000000000    0.0000000000000000 V
   0.7958282900000000    0.8129047000000000    0.1293605600000000 O
   0.3335332800000000    0.2041717100000000    0.0170774200000000 O
   0.1870953000000000    0.3164558600000000    0.9829225800000000 O
   0.6835441400000000    0.6664667200000000    0.8706394400000000 O
   0.7500000000000000    0.2500000000000000    0.5000000000000000 O
   0.6349867500000000    0.5005978700000000    0.6405253200000000 O
   0.0055385700000000    0.3650132500000000    0.8656111200000000 O
   0.4994021300000000    0.1399274500000000    0.1343888800000000 O
   0.8600725500000000    0.9944614300000000    0.3594746800000000 O
   0.0285527100000000    0.9222314100000000    0.4612118000000000 O
   0.9730244800000000    0.7645000600000000    0.2329091100000000 O
   0.2598846300000000    0.0269755200000000    0.7914755800000000 O
   0.2354999400000000    0.4684090400000000    0.2085244200000000 O
   0.5315909599999999    0.7401153700000001    0.7670908900000000 O
   0.3668724100000000    0.8027316400000000    0.6681022200000000 O
   0.3012298100000000    0.6331275900000000    0.4358592300000000 O
   0.1972683600000000    0.8653705800000000    0.5641407700000000 O
   0.4326580900000000    0.9714472900000000    0.8936787000000000 O
   0.4054006600000000    0.3952379400000000    0.3065319200000000 O
   0.9011312600000000    0.5945993400000000    0.9898372700000000 O
   0.6047620600000000    0.9112939900000000    0.0101627300000000 O
   0.0887060100000000    0.0988687400000000    0.6934680800000000 O
   0.4610196100000000    0.5673419100000000    0.5387882000000001 O
   0.0777685900000000    0.5389803900000000    0.1063213000000000 O
   0.1346294200000000    0.6987701900000000    0.3318977800000000 O
