Mg8 Nb4 O18
1.0
   5.1858765399999998    0.0000000000000000    0.0000000000000000
  -2.5929382699999999    4.4911004400000003    0.0000000000000000
   0.0000000000000000    0.0000000000000000   14.0850443999999992
Mg Nb O
8 4 18
direct
   0.6666670000000000    0.3333330000000000    0.5163595500000000 Mg
   0.3333330000000000    0.6666670000000000    0.9836404500000000 Mg
   0.3333330000000000    0.6666670000000000    0.4836404500000000 Mg
   0.6666670000000000    0.3333330000000000    0.0163595500000000 Mg
   0.6666670000000000    0.3333330000000000    0.3094045700000000 Mg
   0.3333330000000000    0.6666670000000000    0.1905954300000000 Mg
   0.3333330000000000    0.6666670000000000    0.6905954300000000 Mg
   0.6666670000000000    0.3333330000000000    0.8094045700000000 Mg
   0.0000000000000000    0.0000000000000000    0.3578200300000000 Nb
   0.0000000000000000    0.0000000000000000    0.1421799700000000 Nb
   0.0000000000000000    0.0000000000000000    0.6421799700000000 Nb
   0.0000000000000000    0.0000000000000000    0.8578200300000000 Nb
   0.3514908500000000    0.0293273600000000    0.9159639400000000 O
   0.9706726400000000    0.3221634900000000    0.9159639400000000 O
   0.6778365100000000    0.6485091500000000    0.9159639400000000 O
   0.3221634900000000    0.9706726400000000    0.5840360600000000 O
   0.6485091500000000    0.6778365100000000    0.5840360600000000 O
   0.0293273600000000    0.3514908500000000    0.5840360600000000 O
   0.6485091500000000    0.9706726400000000    0.0840360600000000 O
   0.0293273600000000    0.6778365100000000    0.0840360600000000 O
   0.3221634900000000    0.3514908500000000    0.0840360600000000 O
   0.6778365100000000    0.0293273600000000    0.4159639400000000 O
   0.3514908500000000    0.3221634900000000    0.4159639400000000 O
   0.9706726400000000    0.6485091500000000    0.4159639400000000 O
   0.2912169200000000    0.0000000000000000    0.2500000000000000 O
   1.0000000000000000    0.2912169200000000    0.2500000000000000 O
   0.7087830800000000    0.7087830800000000    0.2500000000000000 O
   0.7087830800000000    0.0000000000000000    0.7500000000000000 O
   0.0000000000000000    0.7087830800000000    0.7500000000000000 O
   0.2912169200000000    0.2912169200000000    0.7500000000000000 O
