Y2 P6 O18
1.0
   7.1198924699999999   -3.3793385200000001   -0.0329865500000000
   7.1198924699999999    3.3793385200000001   -0.0329865500000000
  -6.1014626300000003    0.0000000000000000    8.0542488199999998
Y P O
2 6 18
direct
   0.3177392000000000    0.7862898500000000    0.2534574200000000 Y
   0.7862898500000000    0.3177392000000000    0.7534574200000000 Y
   0.6006054900000000    0.8087193000000000    0.0907322000000000 P
   0.8087193000000000    0.6006054900000000    0.5907322000000000 P
   0.3749771200000000    0.2150219300000000    0.9816704300000000 P
   0.2150219300000000    0.3749771200000000    0.4816704300000000 P
   0.8113906900000000    0.9911598900000000    0.9191742400000000 P
   0.9911598900000000    0.8113906900000000    0.4191742400000000 P
   0.4226121000000000    0.0508815200000000    0.0571589200000000 O
   0.0508815200000000    0.4226121000000000    0.5571589200000000 O
   0.5536208700000000    0.0537262300000000    0.8787353500000000 O
   0.0537262300000000    0.5536208700000000    0.3787353500000000 O
   0.8891786300000000    0.7571352600000000    0.7735650300000000 O
   0.7571352600000000    0.8891786300000000    0.2735650300000000 O
   0.4716733500000000    0.7359462300000000    0.0979189300000000 O
   0.7359462300000000    0.4716733500000000    0.5979189300000000 O
   0.7343506200000000    0.6427478700000000    0.9693029000000000 O
   0.6427478700000000    0.7343506200000000    0.4693029000000000 O
   0.4215848300000000    0.4092510400000000    0.1216553600000000 O
   0.4092510400000000    0.4215848300000000    0.6216553600000000 O
   0.1403629800000000    0.2715020400000000    0.8572136900000000 O
   0.2715020400000000    0.1403629800000000    0.3572136900000000 O
   0.9627289300000000    0.9364581000000000    0.0798886400000000 O
   0.9364581000000000    0.9627289300000000    0.5798886400000000 O
   0.8033182800000001    0.1692186600000000    0.8970278900000000 O
   0.1692186600000000    0.8033182800000001    0.3970278900000000 O
