Li2 Ta6 O16
1.0
   4.7002691800000003   -5.7727306199999999    0.0037353100000000
   4.7002691800000003    5.7727306199999999    0.0037353100000000
  -0.1029686700000000    0.0000000000000000    5.1108972200000000
Li Ta O
2 6 16
direct
   0.1561306400000000    0.8438693600000000    0.2500000000000000 Li
   0.8438693600000000    0.1561306400000000    0.7500000000000000 Li
   0.6780266000000000    0.3219734000000000    0.2500000000000000 Ta
   0.3219734000000000    0.6780266000000000    0.7500000000000000 Ta
   0.6724307200000000    0.8351253900000000    0.2536566500000000 Ta
   0.1648746100000000    0.3275692800000000    0.2463433500000000 Ta
   0.3275692800000000    0.1648746100000000    0.7463433500000000 Ta
   0.8351253900000000    0.6724307200000000    0.7536566500000000 Ta
   0.6846471600000000    0.0763558400000000    0.3962641300000000 O
   0.9236441600000000    0.3153528400000000    0.1037358700000000 O
   0.3153528400000000    0.9236441600000000    0.6037358700000000 O
   0.0763558400000000    0.6846471600000000    0.8962641300000000 O
   0.0943624100000000    0.1940870800000000    0.5610074200000000 O
   0.8059129200000000    0.9056375900000000    0.9389925800000000 O
   0.9056375900000000    0.8059129200000000    0.4389925800000000 O
   0.1940870800000000    0.0943624100000000    0.0610074200000000 O
   0.7941487900000000    0.4351204200000000    0.5760551100000000 O
   0.5648795800000000    0.2058512100000000    0.9239448900000000 O
   0.2058512100000000    0.5648795800000000    0.4239448900000000 O
   0.4351204200000000    0.7941487900000000    0.0760551100000000 O
   0.3048576500000000    0.4289225800000000    0.9123282500000000 O
   0.5710774199999999    0.6951423500000000    0.5876717500000000 O
   0.6951423500000000    0.5710774199999999    0.0876717500000000 O
   0.4289225800000000    0.3048576500000000    0.4123282500000000 O
