Ca4 Sc2 Ta2 O12
1.0
   5.4674758199999998    0.0000000000000000    0.0053529300000000
   0.0000000000000000    5.6432173499999996    0.0000000000000000
  -5.4627872399999999    0.0000000000000000    7.8255151999999999
Ca Sc Ta O
4 2 2 12
direct
   0.2354567300000000    0.4482973700000000    0.2486113300000000 Ca
   0.7645432700000000    0.5517026300000000    0.7513886700000000 Ca
   0.7645432700000000    0.9482973700000000    0.2513886700000000 Ca
   0.2354567300000000    0.0517026300000000    0.7486113300000000 Ca
   0.0000000000000000    0.0000000000000000    0.0000000000000000 Sc
   0.0000000000000000    0.5000000000000000    0.5000000000000000 Sc
   0.5000000000000000    0.0000000000000000    0.5000000000000000 Ta
   0.5000000000000000    0.5000000000000000    0.0000000000000000 Ta
   0.3562259400000000    0.0353484400000000    0.2559283000000000 O
   0.6437740600000000    0.9646515600000000    0.7440717000000000 O
   0.6437740600000000    0.5353484400000000    0.2440717000000000 O
   0.3562259400000000    0.4646515600000000    0.7559283000000000 O
   0.8447299800000000    0.6969329399999999    0.0508363500000000 O
   0.1552700200000000    0.3030670600000000    0.9491636500000000 O
   0.1552700200000000    0.1969329400000000    0.4491636500000000 O
   0.8447299800000000    0.8030670600000001    0.5508363500000000 O
   0.7489763400000000    0.2086285100000000    0.0550269700000000 O
   0.2510236600000000    0.7913714900000000    0.9449730300000000 O
   0.2510236600000000    0.7086285100000000    0.4449730300000000 O
   0.7489763400000000    0.2913714900000000    0.5550269700000000 O
