Ca6 W2 O12
1.0
   4.6587807999999997    2.6897486900000001    3.6450071199999998
  -4.6587806900000004    2.6897488699999998    3.6450071199999998
  -0.0000001100000000   -5.3794975599999999    3.6450071199999998
Ca W O
6 2 12
direct
   0.4362058000000000    0.7473745899999999    0.9335981600000000 Ca
   0.9335981600000000    0.4362058000000000    0.7473745899999999 Ca
   0.2526254100000000    0.0664018400000000    0.5637942000000000 Ca
   0.7473745899999999    0.9335981600000000    0.4362058000000000 Ca
   0.0664018400000000    0.5637942000000000    0.2526254100000000 Ca
   0.5637942000000000    0.2526254100000000    0.0664018400000000 Ca
   0.0000000000000000    0.0000000000000000    0.0000000000000000 W
   0.5000000000000000    0.5000000000000000    0.5000000000000000 W
   0.2832565400000000    0.0686730200000000    0.9376174700000000 O
   0.0623825300000000    0.7167434600000000    0.9313269800000000 O
   0.5783092800000000    0.4526670200000000    0.7831000900000000 O
   0.9313269800000000    0.0623825300000000    0.7167434600000000 O
   0.4526670200000000    0.7831000900000000    0.5783092800000000 O
   0.2168999100000000    0.4216907200000000    0.5473329800000000 O
   0.7831000900000000    0.5783092800000000    0.4526670200000000 O
   0.5473329800000000    0.2168999100000000    0.4216907200000000 O
   0.0686730200000000    0.9376174700000000    0.2832565400000000 O
   0.4216907200000000    0.5473329800000000    0.2168999100000000 O
   0.9376174700000000    0.2832565400000000    0.0686730200000000 O
   0.7167434600000000    0.9313269800000000    0.0623825300000000 O
