Cs2 Ta2 W2 O12
1.0
  -3.6592788900000000    3.6937864600000001    5.2076115300000003
   3.6592788900000000   -3.6937864600000001    5.2076115300000003
   3.6592788900000000    3.6937864600000001   -5.2076115300000003
Cs Ta W O
2 2 2 12
direct
   0.1221679300000000    0.8721679300000000    0.2500000000000000 Cs
   0.8778320700000000    0.1278320700000000    0.7500000000000000 Cs
   0.0000000000000000    0.5000000000000000    0.5000000000000000 Ta
   0.5000000000000000    0.5000000000000000    0.0000000000000000 Ta
   0.5000000000000000    0.5000000000000000    0.5000000000000000 W
   0.5000000000000000    0.0000000000000000    0.0000000000000000 W
   0.5577486300000000    0.8077486300000000    0.7500000000000000 O
   0.1850225700000000    0.4350225700000000    0.7500000000000000 O
   0.5595360200000000    0.8183588800000000    0.1227929800000000 O
   0.1955659000000000    0.4367430400000000    0.3772070200000000 O
   0.1955659000000000    0.8183588800000000    0.7588228700000000 O
   0.5595360200000000    0.4367430400000000    0.7411771300000000 O
   0.4422513700000000    0.1922513700000000    0.2500000000000000 O
   0.8149774300000000    0.5649774300000000    0.2500000000000000 O
   0.4404639800000000    0.1816411200000000    0.8772070199999999 O
   0.8044341000000000    0.5632569600000000    0.6227929800000001 O
   0.8044341000000000    0.1816411200000000    0.2411771300000000 O
   0.4404639800000000    0.5632569600000000    0.2588228700000000 O
