Tl8 As8 S16
1.0
   6.0147999600000004    0.0000000000000000   -0.0071967500000000
   0.0000000000000000   11.2382975500000004    0.0000000000000000
  -3.0189146199999999    0.0000000000000000   11.6892616799999995
Tl As S
8 8 16
direct
   0.8370462300000000    0.3178200500000000    0.9413936800000000 Tl
   0.1629537700000000    0.8178200500000000    0.5586063200000000 Tl
   0.1629537700000000    0.6821799500000000    0.0586063200000000 Tl
   0.8370462300000000    0.1821799500000000    0.4413936800000000 Tl
   0.2752944600000000    0.0615911600000000    0.9017131000000000 Tl
   0.7247055400000000    0.5615911600000000    0.5982869000000000 Tl
   0.7247055400000000    0.9384088400000000    0.0982869000000000 Tl
   0.2752944600000000    0.4384088400000000    0.4017131000000000 Tl
   0.2295697600000000    0.3322555300000000    0.6899151400000000 As
   0.4491665400000000    0.9121853599999999    0.3635239600000000 As
   0.5508334600000000    0.4121853600000000    0.1364760400000000 As
   0.5508334600000000    0.0878146400000000    0.6364760400000000 As
   0.4491665400000000    0.5878146400000001    0.8635239600000000 As
   0.7704302400000000    0.6677444700000000    0.3100848600000000 As
   0.2295697600000000    0.1677444700000000    0.1899151400000000 As
   0.7704302400000000    0.8322555300000000    0.8100848600000000 As
   0.4060209400000000    0.7927416100000000    0.8342377399999999 S
   0.7390322900000000    0.4587299400000000    0.3241325600000000 S
   0.2609677100000000    0.9587299400000000    0.1758674400000000 S
   0.2609677100000000    0.5412700600000000    0.6758674400000000 S
   0.7390322900000000    0.0412700600000000    0.8241325600000000 S
   0.4060209400000000    0.7072583900000000    0.3342377400000000 S
   0.5939790600000000    0.2072583900000000    0.1657622600000000 S
   0.5939790600000000    0.2927416100000000    0.6657622600000001 S
   0.2874666500000000    0.3201699500000000    0.8772498500000000 S
   0.7125333500000000    0.8201699500000000    0.6227501500000000 S
   0.7125333500000000    0.6798300500000000    0.1227501500000000 S
   0.8085343300000000    0.9355198200000000    0.3495613700000000 S
   0.8085343300000000    0.5644801800000000    0.8495613700000000 S
   0.1914656700000000    0.0644801800000000    0.6504386300000000 S
   0.1914656700000000    0.4355198200000000    0.1504386300000000 S
   0.2874666500000000    0.1798300500000000    0.3772498500000000 S
