Mg2 Ge2 O6
1.0
   2.4917745299999998    1.4386266599999999    4.5947813799999997
  -2.4917745299999998    1.4386266599999999    4.5947813799999997
  -0.0000000000000000   -2.8772533199999999    4.5947813799999997
Mg Ge O
2 2 6
direct
   0.6412031900000000    0.6412031900000000    0.6412031900000000 Mg
   0.3587968100000000    0.3587968100000000    0.3587968100000000 Mg
   0.8465443499999999    0.8465443499999999    0.8465443499999999 Ge
   0.1534556500000000    0.1534556500000000    0.1534556500000000 Ge
   0.9543847300000000    0.2215487100000000    0.5587232700000000 O
   0.2215487100000000    0.5587232700000000    0.9543847300000000 O
   0.5587232700000000    0.9543847300000000    0.2215487100000000 O
   0.0456152700000000    0.7784512900000000    0.4412767300000000 O
   0.4412767300000000    0.0456152700000000    0.7784512900000000 O
   0.7784512900000000    0.4412767300000000    0.0456152700000000 O
