Tl6 B6 S12
1.0
   4.9369934000000004    2.8503744200000001    5.7507673099999996
  -4.9369934000000004    2.8503744200000001    5.7507673099999996
   0.0000000000000000   -5.7007497699999998    5.7507672899999998
Tl B S
6 6 12
direct
   0.3270936400000000    0.7231652500000000    0.7231652500000000 Tl
   0.7231652500000000    0.3270936400000000    0.7231652500000000 Tl
   0.7231652500000000    0.7231652500000000    0.3270936400000000 Tl
   0.6729063600000000    0.2768347500000000    0.2768347500000000 Tl
   0.2768347500000000    0.6729063600000000    0.2768347500000000 Tl
   0.2768347500000000    0.2768347500000000    0.6729063600000000 Tl
   0.1028124200000000    0.4109978100000000    0.1028124200000000 B
   0.1028124200000000    0.1028124200000000    0.4109978100000000 B
   0.4109978100000000    0.1028124200000000    0.1028124200000000 B
   0.8971875800000000    0.8971875800000000    0.5890021900000000 B
   0.5890021900000000    0.8971875800000000    0.8971875800000000 B
   0.8971875800000000    0.5890021900000000    0.8971875800000000 B
   0.9692625000000000    0.3406525200000000    0.9692625000000000 S
   0.3406525200000000    0.9692625000000000    0.9692625000000000 S
   0.9692625000000000    0.9692625000000000    0.3406525200000000 S
   0.6593474800000000    0.0307375000000000    0.0307375000000000 S
   0.0307375000000000    0.0307375000000000    0.6593474800000000 S
   0.0307375000000000    0.6593474800000000    0.0307375000000000 S
   0.9735595200000000    0.6520665100000000    0.6520665100000000 S
   0.6520665100000000    0.6520665100000000    0.9735595200000000 S
   0.6520665100000000    0.9735595200000000    0.6520665100000000 S
   0.3479334900000000    0.0264404800000000    0.3479334900000000 S
   0.0264404800000000    0.3479334900000000    0.3479334900000000 S
   0.3479334900000000    0.3479334900000000    0.0264404800000000 S
