Mg2 P2 S6
1.0
   3.0150731099999999   -5.2239962799999997    0.0031764200000000
   3.0150731099999999    5.2239962799999997    0.0031764200000000
  -1.9922313500000000    0.0000000000000000    6.6556124099999998
Mg P S
2 2 6
direct
   0.3329273700000000    0.6670726300000001    0.0000000000000000 Mg
   0.6670726300000001    0.3329273700000000    0.0000000000000000 Mg
   0.0546856100000000    0.0546856100000000    0.1648731900000000 P
   0.9453143899999999    0.9453143899999999    0.8351268100000000 P
   0.7548778400000000    0.7548778400000000    0.2443479000000000 S
   0.2451221600000000    0.2451221600000000    0.7556521000000000 S
   0.4064037700000000    0.0808752000000000    0.2452267500000000 S
   0.0808752000000000    0.4064037700000000    0.2452267500000000 S
   0.5935962299999999    0.9191248000000000    0.7547732500000000 S
   0.9191248000000000    0.5935962299999999    0.7547732500000000 S
