Tl6 S3
1.0
   6.9472710600000003    0.0000000900000000    0.0000000000000000
  -3.4736356100000001    6.0165132400000001    0.0000000000000000
   0.0000000000000000    0.0000000000000000    5.9618703999999996
Tl S
6 3
direct
   0.0416332600000000    0.7134465500000000    0.9314492700000000 Tl
   0.6718132800000000    0.9583667400000000    0.9314492700000000 Tl
   0.9571968100000000    0.3379347000000000    0.3770273300000000 Tl
   0.3807378900000000    0.0428031900000000    0.3770273300000000 Tl
   0.6620653000000000    0.6192621100000000    0.3770273300000000 Tl
   0.2865534500000000    0.3281867200000000    0.9314492700000000 Tl
   0.0000000000000000    0.0000000000000000    0.6007889800000000 S
   0.6666670000000000    0.3333330000000000    0.7554376800000000 S
   0.3333330000000000    0.6666670000000000    0.6163395300000000 S
