In4 Hg2 S8
1.0
   0.0000000000000000    5.4563839999999999    5.4563839999999999
   5.4563839999999999    0.0000000000000000    5.4563839999999999
   5.4563839999999999    5.4563839999999999    0.0000000000000000
In Hg S
4 2 8
direct
   0.1250000000000000    0.1250000000000000    0.1250000000000000 In
   0.6250000000000000    0.1250000000000000    0.1250000000000000 In
   0.1250000000000000    0.1250000000000000    0.6250000000000000 In
   0.1250000000000000    0.6250000000000000    0.1250000000000000 In
   0.5000000000000000    0.5000000000000000    0.5000000000000000 Hg
   0.7500000000000000    0.7500000000000000    0.7500000000000000 Hg
   0.8845300000000000    0.3464110000000000    0.8845300000000000 S
   0.3654700000000000    0.3654700000000000    0.9035890000000000 S
   0.3654700000000000    0.3654700000000000    0.3654700000000000 S
   0.9035890000000000    0.3654700000000000    0.3654700000000000 S
   0.8845300000000000    0.8845300000000000    0.8845300000000000 S
   0.3464110000000000    0.8845300000000000    0.8845300000000000 S
   0.3654700000000000    0.9035890000000000    0.3654700000000000 S
   0.8845300000000000    0.8845300000000000    0.3464110000000000 S
