Ta2 Ti2 P6 O24
1.0
   4.3271294800000000    2.4982695499999998    7.4200524400000001
  -4.3271294800000000    2.4982695499999998    7.4200524400000001
   0.0000000000000000   -4.9965380799999997    7.4200524300000001
Ta Ti P O
2 2 6 24
direct
   0.3581277200000000    0.3581277200000000    0.3581277200000000 Ta
   0.8581277200000000    0.8581277200000000    0.8581277200000000 Ta
   0.1432171600000000    0.1432171600000000    0.1432171600000000 Ti
   0.6432171600000000    0.6432171600000000    0.6432171600000000 Ti
   0.7550162700000000    0.0297010900000000    0.4639940200000000 P
   0.0297010900000000    0.4639940200000000    0.7550162700000000 P
   0.4639940200000000    0.7550162700000000    0.0297010900000000 P
   0.5297010900000000    0.2550162700000000    0.9639940200000000 P
   0.9639940200000000    0.5297010900000000    0.2550162700000000 P
   0.2550162700000000    0.9639940200000000    0.5297010900000000 P
   0.2742216000000000    0.1388027000000000    0.5044062499999999 O
   0.5044062499999999    0.2742216000000000    0.1388027000000000 O
   0.9265366500000000    0.0617645500000000    0.2899741700000000 O
   0.1388027000000000    0.5044062499999999    0.2742216000000000 O
   0.7742216000000000    0.0044062500000000    0.6388026999999999 O
   0.5778996100000000    0.2072880200000000    0.4379524400000000 O
   0.0617645500000000    0.2899741700000000    0.9265366500000000 O
   0.2072880200000000    0.4379524400000000    0.5778996100000000 O
   0.3595411100000000    0.2290642900000000    0.9942353300000000 O
   0.4379524400000000    0.5778996100000000    0.2072880200000000 O
   0.7072880200000000    0.0778996100000000    0.9379524400000000 O
   0.9942353300000000    0.3595411100000000    0.2290642900000000 O
   0.0044062500000000    0.6388026999999999    0.7742216000000000 O
   0.2899741700000000    0.9265366500000000    0.0617645500000000 O
   0.5617645500000000    0.4265366500000000    0.7899741700000000 O
   0.6388026999999999    0.7742216000000000    0.0044062500000000 O
   0.7899741700000000    0.5617645500000000    0.4265366500000000 O
   0.9379524400000000    0.7072880200000000    0.0778996100000000 O
   0.4265366500000000    0.7899741700000000    0.5617645500000000 O
   0.2290642900000000    0.9942353300000000    0.3595411100000000 O
   0.8595411100000000    0.4942353300000000    0.7290642899999999 O
   0.0778996100000000    0.9379524400000000    0.7072880200000000 O
   0.4942353300000000    0.7290642899999999    0.8595411100000000 O
   0.7290642899999999    0.8595411100000000    0.4942353300000000 O
