Sr4 Hf4 O12
1.0
   5.8289387599999998    0.0000000000000000    0.0000000000000000
   0.0000000000000000    8.1840616100000005    0.0000000000000000
   0.0000000000000000    0.0000000000000000    5.7733167300000003
Sr Hf O
4 4 12
direct
   0.4680252800000000    0.2500000000000000    0.0074804300000000 Sr
   0.5319747200000000    0.7500000000000000    0.9925195700000000 Sr
   0.0319747200000000    0.7500000000000000    0.5074804300000000 Sr
   0.9680252800000000    0.2500000000000000    0.4925195700000000 Sr
   0.0000000000000000    0.0000000000000000    0.0000000000000000 Hf
   0.5000000000000000    0.0000000000000000    0.5000000000000000 Hf
   0.0000000000000000    0.5000000000000000    0.0000000000000000 Hf
   0.5000000000000000    0.5000000000000000    0.5000000000000000 Hf
   0.2142225000000000    0.0407586100000000    0.2861750500000000 O
   0.7857775000000000    0.9592413900000000    0.7138249500000000 O
   0.2857775000000000    0.9592413900000000    0.7861750500000000 O
   0.7857775000000000    0.5407586100000000    0.7138249500000000 O
   0.7142225000000000    0.0407586100000000    0.2138249500000000 O
   0.2142225000000000    0.4592413900000000    0.2861750500000000 O
   0.7142225000000000    0.4592413900000000    0.2138249500000000 O
   0.2857775000000000    0.5407586100000000    0.7861750500000000 O
   0.5199645400000000    0.2500000000000000    0.5768226400000001 O
   0.4800354600000000    0.7500000000000000    0.4231773600000000 O
   0.9800354600000000    0.7500000000000000    0.0768226400000000 O
   0.0199645400000000    0.2500000000000000    0.9231773599999999 O
