Zn6 As4 O16
1.0
   5.2569239200000002    0.0000000000000000    0.0007265300000000
   0.0000000000000000    8.3126035100000006    0.0000000000000000
  -4.2947231400000003    0.0000000000000000    7.6646786999999996
Zn As O
6 4 16
direct
   0.5109765200000000    0.1401711100000000    0.1064011200000000 Zn
   0.4890234800000000    0.6401711100000000    0.3935988800000000 Zn
   0.4890234800000000    0.8598288900000000    0.8935988800000000 Zn
   0.5109765200000000    0.3598288900000000    0.6064011200000000 Zn
   0.5000000000000000    0.0000000000000000    0.5000000000000000 Zn
   0.5000000000000000    0.5000000000000000    0.0000000000000000 Zn
   0.1453405700000000    0.3067157400000000    0.1923567300000000 As
   0.8546594300000000    0.8067157400000000    0.3076432700000000 As
   0.8546594300000000    0.6932842600000000    0.8076432700000000 As
   0.1453405700000000    0.1932842600000000    0.6923567300000000 As
   0.2866782400000000    0.0620927300000000    0.8646250800000000 O
   0.7133217600000000    0.5620927300000000    0.6353749200000000 O
   0.7133217600000000    0.9379072700000000    0.1353749200000000 O
   0.2866782400000000    0.4379072700000000    0.3646250800000000 O
   0.7776353300000000    0.1980650000000000    0.6144218299999999 O
   0.2223646700000000    0.6980650000000000    0.8855781700000001 O
   0.2223646700000000    0.8019350000000000    0.3855781700000000 O
   0.7776353300000000    0.3019350000000000    0.1144218300000000 O
   0.2211957400000000    0.1386714100000000    0.5311913900000000 O
   0.7788042600000000    0.6386714100000001    0.9688086100000000 O
   0.3296875000000000    0.1250979300000000    0.2544811000000000 O
   0.6703125000000000    0.6250979300000000    0.2455189000000000 O
   0.6703125000000000    0.8749020700000000    0.7455189000000000 O
   0.3296875000000000    0.3749020700000000    0.7544811000000000 O
   0.2211957400000000    0.3613285900000000    0.0311913900000000 O
   0.7788042600000000    0.8613285899999999    0.4688086100000000 O
