Ba6 B2 P2 O6
1.0
   5.5028447299999996    0.0000000000000000    0.0000000000000000
  -2.7514223599999998    4.7656034800000002    0.0000000000000000
   0.0000000000000000    0.0000000000000000   13.4379675499999998
Ba B P O
6 2 2 6
direct
   0.6666670000000000    0.3333330000000000    0.9023999500000000 Ba
   0.0000000000000000    0.0000000000000000    0.7500000000000000 Ba
   0.0000000000000000    0.0000000000000000    0.2500000000000000 Ba
   0.3333330000000000    0.6666670000000000    0.4023999500000000 Ba
   0.3333330000000000    0.6666670000000000    0.0976000500000000 Ba
   0.6666670000000000    0.3333330000000000    0.5976000500000000 Ba
   0.3333330000000000    0.6666670000000000    0.7500000000000000 B
   0.6666670000000000    0.3333330000000000    0.2500000000000000 B
   0.0000000000000000    0.0000000000000000    0.5000000000000000 P
   0.0000000000000000    0.0000000000000000    0.0000000000000000 P
   0.9590500199999999    0.4795250100000000    0.2500000000000000 O
   0.4795250100000000    0.9590500199999999    0.7500000000000000 O
   0.0409499800000000    0.5204749900000000    0.7500000000000000 O
   0.5204749900000000    0.4795250100000000    0.2500000000000000 O
   0.5204749900000000    0.0409499800000000    0.2500000000000000 O
   0.4795250100000000    0.5204749900000000    0.7500000000000000 O
