Cd1 Cu2 Sn3 S8
1.0
   3.6866578400000001    2.1284929699999999    6.3637311700000003
  -3.6866578400000001    2.1284929699999999    6.3637311700000003
   0.0000000000000000   -4.2569859399999999    6.3637311700000003
Cd Cu Sn S
1 2 3 8
direct
   0.5000000000000000    0.5000000000000000    0.5000000000000000 Cd
   0.0780332500000000    0.0780332500000000    0.0780332500000000 Cu
   0.9219667499999999    0.9219667499999999    0.9219667499999999 Cu
   0.0000000000000000    0.5000000000000000    0.5000000000000000 Sn
   0.5000000000000000    0.5000000000000000    0.0000000000000000 Sn
   0.5000000000000000    0.0000000000000000    0.5000000000000000 Sn
   0.7503321700000000    0.7503321700000000    0.2666793000000000 S
   0.7503321700000000    0.2666793000000000    0.7503321700000000 S
   0.7333207000000000    0.2496678300000000    0.2496678300000000 S
   0.2559497500000000    0.2559497500000000    0.2559497500000000 S
   0.2496678300000000    0.2496678300000000    0.7333207000000000 S
   0.2496678300000000    0.7333207000000000    0.2496678300000000 S
   0.2666793000000000    0.7503321700000000    0.7503321700000000 S
   0.7440502500000000    0.7440502500000000    0.7440502500000000 S
