Ba2 Sc4 Si6 O20
1.0
   5.2684294300000003    0.0000000000000000   -0.0200429200000000
   0.0000000000000000   11.9074454900000006    0.0000000000000000
  -1.9381009899999999    0.0000000000000000    6.2915713899999997
Ba Sc Si O
2 4 6 20
direct
   0.2403708800000000    0.2500000000000000    0.9763970400000000 Ba
   0.7596291200000000    0.7500000000000000    0.0236029600000000 Ba
   0.8513135500000000    0.1025081200000000    0.3244897100000000 Sc
   0.1486864500000000    0.6025081200000000    0.6755102900000000 Sc
   0.1486864500000000    0.8974918800000000    0.6755102900000000 Sc
   0.8513135500000000    0.3974918800000000    0.3244897100000000 Sc
   0.4280379100000000    0.2500000000000000    0.5135157500000000 Si
   0.5719620900000000    0.7500000000000000    0.4864842500000000 Si
   0.6978117200000000    0.0515829400000000    0.7909823900000000 Si
   0.3021882800000000    0.5515829400000000    0.2090176100000000 Si
   0.3021882800000000    0.9484170600000000    0.2090176100000000 Si
   0.6978117200000000    0.4484170600000000    0.7909823900000000 Si
   0.6605183600000000    0.2500000000000000    0.3971126400000000 O
   0.3394816400000000    0.7500000000000000    0.6028873600000000 O
   0.1218270100000000    0.2500000000000000    0.3599480700000000 O
   0.8781729900000000    0.7500000000000000    0.6400519300000000 O
   0.4565953800000000    0.1416030800000000    0.6717349200000000 O
   0.5434046200000000    0.6416030800000000    0.3282650800000000 O
   0.5434046200000000    0.8583969200000000    0.3282650800000000 O
   0.4565953800000000    0.3583969200000000    0.6717349200000000 O
   0.5407995700000000    0.9362131000000000    0.8014414200000000 O
   0.4592004300000000    0.4362131000000000    0.1985585800000000 O
   0.4592004300000000    0.0637869000000000    0.1985585800000000 O
   0.5407995700000000    0.5637869000000000    0.8014414200000000 O
   0.8573158900000000    0.1098794500000000    0.0167714000000000 O
   0.1426841100000000    0.6098794500000000    0.9832286000000000 O
   0.1426841100000000    0.8901205500000000    0.9832286000000000 O
   0.8573158900000000    0.3901205500000000    0.0167714000000000 O
   0.8968753100000000    0.0410741900000000    0.6396430100000000 O
   0.1031246900000000    0.5410741900000000    0.3603569900000000 O
   0.1031246900000000    0.9589258100000000    0.3603569900000000 O
   0.8968753100000000    0.4589258100000000    0.6396430100000000 O
