Li8 Sn1 O6
1.0
   2.7329001100000001    1.5778406500000000    5.1007683899999998
  -2.7329001100000001    1.5778406400000000    5.1007683899999998
   0.0000000000000000   -3.1556812900000000    5.1007683899999998
Li Sn O
8 1 6
direct
   0.2346699000000000    0.5046937100000000    0.8998101400000000 Li
   0.8998101400000000    0.2346699000000000    0.5046937100000000 Li
   0.5046937100000000    0.8998101400000000    0.2346699000000000 Li
   0.7653301000000000    0.4953062900000000    0.1001898600000000 Li
   0.1001898600000000    0.7653301000000000    0.4953062900000000 Li
   0.4953062900000000    0.1001898600000000    0.7653301000000000 Li
   0.6549830700000000    0.6549830700000000    0.6549830700000000 Li
   0.3450169300000000    0.3450169300000000    0.3450169300000000 Li
   0.0000000000000000    0.0000000000000000    0.0000000000000000 Sn
   0.3850920400000000    0.7642913500000000    0.0942098900000000 O
   0.9057901100000000    0.6149079600000000    0.2357086500000000 O
   0.2357086500000000    0.9057901100000000    0.6149079600000000 O
   0.6149079600000000    0.2357086500000000    0.9057901100000000 O
   0.0942098900000000    0.3850920400000000    0.7642913500000000 O
   0.7642913500000000    0.0942098900000000    0.3850920400000000 O
