Ta4 O10
1.0
   6.4373111999999999   -2.4402438900000001   -0.0154377700000000
   6.4373111999999999    2.4402438900000001   -0.0154377700000000
  -1.2927034300000000    0.0000000000000000    5.3839325499999999
Ta O
4 10
direct
   0.6095664700000000    0.1090933400000000    0.7236262700000000 Ta
   0.8909066600000000    0.3904335300000000    0.7763737300000000 Ta
   0.3904335300000000    0.8909066600000000    0.2763737300000000 Ta
   0.1090933400000000    0.6095664700000000    0.2236262700000000 Ta
   0.2773798800000000    0.1320509000000000    0.6267220999999999 O
   0.8679491000000000    0.7226201200000000    0.8732779000000001 O
   0.7226201200000000    0.8679491000000000    0.3732779000000000 O
   0.1320509000000000    0.2773798800000000    0.1267221000000000 O
   0.1000136400000000    0.8999863600000000    0.2500000000000000 O
   0.8999863600000000    0.1000136400000000    0.7500000000000000 O
   0.6682952000000000    0.5494528400000001    0.4735712600000000 O
   0.4505471600000000    0.3317048000000000    0.0264287400000000 O
   0.3317048000000000    0.4505471600000000    0.5264287400000000 O
   0.5494528400000001    0.6682952000000000    0.9735712600000000 O
