Na6 B2 S6
1.0
   5.8209663300000001   -3.2811812800000002    0.0167400300000000
   5.8209663300000001    3.2811812800000002    0.0167400300000000
  -3.8608826399999998    0.0000000000000000    7.2868190200000003
Na B S
6 2 6
direct
   0.8130493500000000    0.3806002900000000    0.0038507600000000 Na
   0.3806002900000000    0.8130493500000000    0.5038507600000000 Na
   0.5000000000000000    0.0000000000000000    0.0000000000000000 Na
   0.0000000000000000    0.5000000000000000    0.5000000000000000 Na
   0.1869506500000000    0.6193997100000000    0.9961492400000000 Na
   0.6193997100000000    0.1869506500000000    0.4961492400000000 Na
   0.0777843000000000    0.9222157000000000    0.7500000000000000 B
   0.9222157000000000    0.0777843000000000    0.2500000000000000 B
   0.1967795800000000    0.0763488900000000    0.2493192100000000 S
   0.9236511100000000    0.8032204200000000    0.2506807900000000 S
   0.8032204200000000    0.9236511100000000    0.7506807900000000 S
   0.0763488900000000    0.1967795800000000    0.7493192100000000 S
   0.6397180800000000    0.3602819200000000    0.2500000000000000 S
   0.3602819200000000    0.6397180800000000    0.7500000000000000 S
