Sr4 In2 Sb2 O12
1.0
   5.7393120700000004    0.0000000000000000    0.0001160400000000
   0.0000000000000000    5.7963430200000001    0.0000000000000000
  -5.7545096700000000    0.0000000000000000    8.1325782100000001
Sr In Sb O
4 2 2 12
direct
   0.7409989000000000    0.0381406800000000    0.7498697200000000 Sr
   0.2590011000000000    0.5381406800000000    0.7501302800000000 Sr
   0.2590011000000000    0.9618593200000000    0.2501302800000000 Sr
   0.7409989000000000    0.4618593200000000    0.2498697200000000 Sr
   0.5000000000000000    0.5000000000000000    0.5000000000000000 In
   0.5000000000000000    0.0000000000000000    0.0000000000000000 In
   0.0000000000000000    0.0000000000000000    0.5000000000000000 Sb
   0.0000000000000000    0.5000000000000000    0.0000000000000000 Sb
   0.7579128400000000    0.7223758600000000    0.4560455000000000 O
   0.3185230300000000    0.7007423500000000    0.0407712400000000 O
   0.8413641500000000    0.4773239900000000    0.7614312100000000 O
   0.2420871600000000    0.2776241400000000    0.5439545000000000 O
   0.6814769700000000    0.2992576500000000    0.9592287600000000 O
   0.1586358500000000    0.9773239900000000    0.7385687900000000 O
   0.1586358500000000    0.5226760100000000    0.2385687900000000 O
   0.8413641500000000    0.0226760100000000    0.2614312100000000 O
   0.7579128400000000    0.7776241400000000    0.9560455000000000 O
   0.3185230300000000    0.7992576500000000    0.5407712400000000 O
   0.2420871600000000    0.2223758600000000    0.0439545000000000 O
   0.6814769700000000    0.2007423500000000    0.4592287600000000 O
