Sr6 B2 P2 O6
1.0
   5.2430960799999999    0.0000000000000000    0.0000000000000000
  -2.6215485300000001    4.5406546900000002    0.0000000000000000
   0.0000000000000000    0.0000000000000000   12.5786544100000004
Sr B P O
6 2 2 6
direct
   0.6666670000000000    0.3333330000000000    0.9000697700000000 Sr
   0.0000000000000000    0.0000000000000000    0.7500000000000000 Sr
   0.0000000000000000    0.0000000000000000    0.2500000000000000 Sr
   0.3333330000000000    0.6666670000000000    0.4000697700000000 Sr
   0.3333330000000000    0.6666670000000000    0.0999302300000000 Sr
   0.6666670000000000    0.3333330000000000    0.5999302300000000 Sr
   0.6666670000000000    0.3333330000000000    0.2500000000000000 B
   0.3333330000000000    0.6666670000000000    0.7500000000000000 B
   0.0000000000000000    0.0000000000000000    0.5000000000000000 P
   0.0000000000000000    0.0000000000000000    0.0000000000000000 P
   0.4857078600000000    0.9714167100000000    0.7500000000000000 O
   0.4857078600000000    0.5142921400000000    0.7500000000000000 O
   0.9714167100000000    0.4857078600000000    0.2500000000000000 O
   0.0285832900000000    0.5142921400000000    0.7500000000000000 O
   0.5142921400000000    0.4857078600000000    0.2500000000000000 O
   0.5142921400000000    0.0285832900000000    0.2500000000000000 O
