Hf2 Si2 O8
1.0
  -3.3168303799999999    3.3168303799999999    2.9985236700000000
   3.3168303799999999   -3.3168303799999999    2.9985236700000000
   3.3168303799999999    3.3168303799999999   -2.9985236700000000
Hf Si O
2 2 8
direct
   0.7500000000000000    0.2500000000000000    0.5000000000000000 Hf
   0.0000000000000000    0.0000000000000000    0.0000000000000000 Hf
   0.5000000000000000    0.5000000000000000    0.0000000000000000 Si
   0.2500000000000000    0.7500000000000000    0.5000000000000000 Si
   0.0686574300000000    0.3848740900000000    0.3162176600000000 O
   0.5024397700000000    0.3186574300000000    0.1837823400000000 O
   0.1348740900000000    0.3186574300000000    0.8162176600000000 O
   0.0686574300000000    0.7524397700000000    0.6837823400000000 O
   0.2475602300000000    0.9313425700000000    0.3162176600000000 O
   0.6813425700000000    0.8651259100000001    0.1837823400000000 O
   0.6813425700000000    0.4975602300000000    0.8162176600000000 O
   0.6151259100000001    0.9313425700000000    0.6837823400000000 O
