Cs4 Mg4 P4 O16
1.0
   8.8027412599999995    0.0000000000000000    0.0000000000000000
   0.0000000000000000    5.5399852300000001    0.0000000000000000
   0.0000000000000000    0.0000000000000000    9.7983756100000008
Cs Mg P O
4 4 4 16
direct
   0.0011970600000000    0.2500000000000000    0.7999116200000000 Cs
   0.9988029400000000    0.7500000000000000    0.2000883800000000 Cs
   0.5011970600000000    0.2500000000000000    0.7000883800000000 Cs
   0.4988029400000000    0.7500000000000000    0.2999116200000000 Cs
   0.3206761600000000    0.2500000000000000    0.0821951400000000 Mg
   0.6793238400000000    0.7500000000000000    0.9178048599999999 Mg
   0.1793238400000000    0.7500000000000000    0.5821951400000001 Mg
   0.8206761600000000    0.2500000000000000    0.4178048600000000 Mg
   0.7112326300000000    0.2500000000000000    0.0805383500000000 P
   0.2112326300000000    0.2500000000000000    0.4194616500000000 P
   0.2887673700000000    0.7500000000000000    0.9194616500000000 P
   0.7887673700000000    0.7500000000000000    0.5805383500000000 P
   0.5369568000000000    0.2500000000000000    0.0777836100000000 O
   0.4630432000000000    0.7500000000000000    0.9222163900000000 O
   0.0369568000000000    0.2500000000000000    0.4222163900000000 O
   0.9630432000000000    0.7500000000000000    0.5777836100000000 O
   0.2264539600000000    0.9766501900000000    0.9936153599999999 O
   0.7735460400000000    0.4766501900000000    0.0063846400000000 O
   0.7264539600000000    0.5233498100000000    0.5063846400000001 O
   0.2735460400000000    0.0233498100000000    0.4936153600000000 O
   0.7735460400000000    0.0233498100000000    0.0063846400000000 O
   0.2264539600000000    0.5233498100000000    0.9936153599999999 O
   0.2735460400000000    0.4766501900000000    0.4936153600000000 O
   0.7264539600000000    0.9766501900000000    0.5063846400000001 O
   0.7309795700000000    0.7500000000000000    0.7286724700000000 O
   0.2690204300000000    0.2500000000000000    0.2713275300000000 O
   0.2309795700000000    0.7500000000000000    0.7713275300000000 O
   0.7690204300000000    0.2500000000000000    0.2286724700000000 O
