Ba6 V8 O26
1.0
   7.9594969200000003   -4.4343443899999997    0.0548597600000000
   7.9594969200000003    4.4343443899999997    0.0548597600000000
  -3.7671969500000002    0.0000000000000000    9.5273515199999999
Ba V O
6 8 26
direct
   0.9008577600000000    0.0991422400000000    0.2500000000000000 Ba
   0.0991422400000000    0.9008577600000000    0.7500000000000000 Ba
   0.6249793400000000    0.9701118600000000    0.8106348500000000 Ba
   0.0298881400000000    0.3750206600000000    0.6893651500000000 Ba
   0.3750206600000000    0.0298881400000000    0.1893651500000000 Ba
   0.9701118600000000    0.6249793400000000    0.3106348500000000 Ba
   0.5858291000000000    0.6358267700000000    0.8651157900000001 V
   0.3641732300000000    0.4141709000000000    0.6348842099999999 V
   0.4141709000000000    0.3641732300000000    0.1348842100000000 V
   0.6358267700000000    0.5858291000000000    0.3651157900000000 V
   0.8962132800000000    0.2841439200000000    0.9984444800000000 V
   0.7158560800000000    0.1037867200000000    0.5015555200000000 V
   0.1037867200000000    0.7158560800000000    0.0015555200000000 V
   0.2841439200000000    0.8962132800000000    0.4984444800000000 V
   0.4181754200000000    0.5818245800000000    0.7500000000000000 O
   0.5818245800000000    0.4181754200000000    0.2500000000000000 O
   0.0093975900000000    0.2803197900000000    0.1662106900000000 O
   0.7196802100000000    0.9906024100000000    0.3337893100000000 O
   0.9906024100000000    0.7196802100000000    0.8337893100000000 O
   0.2803197900000000    0.0093975900000000    0.6662106900000000 O
   0.8203071600000000    0.1376884700000000    0.9572823400000000 O
   0.8623115300000000    0.1796928400000000    0.5427176600000000 O
   0.1796928400000000    0.8623115300000000    0.0427176600000000 O
   0.1376884700000000    0.8203071600000000    0.4572823400000000 O
   0.0306406700000000    0.2263586100000000    0.8875961900000000 O
   0.7736413900000000    0.9693593300000000    0.6124038100000000 O
   0.9693593300000000    0.7736413900000000    0.1124038100000000 O
   0.2263586100000000    0.0306406700000000    0.3875961900000000 O
   0.5071882500000000    0.7149485200000000    0.4966452800000000 O
   0.2850514800000000    0.4928117500000000    0.0033547200000000 O
   0.4928117500000000    0.2850514800000000    0.5033547200000000 O
   0.7149485200000000    0.5071882500000000    0.9966452800000000 O
   0.8482332600000000    0.4782240900000000    0.4355078900000000 O
   0.5217759100000000    0.1517667400000000    0.0644921100000000 O
   0.7159435700000000    0.6199133000000000    0.7724284800000000 O
   0.4782240900000000    0.8482332600000000    0.9355078900000000 O
   0.6199133000000000    0.7159435700000000    0.2724284800000000 O
   0.2840564300000000    0.3800867000000000    0.2275715200000000 O
   0.3800867000000000    0.2840564300000000    0.7275715200000000 O
   0.1517667400000000    0.5217759100000000    0.5644921100000000 O
