Rb4 Cr4 O14
1.0
   6.6922962400000001   -3.8013703300000001   -0.0227854400000000
   6.6922962400000001    3.8013703300000001   -0.0227854400000000
  -0.0368711600000000    0.0000000000000000    7.6818094600000002
Rb Cr O
4 4 14
direct
   0.7071593900000001    0.9985768600000000    0.1497251500000000 Rb
   0.0014231400000000    0.2928406100000000    0.3502748500000000 Rb
   0.2928406100000000    0.0014231400000000    0.8502748500000000 Rb
   0.9985768600000000    0.7071593900000001    0.6497251500000000 Rb
   0.2258432200000000    0.5731328200000000    0.1422441900000000 Cr
   0.4268671800000000    0.7741567800000000    0.3577558100000000 Cr
   0.7741567800000000    0.4268671800000000    0.8577558100000000 Cr
   0.5731328200000000    0.2258432200000000    0.6422441900000000 Cr
   0.4337213400000000    0.5662786600000000    0.2500000000000000 O
   0.5662786600000000    0.4337213400000000    0.7500000000000000 O
   0.0456499900000000    0.6358081500000000    0.2826641600000000 O
   0.3641918500000000    0.9543500100000000    0.2173358400000000 O
   0.9543500100000000    0.3641918500000000    0.7173358399999999 O
   0.6358081500000000    0.0456499900000000    0.7826641600000001 O
   0.2972859500000000    0.3509805300000000    0.0634726100000000 O
   0.6490194700000000    0.7027140500000000    0.4365273900000000 O
   0.7430424799999999    0.1396341100000000    0.4895186100000000 O
   0.8603658900000000    0.2569575200000000    0.0104813900000000 O
   0.2569575200000000    0.8603658900000000    0.5104813900000000 O
   0.1396341100000000    0.7430424799999999    0.9895186100000000 O
   0.3509805300000000    0.2972859500000000    0.5634726100000000 O
   0.7027140500000000    0.6490194700000000    0.9365273900000000 O
