Ca4 Ta4 N4 O8
1.0
   7.8109625500000002    0.0000000000000000    0.0000000000000000
   0.0000000000000000    5.5365828900000000    0.0000000000000000
   0.0000000000000000    0.0000000000000000    5.6519249299999998
Ca Ta N O
4 4 4 8
direct
   0.5000000000000000    0.2378251100000000    0.4520576200000000 Ca
   0.5000000000000000    0.7621748900000000    0.9520576200000000 Ca
   0.0000000000000000    0.7345209200000000    0.0410917000000000 Ca
   0.0000000000000000    0.2654790800000000    0.5410917000000000 Ca
   0.2536112800000000    0.7639279600000000    0.4962218700000000 Ta
   0.2536112800000000    0.2360720400000000    0.9962218700000000 Ta
   0.7463887200000000    0.2360720400000000    0.9962218700000000 Ta
   0.7463887200000000    0.7639279600000000    0.4962218700000000 Ta
   0.7020199000000000    0.9612664200000000    0.2126376900000000 N
   0.2979801000000000    0.0387335800000000    0.7126376900000000 N
   0.2979801000000000    0.9612664200000000    0.2126376900000000 N
   0.7020199000000000    0.0387335800000000    0.7126376900000000 N
   0.0000000000000000    0.8367253500000000    0.4774709700000000 O
   0.1982756700000000    0.5395077200000000    0.7905473300000000 O
   0.5000000000000000    0.3524739600000000    0.0307639200000000 O
   0.0000000000000000    0.1632746500000000    0.9774709700000001 O
   0.5000000000000000    0.6475260400000000    0.5307639199999999 O
   0.8017243300000000    0.5395077200000000    0.7905473300000000 O
   0.1982756700000000    0.4604922800000000    0.2905473300000000 O
   0.8017243300000000    0.4604922800000000    0.2905473300000000 O
