Sr4 Ca2 Mo2 O12
1.0
   5.7263799200000003    0.0000000000000000   -0.0004719700000000
   0.0000000000000000    5.8730360399999997    0.0000000000000000
  -5.7005759700000000    0.0000000000000000    8.1542181399999993
Sr Ca Mo O
4 2 2 12
direct
   0.7408741700000000    0.5467493400000000    0.2518144200000000 Sr
   0.2591258300000000    0.0467493400000000    0.2481855800000000 Sr
   0.7408741700000000    0.9532506600000000    0.7518144200000000 Sr
   0.2591258300000000    0.4532506600000000    0.7481855800000000 Sr
   0.0000000000000000    0.0000000000000000    0.5000000000000000 Ca
   0.0000000000000000    0.5000000000000000    0.0000000000000000 Ca
   0.5000000000000000    0.0000000000000000    0.0000000000000000 Mo
   0.5000000000000000    0.5000000000000000    0.5000000000000000 Mo
   0.8143018400000001    0.5293681400000000    0.7284420700000001 O
   0.1856981600000000    0.0293681400000000    0.7715579299999999 O
   0.1856981600000000    0.4706318600000000    0.2715579300000000 O
   0.8143018400000001    0.9706318600000000    0.2284420700000000 O
   0.6337295500000000    0.7700890200000000    0.4498774100000000 O
   0.3662704500000000    0.2700890200000000    0.0501225900000000 O
   0.3662704500000000    0.2299109800000000    0.5501225900000000 O
   0.6337295500000000    0.7299109800000000    0.9498774100000000 O
   0.7304820800000000    0.1877917100000000    0.9586868700000000 O
   0.2695179200000000    0.6877917099999999    0.5413131300000000 O
   0.2695179200000000    0.8122082900000001    0.0413131300000000 O
   0.7304820800000000    0.3122082900000000    0.4586868700000000 O
