Ca2 Ta8 O22
1.0
   6.2373775299999998    0.0000000000000000    0.0000000000000000
  -3.1186887599999999    5.4017270999999996    0.0000000000000000
   0.0000000000000000    0.0000000000000000   12.3259195199999994
Ca Ta O
2 8 22
direct
   0.6666670000000000    0.3333330000000000    0.2500000000000000 Ca
   0.3333330000000000    0.6666670000000000    0.7500000000000000 Ca
   0.3333330000000000    0.6666670000000000    0.2500000000000000 Ta
   0.6666670000000000    0.3333330000000000    0.7500000000000000 Ta
   1.0000000000000000    0.3609659800000000    0.0000000000000000 Ta
   0.6390340200000000    0.0000000000000000    0.5000000000000000 Ta
   0.3609659800000000    0.3609659800000000    0.5000000000000000 Ta
   0.6390340200000000    0.6390340200000000    0.0000000000000000 Ta
   0.3609659800000000    0.0000000000000000    0.0000000000000000 Ta
   0.0000000000000000    0.6390340200000000    0.5000000000000000 Ta
   0.6666670000000000    0.3333330000000000    0.0359503800000000 O
   0.3333330000000000    0.6666670000000000    0.5359503799999999 O
   0.3333330000000000    0.6666670000000000    0.9640496200000001 O
   0.6666670000000000    0.3333330000000000    0.4640496200000000 O
   0.0000000000000000    0.7479500900000000    0.0000000000000000 O
   0.2520499100000000    0.0000000000000000    0.5000000000000000 O
   0.7479500900000000    0.7479500900000000    0.5000000000000000 O
   0.2520499100000000    0.2520499100000000    0.0000000000000000 O
   0.7479500900000000    0.0000000000000000    0.0000000000000000 O
   1.0000000000000000    0.2520499100000000    0.5000000000000000 O
   0.9461974800000000    0.5725833400000000    0.6570073800000000 O
   0.3736141400000000    0.9461974800000000    0.1570073800000000 O
   0.5725833400000000    0.6263858600000000    0.1570073800000000 O
   0.4274166600000000    0.3736141400000000    0.6570073800000000 O
   0.6263858600000000    0.0538025200000000    0.6570073800000000 O
   0.0538025200000000    0.6263858600000000    0.3429926200000000 O
   0.5725833400000000    0.9461974800000000    0.3429926200000000 O
   0.0538025200000000    0.4274166600000000    0.1570073800000000 O
   0.3736141400000000    0.4274166600000000    0.3429926200000000 O
   0.6263858600000000    0.5725833400000000    0.8429926200000000 O
   0.9461974800000000    0.3736141400000000    0.8429926200000000 O
   0.4274166600000000    0.0538025200000000    0.8429926200000000 O
