Na2 Te3 Mo3 O16
1.0
   5.0977795400000003   -5.6241895099999999   -0.0020146600000000
   5.0977795400000003    5.6241895099999999   -0.0020146600000000
  -4.5033614999999996    0.0000000000000000    5.6541108099999997
Na Te Mo O
2 3 3 16
direct
   0.0872127600000000    0.9127872400000000    0.5000000000000000 Na
   0.4876833800000000    0.5123166200000000    0.0000000000000000 Na
   0.9978317100000000    0.0021682900000000    0.0000000000000000 Te
   0.6055043400000000    0.9466072100000000    0.4999239200000000 Te
   0.0533927900000000    0.3944956600000000    0.5000760800000000 Te
   0.5095933700000000    0.0249029300000000    0.0139337300000000 Mo
   0.9750970700000000    0.4904066300000000    0.9860662700000000 Mo
   0.5785903100000001    0.4214096900000000    0.5000000000000000 Mo
   0.8479471200000001    0.6030182500000000    0.7728623999999999 O
   0.8313830500000000    0.5584933900000000    0.1255801500000000 O
   0.3969817500000000    0.1520528800000000    0.2271376000000000 O
   0.4415066100000000    0.1686169500000000    0.8744198500000000 O
   0.1927517800000000    0.7136841900000001    0.1904085100000000 O
   0.7541520700000000    0.2937302800000000    0.3352014900000000 O
   0.5382858200000000    0.5754517400000000    0.3682502200000000 O
   0.7062697200000000    0.2458479300000000    0.6647985100000000 O
   0.0465424200000000    0.2914802800000000    0.0834944200000000 O
   0.2863158100000000    0.8072482200000000    0.8095914900000000 O
   0.7085197200000000    0.9534575800000000    0.9165055800000000 O
   0.8791445900000000    0.9379929800000000    0.6567380100000000 O
   0.0620070200000000    0.1208554100000000    0.3432619900000000 O
   0.4245482600000000    0.4617141800000000    0.6317497800000000 O
   0.6175695000000000    0.8854689600000000    0.2261504500000000 O
   0.1145310400000000    0.3824305000000000    0.7738495500000000 O
