Zr2 Tl4 Pb2 S8
1.0
   7.6395564699999996   -4.0849394500000002   -0.0103004600000000
   7.6395564699999996    4.0849394500000002   -0.0103004600000000
  -2.1912505900000001    0.0000000000000000    6.3924360699999996
Zr Tl Pb S
2 4 2 8
direct
   0.8792755300000000    0.1207244700000000    0.2500000000000000 Zr
   0.1207244700000000    0.8792755300000000    0.7500000000000000 Zr
   0.3784356700000000    0.1236935600000000    0.2653581500000000 Tl
   0.8763064400000000    0.6215643300000000    0.2346418500000000 Tl
   0.6215643300000000    0.8763064400000000    0.7346418500000000 Tl
   0.1236935600000000    0.3784356700000000    0.7653581500000000 Tl
   0.3786512400000000    0.6213487600000001    0.2500000000000000 Pb
   0.6213487600000001    0.3786512400000000    0.7500000000000000 Pb
   0.7964407600000000    0.0056990100000000    0.4976489800000000 S
   0.9943009900000001    0.2035592400000000    0.0023510200000000 S
   0.2035592400000000    0.9943009900000001    0.5023510200000000 S
   0.0056990100000000    0.7964407600000000    0.9976489800000000 S
   0.5497554200000000    0.2345510100000000    0.0335063900000000 S
   0.7654489900000000    0.4502445800000000    0.4664936100000000 S
   0.4502445800000000    0.7654489900000000    0.9664936100000000 S
   0.2345510100000000    0.5497554200000000    0.5335063900000000 S
