Mg2 Cr2 P8 O24
1.0
   5.8588323700000000   -4.1188373900000004   -0.0182698800000000
   5.8588323700000000    4.1188373900000004   -0.0182698800000000
  -4.7675476699999999    0.0000000000000000    8.8826007600000008
Mg Cr P O
2 2 8 24
direct
   0.0553287500000000    0.9446712500000000    0.2500000000000000 Mg
   0.9446712500000000    0.0553287500000000    0.7500000000000000 Mg
   0.0000000000000000    0.5000000000000000    0.0000000000000000 Cr
   0.5000000000000000    0.0000000000000000    0.5000000000000000 Cr
   0.2921572100000000    0.3149658200000000    0.3059840700000000 P
   0.6850341800000000    0.7078427900000001    0.1940159300000000 P
   0.7078427900000001    0.6850341800000000    0.6940159299999999 P
   0.3149658200000000    0.2921572100000000    0.8059840700000001 P
   0.2523637500000000    0.7302960200000000    0.5239127300000000 P
   0.2697039800000000    0.7476362500000000    0.9760872700000000 P
   0.7476362500000000    0.2697039800000000    0.4760872700000000 P
   0.7302960200000000    0.2523637500000000    0.0239127300000000 P
   0.5310001400000000    0.3202296300000000    0.3513647800000000 O
   0.6797703700000000    0.4689998600000000    0.1486352200000000 O
   0.4689998600000000    0.6797703700000000    0.6486352200000000 O
   0.3202296300000000    0.5310001400000000    0.8513647800000000 O
   0.2062685800000000    0.5025348800000000    0.4351028700000000 O
   0.4974651200000000    0.7937314200000000    0.0648971300000000 O
   0.7937314200000000    0.4974651200000000    0.5648971300000000 O
   0.5025348800000000    0.2062685800000000    0.9351028700000000 O
   0.1884412700000000    0.3507630700000000    0.1566980300000000 O
   0.6492369300000000    0.8115587300000000    0.3433019700000000 O
   0.8115587300000000    0.6492369300000000    0.8433019700000000 O
   0.3507630700000000    0.1884412700000000    0.6566980300000000 O
   0.2809287000000000    0.1180208500000000    0.3226642600000000 O
   0.8819791500000000    0.7190713000000000    0.1773357400000000 O
   0.7190713000000000    0.8819791500000000    0.6773357400000000 O
   0.1180208500000000    0.2809287000000000    0.8226642600000000 O
   0.2889012100000000    0.8081453600000000    0.4171470500000000 O
   0.1918546400000000    0.7110987900000000    0.0828529500000000 O
   0.7110987900000000    0.1918546400000000    0.5828529500000000 O
   0.8081453600000000    0.2889012100000000    0.9171470500000000 O
   0.0897203300000000    0.8544852100000000    0.5983240300000000 O
   0.1455147900000000    0.9102796700000000    0.9016759700000000 O
   0.9102796700000000    0.1455147900000000    0.4016759700000000 O
   0.8544852100000000    0.0897203300000000    0.0983240300000000 O
