Ca1 Sb2 O6
1.0
   5.2682358899999997    0.0000000000000000    0.0000000000000000
  -2.6341184399999999    4.5624262900000003    0.0000000000000000
   0.0000000000000000    0.0000000000000000    5.0161265100000003
Ca Sb O
1 2 6
direct
   0.0000000000000000    0.0000000000000000    0.0000000000000000 Ca
   0.3333330000000000    0.6666670000000000    0.5000000000000000 Sb
   0.6666670000000000    0.3333330000000000    0.5000000000000000 Sb
   0.3670139200000000    0.3670139200000000    0.7198149600000000 O
   0.6329860800000000    1.0000000000000000    0.7198149600000000 O
   1.0000000000000000    0.6329860800000000    0.7198149600000000 O
   0.3670139200000000    0.0000000000000000    0.2801850400000000 O
   0.0000000000000000    0.3670139200000000    0.2801850400000000 O
   0.6329860800000000    0.6329860800000000    0.2801850400000000 O
