Cs2 Al2 Sb2 O7
1.0
   5.7233010499999999    0.0000000000000000    0.0000000000000000
  -2.8616505200000000    4.9565245400000002    0.0000000000000000
   0.0000000000000000    0.0000000000000000    8.8672781599999997
Cs Al Sb O
2 2 2 7
direct
   0.3333330000000000    0.6666670000000000    0.5961018900000000 Cs
   0.6666670000000000    0.3333330000000000    0.4038981100000000 Cs
   0.0000000000000000    0.0000000000000000    0.1935475400000000 Al
   0.0000000000000000    0.0000000000000000    0.8064524600000000 Al
   0.3333330000000000    0.6666670000000000    0.1462924200000000 Sb
   0.6666670000000000    0.3333330000000000    0.8537075800000000 Sb
   0.3344880600000000    0.1672445300000000    0.7323553500000000 O
   0.1672445300000000    0.8327554700000001    0.2676446500000000 O
   0.8327554700000001    0.1672445300000000    0.7323553500000000 O
   0.6655119400000000    0.8327554700000001    0.2676446500000000 O
   0.0000000000000000    0.0000000000000000    0.0000000000000000 O
   0.1672445300000000    0.3344880600000000    0.2676446500000000 O
   0.8327554700000001    0.6655119400000000    0.7323553500000000 O
