Mg2 Se2 O8
1.0
   2.7216757899999999   -4.1138739700000002    0.0000000000000000
   2.7216757899999999    4.1138739700000002    0.0000000000000000
   0.0000000000000000    0.0000000000000000    6.5292690599999998
Mg Se O
2 2 8
direct
   0.0000000000000000    0.0000000000000000    0.0000000000000000 Mg
   0.0000000000000000    0.0000000000000000    0.5000000000000000 Mg
   0.3512338000000000    0.6487662000000000    0.7500000000000000 Se
   0.6487662000000000    0.3512338000000000    0.2500000000000000 Se
   0.2232472900000000    0.2777602500000000    0.7500000000000000 O
   0.7767527100000000    0.7222397500000000    0.2500000000000000 O
   0.2777602500000000    0.2232472900000000    0.2500000000000000 O
   0.7222397500000000    0.7767527100000000    0.7500000000000000 O
   0.2442438500000000    0.7557561500000000    0.9618847000000000 O
   0.7557561500000000    0.2442438500000000    0.4618847000000000 O
   0.7557561500000000    0.2442438500000000    0.0381153000000000 O
   0.2442438500000000    0.7557561500000000    0.5381153000000000 O
