Ba4 As2 O1
1.0
  -2.5764759200000000    2.5764759200000000    8.5682817500000006
   2.5764759200000000   -2.5764759200000000    8.5682817500000006
   2.5764759200000000    2.5764759200000000   -8.5682817500000006
Ba As O
4 2 1
direct
   0.6751360199999999    0.6751360199999999    0.0000000000000000 Ba
   0.3248639800000000    0.3248639800000000    0.0000000000000000 Ba
   0.5000000000000000    0.0000000000000000    0.5000000000000000 Ba
   0.0000000000000000    0.5000000000000000    0.5000000000000000 Ba
   0.8645819700000000    0.8645819700000000    0.0000000000000000 As
   0.1354180300000000    0.1354180300000000    0.0000000000000000 As
   0.5000000000000000    0.5000000000000000    0.0000000000000000 O
