Mg8 Ge4 Se16
1.0
  13.4203422799999998    0.0000000000000000    0.0000000000000000
   0.0000000000000000    7.8228867800000002    0.0000000000000000
   0.0000000000000000    0.0000000000000000    6.3181822800000003
Mg Ge Se
8 4 16
direct
   0.2307109200000000    0.2500000000000000    0.4963011400000000 Mg
   0.7307109200000000    0.2500000000000000    0.0036988600000000 Mg
   0.7692890800000000    0.7500000000000000    0.5036988600000000 Mg
   0.2692890800000000    0.7500000000000000    0.9963011400000000 Mg
   0.0000000000000000    0.0000000000000000    0.0000000000000000 Mg
   0.5000000000000000    0.5000000000000000    0.5000000000000000 Mg
   0.0000000000000000    0.5000000000000000    0.0000000000000000 Mg
   0.5000000000000000    0.0000000000000000    0.5000000000000000 Mg
   0.9114256100000000    0.2500000000000000    0.5897049800000000 Ge
   0.4114256100000000    0.2500000000000000    0.9102950200000000 Ge
   0.0885743900000000    0.7500000000000000    0.4102950200000000 Ge
   0.5885743900000000    0.7500000000000000    0.0897049800000000 Ge
   0.9067008700000000    0.2500000000000000    0.2178780700000000 Se
   0.4067008700000000    0.2500000000000000    0.2821219300000000 Se
   0.0932991300000000    0.7500000000000000    0.7821219300000000 Se
   0.5932991300000000    0.7500000000000000    0.7178780700000000 Se
   0.8305314600000000    0.0141074500000000    0.7572970300000000 Se
   0.3305314600000000    0.4858925500000000    0.7427029700000000 Se
   0.1694685400000000    0.5141074500000000    0.2427029700000000 Se
   0.6694685400000000    0.9858925500000000    0.2572970300000000 Se
   0.1694685400000000    0.9858925500000000    0.2427029700000000 Se
   0.6694685400000000    0.5141074500000000    0.2572970300000000 Se
   0.8305314600000000    0.4858925500000000    0.7572970300000000 Se
   0.3305314600000000    0.0141074500000000    0.7427029700000000 Se
   0.0724385700000000    0.2500000000000000    0.7503579900000000 Se
   0.5724385700000000    0.2500000000000000    0.7496420100000000 Se
   0.9275614300000000    0.7500000000000000    0.2496420100000000 Se
   0.4275614300000000    0.7500000000000000    0.2503579900000000 Se
