Ba4 Ge2 Se8
1.0
   7.0103230300000003    0.0000000000000000   -0.0472314700000000
   0.0000000000000000    7.0458114800000002    0.0000000000000000
  -2.9130130799999998    0.0000000000000000    8.6362352399999995
Ba Ge Se
4 2 8
direct
   0.2790791900000000    0.2500000000000000    0.0744704800000000 Ba
   0.7209208100000000    0.7500000000000000    0.9255295200000000 Ba
   0.2180156100000000    0.2500000000000000    0.5490675300000000 Ba
   0.7819843900000000    0.7500000000000000    0.4509324700000000 Ba
   0.2074337800000000    0.7500000000000000    0.2906138200000000 Ge
   0.7925662200000000    0.2500000000000000    0.7093861800000000 Ge
   0.9870902100000000    0.0120048500000000    0.2283621500000000 Se
   0.0129097900000000    0.5120048500000000    0.7716378500000000 Se
   0.0129097900000000    0.9879951500000000    0.7716378500000000 Se
   0.9870902100000000    0.4879951500000000    0.2283621500000000 Se
   0.3716963300000000    0.7500000000000000    0.5634170200000000 Se
   0.6283036700000000    0.2500000000000000    0.4365829800000000 Se
   0.4098471700000000    0.7500000000000000    0.1270469400000000 Se
   0.5901528300000000    0.2500000000000000    0.8729530599999999 Se
