Si5 P6 O25
1.0
   3.9483325200000001    2.2795705000000002    8.0859027300000008
  -3.9483324700000000    2.2795705900000001    8.0859027300000008
  -0.0000000500000000   -4.5591410899999998    8.0859027300000008
Si P O
5 6 25
direct
   0.0000000000000000    0.0000000000000000    0.0000000000000000 Si
   0.1799636500000000    0.1799636500000000    0.1799636500000000 Si
   0.8200363500000000    0.8200363500000000    0.8200363500000000 Si
   0.4339770300000000    0.4339770300000000    0.4339770300000000 Si
   0.5660229700000000    0.5660229700000000    0.5660229700000000 Si
   0.0733319800000000    0.3773978300000000    0.8266415000000000 P
   0.3773978300000000    0.8266415000000000    0.0733319800000000 P
   0.8266415000000000    0.0733319800000000    0.3773978300000000 P
   0.9266680200000000    0.6226021700000000    0.1733585000000000 P
   0.6226021700000000    0.1733585000000000    0.9266680200000000 P
   0.1733585000000000    0.9266680200000000    0.6226021700000000 P
   0.1422072000000000    0.0958270600000000    0.4276336600000000 O
   0.4276336600000000    0.1422072000000000    0.0958270600000000 O
   0.0958270600000000    0.4276336600000000    0.1422072000000000 O
   0.8577928000000000    0.9041729400000000    0.5723663400000000 O
   0.5723663400000000    0.8577928000000000    0.9041729400000000 O
   0.9041729400000000    0.5723663400000000    0.8577928000000000 O
   0.4079247300000000    0.7913321000000000    0.5717683800000000 O
   0.5717683800000000    0.4079247300000000    0.7913321000000000 O
   0.7913321000000000    0.5717683800000000    0.4079247300000000 O
   0.5920752700000000    0.2086679000000000    0.4282316200000000 O
   0.4282316200000000    0.5920752700000000    0.2086679000000000 O
   0.5000000000000000    0.5000000000000000    0.5000000000000000 O
   0.2209311100000000    0.2670291600000000    0.9248283800000000 O
   0.2670291600000000    0.9248283800000000    0.2209311100000000 O
   0.9248283800000000    0.2209311100000000    0.2670291600000000 O
   0.7790688900000000    0.7329708400000000    0.0751716200000000 O
   0.7329708400000000    0.0751716200000000    0.7790688900000000 O
   0.0751716200000000    0.7790688900000000    0.7329708400000000 O
   0.9743538400000000    0.2500860300000000    0.8973281300000000 O
   0.2500860300000000    0.8973281300000000    0.9743538400000000 O
   0.8973281300000000    0.9743538400000000    0.2500860300000000 O
   0.0256461600000000    0.7499139700000000    0.1026718700000000 O
   0.7499139700000000    0.1026718700000000    0.0256461600000000 O
   0.1026718700000000    0.0256461600000000    0.7499139700000000 O
   0.2086679000000000    0.4282316200000000    0.5920752700000000 O
