Nb4 Cd4 O14
1.0
   0.0002203100000000    5.2375446400000003    5.2375445400000000
   5.2375442799999998    0.0002204100000000    5.2375444499999997
   5.2375443600000002    5.2375446099999996    0.0002203300000000
Nb Cd O
4 4 14
direct
   0.1250000600000000    0.1250000000000000    0.6250001300000000 Nb
   0.1249999800000000    0.6250002099999999    0.1249999800000000 Nb
   0.6250001100000000    0.1249999600000000    0.1250000200000000 Nb
   0.1250000800000000    0.1249999800000000    0.1249999500000000 Nb
   0.6250000300000000    0.6250000800000000    0.1249999900000000 Cd
   0.6250000000000000    0.1249999700000000    0.6250000700000000 Cd
   0.1249999900000000    0.6250000300000000    0.6250000500000000 Cd
   0.6250000300000000    0.6250000700000000    0.6250000000000000 Cd
   0.7499992500000000    0.7499991800000000    0.7499992100000000 O
   0.5000005800000000    0.5000006000000000    0.5000005800000000 O
   0.0546659800000000    0.4453395000000000    0.0546660100000000 O
   0.8046658900000000    0.1953378600000000    0.8046658400000000 O
   0.0546659300000000    0.0546659800000000    0.4453395100000000 O
   0.4453396300000000    0.0546658600000000    0.0546658600000000 O
   0.0546609200000000    0.4453346400000000    0.4453346600000000 O
   0.4453346100000000    0.4453346100000000    0.0546609900000000 O
   0.4453346200000000    0.0546609300000000    0.4453346300000000 O
   0.1953377400000000    0.8046659700000000    0.8046659600000000 O
   0.8046607099999999    0.1953340200000000    0.1953340000000000 O
   0.1953339800000000    0.8046607200000000    0.1953340000000000 O
   0.8046659200000000    0.8046658799999999    0.1953377900000000 O
   0.1953339400000000    0.1953339600000000    0.8046607800000000 O
