Ca4 Si6 Pb2 O18
1.0
   6.6895603699999997    0.0001058500000000    0.0009826900000000
   1.5523358899999999    6.5387422600000003    0.0091905900000000
   3.3156499400000001    0.4429739000000000    8.9035292500000001
Ca Si Pb O
4 6 2 18
direct
   0.7626040400000000    0.7308662700000000    0.5060188300000000 Ca
   0.2373959600000000    0.2691337300000000    0.4939811700000000 Ca
   0.9336560600000000    0.5554152600000000    0.8303066700000000 Ca
   0.0663439400000000    0.4445847400000000    0.1696933300000000 Ca
   0.1575524500000000    0.9065020400000000    0.2181474600000000 Si
   0.8424475500000000    0.0934979600000000    0.7818525400000000 Si
   0.2815483000000000    0.7653790200000000    0.4845546800000000 Si
   0.7184517000000000    0.2346209800000000    0.5154453200000000 Si
   0.5154454900000000    0.5592419199999999    0.2000589800000000 Si
   0.4845545100000000    0.4407580800000000    0.7999410200000000 Si
   0.2808558800000000    0.9065312300000000    0.8456603300000000 Pb
   0.7191441200000001    0.0934687700000000    0.1543396700000000 Pb
   0.9715442800000000    0.7714367500000000    0.2567751100000000 O
   0.0284557200000000    0.2285632500000000    0.7432248900000000 O
   0.9080115800000000    0.8878661300000000    0.8771138000000001 O
   0.0919884200000000    0.1121338700000000    0.1228862000000000 O
   0.3975795000000000    0.7676310600000000    0.1209387700000000 O
   0.6024205000000000    0.2323689400000000    0.8790612300000000 O
   0.1950238500000000    0.9573455800000000    0.3734802100000000 O
   0.8049761500000000    0.0426544200000000    0.6265197900000000 O
   0.1034677000000000    0.6237796300000000    0.5603969100000000 O
   0.8965322999999999    0.3762203700000000    0.4396030900000000 O
   0.3629109200000000    0.8712846500000000    0.5916010900000001 O
   0.6370890800000000    0.1287153500000000    0.4083989100000000 O
   0.5099224200000000    0.6380255500000001    0.3619414900000000 O
   0.4900775800000000    0.3619744500000000    0.6380585100000000 O
   0.2380952800000000    0.5295663300000000    0.9046485900000000 O
   0.7619047200000000    0.4704336700000000    0.0953514100000000 O
   0.6295394400000000    0.6162166700000000    0.7600400300000000 O
   0.3704605600000000    0.3837833300000000    0.2399599700000000 O
