Ca4 P4 S12
1.0
   6.4846524600000004    0.0000000000000000   -0.0064150900000000
   0.0000000000000000    7.2139506899999999    0.0000000000000000
  -6.1355423299999998    0.0000000000000000    9.0474958399999998
Ca P S
4 4 12
direct
   0.2865159100000000    0.3813338400000000    0.2474860100000000 Ca
   0.2865159100000000    0.1186661600000000    0.7474860100000000 Ca
   0.7134840900000000    0.8813338400000000    0.2525139900000000 Ca
   0.7134840900000000    0.6186661600000000    0.7525139900000000 Ca
   0.3636095100000000    0.8898556300000000    0.4328886800000000 P
   0.6363904900000000    0.1101443700000000    0.5671113200000000 P
   0.6363904900000000    0.3898556300000000    0.0671113200000000 P
   0.3636095100000000    0.6101443700000000    0.9328886800000000 P
   0.1131234600000000    0.0067456300000000    0.2348020200000000 S
   0.7790022800000000    0.1965137700000000    0.4524227800000000 S
   0.2209977200000000    0.6965137700000000    0.0475772200000000 S
   0.2209977200000000    0.8034862300000000    0.5475772200000000 S
   0.5866709600000000    0.8097400700000000    0.9352324100000000 S
   0.4133290400000000    0.3097400700000000    0.5647675900000000 S
   0.4133290400000000    0.1902599300000000    0.0647675900000000 S
   0.5866709600000000    0.6902599300000000    0.4352324100000000 S
   0.8868765400000000    0.5067456299999999    0.2651979800000000 S
   0.8868765400000000    0.9932543700000001    0.7651979800000001 S
   0.1131234600000000    0.4932543700000000    0.7348020199999999 S
   0.7790022800000000    0.3034862300000000    0.9524227800000000 S
