La4 Ga4 O12
1.0
   5.5010779500000000    0.0000000000000000    0.0000000000000000
   0.0000000000000000    7.7696034699999998    0.0000000000000000
   0.0000000000000000    0.0000000000000000    5.5025907900000002
La Ga O
4 4 12
direct
   0.4714802200000000    0.2500000000000000    0.5070270000000000 La
   0.9714802200000000    0.2500000000000000    0.9929730000000000 La
   0.0285197800000000    0.7500000000000000    0.0070270000000000 La
   0.5285197800000000    0.7500000000000000    0.4929730000000000 La
   0.0000000000000000    0.5000000000000000    0.5000000000000000 Ga
   0.5000000000000000    0.0000000000000000    0.0000000000000000 Ga
   0.5000000000000000    0.5000000000000000    0.0000000000000000 Ga
   0.0000000000000000    0.0000000000000000    0.5000000000000000 Ga
   0.7199091399999999    0.4598606000000000    0.7206533100000000 O
   0.4876321900000000    0.7500000000000000    0.9257057200000000 O
   0.0123678100000000    0.2500000000000000    0.4257057200000000 O
   0.2800908600000000    0.5401394000000000    0.2793466900000000 O
   0.5123678100000000    0.2500000000000000    0.0742942800000000 O
   0.2199091400000000    0.0401394000000000    0.7793466900000000 O
   0.2199091400000000    0.4598606000000000    0.7793466900000000 O
   0.7800908600000001    0.5401394000000000    0.2206533100000000 O
   0.9876321900000000    0.7500000000000000    0.5742942800000000 O
   0.7199091399999999    0.0401394000000000    0.7206533100000000 O
   0.2800908600000000    0.9598606000000000    0.2793466900000000 O
   0.7800908600000001    0.9598606000000000    0.2206533100000000 O
