Na4 S4 O14
1.0
   6.7205096500000003    0.0216349900000000    0.0328722700000000
   0.7762109800000000    6.7462410100000003    0.0249087200000000
   3.0556161300000002    0.4251641100000000    6.1201387299999999
Na S O
4 4 14
direct
   0.7755559000000000    0.8594362700000000    0.1704396000000000 Na
   0.2244441000000000    0.1405637300000000    0.8295604000000000 Na
   0.3822549400000000    0.3333258400000000    0.2447138100000000 Na
   0.6177450600000000    0.6666741600000000    0.7552861900000000 Na
   0.2689259700000000    0.8398983400000000    0.2465948100000000 S
   0.7310740300000000    0.1601016600000000    0.7534051899999999 S
   0.1428989000000000    0.6402191300000000    0.6855274300000000 S
   0.8571010999999999    0.3597808700000000    0.3144725700000000 S
   0.2363296700000000    0.4441236600000000    0.6075671000000000 O
   0.7636703300000000    0.5558763400000000    0.3924329000000000 O
   0.7043221700000000    0.2416904100000000    0.2908426300000000 O
   0.2956778300000000    0.7583095900000000    0.7091573700000000 O
   0.9174660400000000    0.6441641800000000    0.8619790000000001 O
   0.0825339600000000    0.3558358200000000    0.1380210000000000 O
   0.0847142600000000    0.7622330700000000    0.4881817500000000 O
   0.9152857400000000    0.2377669300000000    0.5118182500000000 O
   0.3893590700000000    0.9889240600000000    0.2782065100000000 O
   0.6106409300000000    0.0110759400000000    0.7217934900000000 O
   0.5832116500000000    0.3328764000000000    0.8520605900000000 O
   0.4167883500000000    0.6671236000000000    0.1479394100000000 O
   0.8772600699999999    0.0824295700000000    0.8525483900000000 O
   0.1227399300000000    0.9175704300000000    0.1474516100000000 O
