Na12 Al4 Se12
1.0
   7.4106617699999999    0.0000000000000000    0.0187003100000000
   0.0000000000000000    7.1527660400000004    0.0000000000000000
  -7.3420768499999998    0.0000000000000000   13.0665240600000008
Na Al Se
12 4 12
direct
   0.0585815100000000    0.0242697700000000    0.2845358500000000 Na
   0.9414184900000000    0.5242697700000000    0.2154641500000000 Na
   0.9414184900000000    0.9757302300000000    0.7154641500000000 Na
   0.0585815100000000    0.4757302300000000    0.7845358500000000 Na
   0.2718948600000000    0.9958738600000000    0.1101218300000000 Na
   0.7281051400000000    0.4958738600000000    0.3898781700000000 Na
   0.7281051400000000    0.0041261400000000    0.8898781700000000 Na
   0.2718948600000000    0.5041261400000000    0.6101218300000000 Na
   0.6883513400000000    0.9954053400000000    0.3998793800000000 Na
   0.3116486600000000    0.4954053400000000    0.1001206200000000 Na
   0.3116486600000000    0.0045946600000000    0.6001206200000000 Na
   0.6883513400000000    0.5045946600000000    0.8998793800000000 Na
   0.3372356000000000    0.6406790200000000    0.4195850500000000 Al
   0.6627644000000000    0.1406790200000000    0.0804149500000000 Al
   0.6627644000000000    0.3593209800000000    0.5804149500000000 Al
   0.3372356000000000    0.8593209800000000    0.9195850500000000 Al
   0.6559241200000000    0.7989521000000001    0.0732272600000000 Se
   0.3440758800000000    0.2989521000000000    0.4267727400000000 Se
   0.3440758800000000    0.2010479000000000    0.9267727400000000 Se
   0.6559241200000000    0.7010478999999999    0.5732272600000000 Se
   0.6549727700000000    0.2387735800000000    0.2284772300000000 Se
   0.3450272300000000    0.7387735800000000    0.2715227700000000 Se
   0.3450272300000000    0.7612264200000000    0.7715227700000000 Se
   0.6549727700000000    0.2612264200000000    0.7284772300000000 Se
   0.0486461500000000    0.7569288600000000    0.4275110200000000 Se
   0.9513538499999999    0.2569288600000000    0.0724889800000000 Se
   0.9513538499999999    0.2430711400000000    0.5724889800000000 Se
   0.0486461500000000    0.7430711400000000    0.9275110200000000 Se
