Na2 Zr4 P6 O24
1.0
   4.4451014999999998    2.5663803800000000    7.5766588500000003
  -4.4451014999999998    2.5663803800000000    7.5766588500000003
   0.0000000000000000   -5.1327607600000000    7.5766588500000003
Na Zr P O
2 4 6 24
direct
   0.5000000000000000    0.5000000000000000    0.5000000000000000 Na
   0.0000000000000000    0.0000000000000000    0.0000000000000000 Na
   0.1445433300000000    0.1445433300000000    0.1445433300000000 Zr
   0.3554566700000000    0.3554566700000000    0.3554566700000000 Zr
   0.6445433300000000    0.6445433300000000    0.6445433300000000 Zr
   0.8554566700000000    0.8554566700000000    0.8554566700000000 Zr
   0.7500000000000000    0.0421870400000000    0.4578129600000000 P
   0.0421870400000000    0.4578129600000000    0.7500000000000000 P
   0.2500000000000000    0.9578129600000000    0.5421870400000000 P
   0.9578129600000000    0.5421870400000000    0.2500000000000000 P
   0.4578129600000000    0.7500000000000000    0.0421870400000000 P
   0.5421870400000000    0.2500000000000000    0.9578129600000000 P
   0.7225734100000000    0.0850857200000000    0.9373675200000000 O
   0.0850857200000000    0.9373675200000000    0.7225734100000000 O
   0.9373675200000000    0.7225734100000000    0.0850857200000000 O
   0.5626324800000000    0.4149142800000000    0.7774265900000000 O
   0.4149142800000000    0.7774265900000000    0.5626324800000000 O
   0.7774265900000000    0.5626324800000000    0.4149142800000000 O
   0.2774265900000000    0.9149142800000000    0.0626324800000000 O
   0.9149142800000000    0.0626324800000000    0.2774265900000000 O
   0.0626324800000000    0.2774265900000000    0.9149142800000000 O
   0.4373675200000000    0.5850857200000000    0.2225734100000000 O
   0.5850857200000000    0.2225734100000000    0.4373675200000000 O
   0.2225734100000000    0.4373675200000000    0.5850857200000000 O
   0.1172390900000000    0.5040336399999999    0.2949093200000000 O
   0.2949093200000000    0.1172390900000000    0.5040336399999999 O
   0.5040336399999999    0.2949093200000000    0.1172390900000000 O
   0.9959663600000001    0.3827609100000000    0.2050906800000000 O
   0.2050906800000000    0.9959663600000001    0.3827609100000000 O
   0.3827609100000000    0.2050906800000000    0.9959663600000001 O
   0.8827609100000000    0.4959663600000000    0.7050906800000000 O
   0.7050906800000000    0.8827609100000000    0.4959663600000000 O
   0.4959663600000000    0.7050906800000000    0.8827609100000000 O
   0.0040336400000000    0.6172390900000000    0.7949093200000000 O
   0.7949093200000000    0.0040336400000000    0.6172390900000000 O
   0.6172390900000000    0.7949093200000000    0.0040336400000000 O
