Ba2 La4 S8
1.0
  -4.4184161099999999    4.4184161099999999    4.3988397800000003
   4.4184161099999999   -4.4184161099999999    4.3988397800000003
   4.4184161099999999    4.4184161099999999   -4.3988397800000003
Ba La S
2 4 8
direct
   0.2500000000000000    0.7500000000000000    0.5000000000000000 Ba
   0.5000000000000000    0.5000000000000000    0.0000000000000000 Ba
   0.3750000000000000    0.2521360600000000    0.3771360600000000 La
   0.7478639400000000    0.1250000000000000    0.1228639400000000 La
   0.8750000000000000    0.9978639400000000    0.6228639400000000 La
   0.0021360600000000    0.6250000000000000    0.8771360600000000 La
   0.6406323900000001    0.2280513400000000    0.7463164700000000 S
   0.4817348700000000    0.8943159200000000    0.2536835300000000 S
   0.2682651300000000    0.0219486600000000    0.9125810500000000 S
   0.6443159200000000    0.7317348700000000    0.7536835300000000 S
   0.9780513400000000    0.8906323900000001    0.2463164700000000 S
   0.1056840800000000    0.3593676100000000    0.5874189500000000 S
   0.7719486600000000    0.5182651300000000    0.4125810500000000 S
   0.1093676100000000    0.3556840800000000    0.0874189500000000 S
