Sr6 Si6 O18
1.0
   6.1632186899999999   -3.5689857699999998   -0.0025630600000000
   6.1632186899999999    3.5689857699999998   -0.0025630600000000
  -4.0097264800000003    0.0000000000000000   10.1117908799999991
Sr Si O
6 6 18
direct
   0.6722172700000000    0.1546782200000000    0.0008447300000000 Sr
   0.8453217800000000    0.3277827300000000    0.4991552700000000 Sr
   0.3277827300000000    0.8453217800000000    0.9991552700000000 Sr
   0.1546782200000000    0.6722172700000000    0.5008447300000000 Sr
   0.5000000000000000    0.0000000000000000    0.5000000000000000 Sr
   0.0000000000000000    0.5000000000000000    0.0000000000000000 Sr
   0.4182064900000000    0.3325768400000000    0.2535868000000000 Si
   0.6674231600000000    0.5817935100000000    0.2464132000000000 Si
   0.5817935100000000    0.6674231600000000    0.7464132000000000 Si
   0.3325768400000000    0.4182064900000000    0.7535868000000000 Si
   0.1670510500000000    0.8329489500000000    0.2500000000000000 Si
   0.8329489500000000    0.1670510500000000    0.7500000000000000 Si
   0.4657084200000000    0.2803791200000000    0.3964726900000000 O
   0.7196208800000000    0.5342915800000000    0.1035273100000000 O
   0.5342915800000000    0.7196208800000000    0.6035273100000000 O
   0.2803791200000000    0.4657084200000000    0.8964726900000000 O
   0.3712929200000000    0.1819459500000000    0.1135060100000000 O
   0.8180540500000000    0.6287070800000000    0.3864939900000000 O
   0.6287070800000000    0.8180540500000000    0.8864939900000000 O
   0.1819459500000000    0.3712929200000000    0.6135060100000000 O
   0.2014924000000000    0.5827875600000000    0.2517373000000000 O
   0.4172124400000000    0.7985076000000000    0.2482627000000000 O
   0.7985076000000000    0.4172124400000000    0.7482626999999999 O
   0.5827875600000000    0.2014924000000000    0.7517373000000001 O
   0.0167574100000000    0.8876958200000000    0.1090652400000000 O
   0.1123041800000000    0.9832425900000000    0.3909347600000000 O
   0.9832425900000000    0.1123041800000000    0.8909347600000000 O
   0.8876958200000000    0.0167574100000000    0.6090652400000000 O
   0.6337811300000000    0.3662188700000000    0.2500000000000000 O
   0.3662188700000000    0.6337811300000000    0.7500000000000000 O
