Sr2 Ta1 Ga1 O6
1.0
  -2.7776447100000001    2.7776447900000001    3.9766299400000000
   2.7776447100000001   -2.7776447900000001    3.9766299400000000
   2.7776447900000001    2.7776447100000001   -3.9766299400000000
Sr Ta Ga O
2 1 1 6
direct
   0.7500000000000000    0.2500000000000000    0.5000000000000000 Sr
   0.2500000000000000    0.7500000000000000    0.5000000000000000 Sr
   0.5000000000000000    0.5000000000000000    0.0000000000000000 Ta
   0.0000000000000000    0.0000000000000000    0.0000000000000000 Ga
   0.7859277600000000    0.7151119300000000    0.5010396900000000 O
   0.7151119300000000    0.2140722400000000    0.9291841600000000 O
   0.2848880700000000    0.7859277600000000    0.0708158400000000 O
   0.2140722400000000    0.2848880700000000    0.4989603100000000 O
   0.2499538000000000    0.2499538000000000    0.0000000000000000 O
   0.7500462000000000    0.7500462000000000    0.0000000000000000 O
