Li2 Sn2 P6 O18
1.0
   6.8114137799999996   -0.0387295000000000    0.0936944500000000
   0.9120352700000000    7.1156243799999999   -0.0710149000000000
   1.4918616499999999    0.5380938400000000    7.2368884400000004
Li Sn P O
2 2 6 18
direct
   0.4263499800000000    0.8393541600000000    0.8317048100000000 Li
   0.5736500200000000    0.1606458400000000    0.1682951900000000 Li
   0.9394372100000000    0.7667633000000000    0.8518428700000000 Sn
   0.0605627900000000    0.2332367000000000    0.1481571300000000 Sn
   0.7629238400000000    0.8394371700000000    0.4533547800000000 P
   0.1559632300000000    0.7218370700000000    0.2247586300000000 P
   0.5880252100000000    0.6137451500000000    0.2206954400000000 P
   0.4119747900000000    0.3862548500000000    0.7793045600000000 P
   0.8440367700000000    0.2781629300000000    0.7752413700000000 P
   0.2370761600000000    0.1605628300000000    0.5466452200000000 P
   0.2843259900000000    0.9872803400000000    0.6604895500000000 O
   0.7071067700000000    0.8341212800000000    0.6625151600000000 O
   0.1873963400000000    0.8881233500000000    0.0862380000000000 O
   0.6424617400000000    0.7550263300000000    0.0573854900000000 O
   0.0059551600000000    0.7826348100000000    0.4147368300000000 O
   0.6796865900000000    0.6597307600000000    0.3923920300000000 O
   0.3513125200000000    0.6609628000000000    0.3094618300000000 O
   0.3645682000000000    0.5900301000000000    0.8060471000000000 O
   0.9228712900000000    0.4424843500000000    0.8395182800000000 O
   0.0771287100000000    0.5575156500000000    0.1604817200000000 O
   0.6354318000000000    0.4099699000000000    0.1939529000000000 O
   0.6486874800000000    0.3390372000000000    0.6905381700000000 O
   0.3203134100000000    0.3402692400000000    0.6076079700000000 O
   0.9940448400000000    0.2173651900000000    0.5852631700000001 O
   0.3575382600000000    0.2449736700000000    0.9426145100000000 O
   0.8126036599999999    0.1118766500000000    0.9137620000000000 O
   0.2928932300000000    0.1658787200000000    0.3374848400000000 O
   0.7156740100000000    0.0127196600000000    0.3395104500000000 O
