Rb8 S4 O16
1.0
   7.7815507500000001    0.0000000000000000    0.0000000000000000
   0.0000000000000000    5.9501187900000003    0.0000000000000000
   0.0000000000000000    0.0000000000000000   10.4005456899999995
Rb S O
8 4 16
direct
   0.5101241200000000    0.7500000000000000    0.2000369600000000 Rb
   0.4898758800000000    0.2500000000000000    0.7999630400000000 Rb
   0.0101241200000000    0.7500000000000000    0.2999630400000000 Rb
   0.9898758800000000    0.2500000000000000    0.7000369600000000 Rb
   0.1720174900000000    0.2500000000000000    0.0892839900000000 Rb
   0.8279825100000000    0.7500000000000000    0.9107160100000000 Rb
   0.6720174900000000    0.2500000000000000    0.4107160100000000 Rb
   0.3279825100000000    0.7500000000000000    0.5892839900000000 Rb
   0.7353505500000000    0.2500000000000000    0.0817425700000000 S
   0.2646494500000000    0.7500000000000000    0.9182574300000000 S
   0.2353505500000000    0.2500000000000000    0.4182574300000000 S
   0.7646494500000000    0.7500000000000000    0.5817425700000000 S
   0.1982530100000000    0.9547256300000000    0.8517436800000000 O
   0.8017469900000000    0.4547256300000000    0.1482563200000000 O
   0.6982530100000000    0.5452743700000000    0.6482563200000000 O
   0.3017469900000000    0.0452743700000000    0.3517436800000000 O
   0.8017469900000000    0.0452743700000000    0.1482563200000000 O
   0.1982530100000000    0.5452743700000000    0.8517436800000000 O
   0.3017469900000000    0.4547256300000000    0.3517436800000000 O
   0.6982530100000000    0.9547256300000000    0.6482563200000000 O
   0.7996471200000000    0.2500000000000000    0.9461699200000000 O
   0.2003528800000000    0.7500000000000000    0.0538300800000000 O
   0.2996471200000000    0.2500000000000000    0.5538300800000000 O
   0.7003528800000000    0.7500000000000000    0.4461699200000000 O
   0.9554119500000000    0.7500000000000000    0.5842607399999999 O
   0.0445880500000000    0.2500000000000000    0.4157392600000000 O
   0.4554119500000000    0.7500000000000000    0.9157392600000001 O
   0.5445880500000000    0.2500000000000000    0.0842607400000000 O
