Al8 Bi4 Se16
1.0
   7.7149412300000000    0.0000000000000000    0.0000000000000000
   0.0000000000000000    7.7149412300000000    0.0000000000000000
   0.0000000000000000    0.0000000000000000   12.4281400400000006
Al Bi Se
8 4 16
direct
   0.0000000000000000    0.5000000000000000    0.7500000000000000 Al
   0.0000000000000000    0.5000000000000000    0.0000000000000000 Al
   0.0000000000000000    0.5000000000000000    0.2500000000000000 Al
   0.5000000000000000    0.0000000000000000    0.5000000000000000 Al
   0.5000000000000000    0.0000000000000000    0.2500000000000000 Al
   0.5000000000000000    0.0000000000000000    0.7500000000000000 Al
   0.0000000000000000    0.5000000000000000    0.5000000000000000 Al
   0.5000000000000000    0.0000000000000000    0.0000000000000000 Al
   0.0000000000000000    0.0000000000000000    0.8733512600000000 Bi
   0.5000000000000000    0.5000000000000000    0.6266487400000000 Bi
   0.5000000000000000    0.5000000000000000    0.3733512600000000 Bi
   0.0000000000000000    0.0000000000000000    0.1266487400000000 Bi
   0.3386810300000000    0.1767548200000000    0.8754387200000000 Se
   0.3232451800000000    0.1613189700000000    0.3754387200000000 Se
   0.8386810300000000    0.3232451800000000    0.3754387200000000 Se
   0.6613189700000000    0.8232451800000000    0.8754387200000000 Se
   0.3232451800000000    0.8386810300000000    0.6245612800000000 Se
   0.1767548200000000    0.3386810300000000    0.1245612800000000 Se
   0.3386810300000000    0.8232451800000000    0.1245612800000000 Se
   0.8232451800000000    0.3386810300000000    0.8754387200000000 Se
   0.8232451800000000    0.6613189700000000    0.1245612800000000 Se
   0.6767548200000000    0.1613189700000000    0.6245612800000000 Se
   0.1767548200000000    0.6613189700000000    0.8754387200000000 Se
   0.6767548200000000    0.8386810300000000    0.3754387200000000 Se
   0.1613189700000000    0.6767548200000000    0.3754387200000000 Se
   0.8386810300000000    0.6767548200000000    0.6245612800000000 Se
   0.1613189700000000    0.3232451800000000    0.6245612800000000 Se
   0.6613189700000000    0.1767548200000000    0.1245612800000000 Se
