Na4 Se4 O14
1.0
   6.9437110000000004    0.0000000000000000    0.0000000000000000
   1.0376790000000000    6.9174040000000003    0.0000000000000000
   0.9571140000000000    2.7757209999999999    6.4108770000000002
Na Se O
4 4 14
direct
   0.3508270000000000    0.7322930000000000    0.3951970000000000 Na
   0.6491730000000000    0.2677070000000000    0.6048030000000000 Na
   0.0701960000000000    0.2590020000000000    0.2336240000000000 Na
   0.9298040000000000    0.7409980000000000    0.7663759999999999 Na
   0.1399560000000000    0.2518360000000000    0.7189390000000000 Se
   0.8600440000000000    0.7481640000000001    0.2810610000000000 Se
   0.4039480000000000    0.8047850000000000    0.8615480000000000 Se
   0.5960520000000000    0.1952150000000000    0.1384520000000000 Se
   0.0291170000000000    0.3703310000000000    0.8676520000000000 O
   0.9708830000000001    0.6296690000000000    0.1323480000000000 O
   0.3154600000000000    0.3707040000000000    0.5509890000000000 O
   0.6845400000000000    0.6292960000000000    0.4490110000000000 O
   0.9912740000000000    0.1733920000000000    0.6077540000000000 O
   0.0087260000000000    0.8266080000000000    0.3922460000000000 O
   0.2706760000000000    0.7467590000000000    0.7224110000000000 O
   0.7293240000000000    0.2532410000000000    0.2775890000000000 O
   0.6058190000000000    0.9044770000000000    0.7344349999999999 O
   0.3941810000000000    0.0955230000000000    0.2655650000000000 O
   0.4231000000000000    0.6435300000000000    0.1040440000000000 O
   0.5769000000000000    0.3564700000000000    0.8959560000000000 O
   0.2522210000000000    0.0211260000000000    0.9150509999999999 O
   0.7477790000000000    0.9788740000000000    0.0849490000000000 O
