Hg4 Mo2 O8
1.0
   4.3603244600000002   -5.7783960099999998    0.0443473900000000
   4.3603244600000002    5.7783960099999998    0.0443473900000000
  -2.0992597800000001    0.0000000000000000    4.4782009199999999
Hg Mo O
4 2 8
direct
   0.4667802100000000    0.2502721200000000    0.0202289200000000 Hg
   0.7497278800000000    0.5332197900000000    0.4797710800000000 Hg
   0.5332197900000000    0.7497278800000000    0.9797710800000000 Hg
   0.2502721200000000    0.4667802100000000    0.5202289200000000 Hg
   0.9008335500000000    0.0991664500000000    0.7500000000000000 Mo
   0.0991664500000000    0.9008335500000000    0.2500000000000000 Mo
   0.3395791300000000    0.9491989500000000    0.2011056200000000 O
   0.6604208700000000    0.0508010500000000    0.7988943800000000 O
   0.8176535800000000    0.9141109700000000    0.3505055500000000 O
   0.9141109700000000    0.8176535800000000    0.8505055500000001 O
   0.9491989500000000    0.3395791300000000    0.7011056200000000 O
   0.0858890300000000    0.1823464200000000    0.1494944500000000 O
   0.1823464200000000    0.0858890300000000    0.6494944499999999 O
   0.0508010500000000    0.6604208700000000    0.2988943800000000 O
