Rb4 Na4 Si8 O20
1.0
   4.8785189700000000    0.0000000000000000   -0.0001235600000000
   0.0000000000000000   13.5401012200000004    0.0000000000000000
  -0.1370004000000000    0.0000000000000000    7.7637944699999997
Rb Na Si O
4 4 8 20
direct
   0.2796217400000000    0.8045245800000000    0.2146611300000000 Rb
   0.2796217400000000    0.6954754200000000    0.7146611300000000 Rb
   0.7203782600000000    0.3045245800000000    0.2853388700000000 Rb
   0.7203782600000000    0.1954754200000000    0.7853388700000000 Rb
   0.2280085000000000    0.0913282800000000    0.0388861700000000 Na
   0.2280085000000000    0.4086717200000000    0.5388861700000001 Na
   0.7719915000000001    0.9086717200000000    0.9611138299999999 Na
   0.7719915000000001    0.5913282800000000    0.4611138300000000 Na
   0.2993238700000000    0.5453784800000000    0.2129100400000000 Si
   0.7942602700000000    0.6323337400000000    0.0215566900000000 Si
   0.2057397300000000    0.1323337400000000    0.4784433100000000 Si
   0.7006761300000000    0.0453784800000000    0.2870899600000000 Si
   0.2057397300000000    0.3676662600000000    0.9784433100000000 Si
   0.7006761300000000    0.4546215200000000    0.7870899600000000 Si
   0.2993238700000000    0.9546215200000000    0.7129100400000000 Si
   0.7942602700000000    0.8676662600000000    0.5215566900000000 Si
   0.6238412600000000    0.9287100200000000    0.6709182100000000 O
   0.7594736100000000    0.0653813300000000    0.0898182100000000 O
   0.6238412600000000    0.5712899800000000    0.1709182100000000 O
   0.8789339600000000    0.1131303100000000    0.4260090800000000 O
   0.2405263900000000    0.5653813300000000    0.4101817900000000 O
   0.3761587400000000    0.0712899800000000    0.3290817900000000 O
   0.7458953600000000    0.5728895200000000    0.8353608000000000 O
   0.7458953600000000    0.9271104800000000    0.3353608000000000 O
   0.7265522200000000    0.7457150200000000    0.0025856400000000 O
   0.1210660400000000    0.8868696900000000    0.5739909200000000 O
   0.2541046400000000    0.0728895200000000    0.6646392000000000 O
   0.3761587400000000    0.4287100200000000    0.8290817900000000 O
   0.2541046400000000    0.4271104800000000    0.1646392000000000 O
   0.1210660400000000    0.6131303100000000    0.0739909200000000 O
   0.2734477800000000    0.2542849800000000    0.9974143600000001 O
   0.7594736100000000    0.4346186700000000    0.5898182100000000 O
   0.7265522200000000    0.7542849800000000    0.5025856399999999 O
   0.2405263900000000    0.9346186700000000    0.9101817900000000 O
   0.8789339600000000    0.3868696900000000    0.9260090800000000 O
   0.2734477800000000    0.2457150200000000    0.4974143600000000 O
