Ba4 In2 Ga2 O10
1.0
  -7.7280412800000002    3.0925468100000000    2.9799351999999999
   7.7280412800000002   -3.0925468100000000    2.9799351999999999
   7.7280412800000002    3.0925468100000000   -2.9799351999999999
Ba In Ga O
4 2 2 10
direct
   0.5073958400000000    0.8942048400000000    0.3750656300000000 Ba
   0.5191402100000000    0.1323302100000000    0.6249343700000000 Ba
   0.5073958400000000    0.6323302100000000    0.1131910000000000 Ba
   0.5191402100000000    0.3942048400000000    0.8868090000000000 Ba
   0.0140954600000000    0.5140954599999999    0.5000000000000000 In
   0.0140954600000000    0.0140954600000000    0.0000000000000000 In
   0.0784915600000000    0.2631025600000000    0.3153880000000000 Ga
   0.9477145600000000    0.7631025600000000    0.6846120000000000 Ga
   0.5141171000000000    0.2757009700000000    0.2632793200000000 O
   0.0124216500000000    0.2508377800000000    0.7367206800000000 O
   0.5141171000000000    0.7508377800000000    0.7384161299999999 O
   0.0124216500000000    0.7757009700000000    0.2615838700000000 O
   0.9441272300000000    0.3715680000000000    0.2806330500000000 O
   0.0909349500000000    0.6634931800000000    0.7193669499999999 O
   0.9441272300000000    0.1634931800000000    0.0725592300000000 O
   0.0909349500000000    0.8715680000000000    0.9274407700000000 O
   0.5147817000000000    0.5072660100000000    0.5075167000000000 O
   0.9997493100000000    0.0072660100000000    0.4924833000000000 O
