Ba6 Te8 O22
1.0
   7.9926675899999999   -0.0415599600000000   -0.0001491300000000
  -2.1169411500000002    9.0780365100000004    0.0064062700000000
  -3.6738693100000002   -2.2022222100000000    9.0301098100000008
Ba Te O
6 8 22
direct
   0.3091853200000000    0.0115858900000000    0.1127024300000000 Ba
   0.6908146800000000    0.9884141100000000    0.8872975700000000 Ba
   0.1501963600000000    0.4031217200000000    0.1802536900000000 Ba
   0.8498036400000000    0.5968782800000000    0.8197463100000000 Ba
   0.7226369900000000    0.4553964300000000    0.3680330100000000 Ba
   0.2773630100000000    0.5446035700000000    0.6319669900000000 Ba
   0.4217962000000000    0.1859194700000000    0.5355298900000000 Te
   0.5782038000000000    0.8140805300000000    0.4644701100000000 Te
   0.9390012700000000    0.2373447700000000    0.7162084399999999 Te
   0.0609987300000000    0.7626552300000000    0.2837915600000000 Te
   0.4683027900000000    0.3102418800000000    0.9360320200000000 Te
   0.5316972100000000    0.6897581200000000    0.0639679800000000 Te
   0.0825611200000000    0.8916159700000000    0.7020155900000000 Te
   0.9174388800000000    0.1083840300000000    0.2979844100000000 Te
   0.8525468200000000    0.7303634200000000    0.5785683000000000 O
   0.1474531800000000    0.2696365800000000    0.4214317000000000 O
   0.2065678800000000    0.7660615800000000    0.8056421000000000 O
   0.7934321200000000    0.2339384200000000    0.1943579000000000 O
   0.9963095300000000    0.9555014400000000    0.8451135900000000 O
   0.0036904700000000    0.0444985600000000    0.1548864100000000 O
   0.5926841400000000    0.6874182700000000    0.8993993800000000 O
   0.4073158600000000    0.3125817300000000    0.1006006200000000 O
   0.6035319800000000    0.9023031600000000    0.1340373000000000 O
   0.3964680200000000    0.0976968400000000    0.8659627000000000 O
   0.7481921400000000    0.6426643500000000    0.1849601200000000 O
   0.2518078600000000    0.3573356500000000    0.8150398800000000 O
   0.0762851400000000    0.5959467200000000    0.3697268900000000 O
   0.9237148600000000    0.4040532800000000    0.6302731100000000 O
   0.4668321200000000    0.2200413300000000    0.3706955900000000 O
   0.5331678800000000    0.7799586700000000    0.6293044100000000 O
   0.5250667900000000    0.3835252500000000    0.6582015600000000 O
   0.4749332100000000    0.6164747500000000    0.3417984400000000 O
   0.6570987900000000    0.1243250700000000    0.6316402300000000 O
   0.3429012100000000    0.8756749300000000    0.3683597700000000 O
   0.9278923000000000    0.3145437100000000    0.8945648700000000 O
   0.0721077000000000    0.6854562900000000    0.1054351300000000 O
