La6 Cd1 Si2 S14
1.0
  10.2674106700000003   -0.0000003500000000    0.0000000000000000
  -5.1337050299999998    8.8918389100000006    0.0000000000000000
   0.0000000000000000    0.0000000000000000    5.7064004199999996
La Cd Si S
6 1 2 14
direct
   0.6421713600000000    0.7647218200000000    0.7517876999999999 La
   0.1225504700000000    0.3578286400000000    0.7517876999999999 La
   0.2352781800000000    0.8774495300000000    0.7517876999999999 La
   0.3581787600000000    0.2345731700000000    0.2464074900000000 La
   0.8763944000000000    0.6418212400000000    0.2464074900000000 La
   0.7654268300000000    0.1236056000000000    0.2464074900000000 La
   0.0000000000000000    0.0000000000000000    0.5049840600000000 Cd
   0.3333330000000000    0.6666670000000000    0.1680330600000000 Si
   0.6666670000000000    0.3333330000000000    0.6603063900000000 Si
   0.3333330000000000    0.6666670000000000    0.5362080100000000 S
   0.6666670000000000    0.3333330000000000    0.0292622200000000 S
   0.7447656600000000    0.8323636500000000    0.2658124500000000 S
   0.0875979900000000    0.2552343400000000    0.2658124500000000 S
   0.1676363500000000    0.9124020100000000    0.2658124500000000 S
   0.2541455900000000    0.1691350900000000    0.7542801800000000 S
   0.9149895100000000    0.7458544100000000    0.7542801800000000 S
   0.8308649100000000    0.0850104900000000    0.7542801800000000 S
   0.4767536900000000    0.8857839199999999    0.0244391700000000 S
   0.4090302300000000    0.5232463100000000    0.0244391700000000 S
   0.1142160800000000    0.5909697699999999    0.0244391700000000 S
   0.5234475500000000    0.1137572200000000    0.5190411000000000 S
   0.5903096700000000    0.4765524500000000    0.5190411000000000 S
   0.8862427800000000    0.4096903300000000    0.5190411000000000 S
