Li8 W2 O10
1.0
   5.0657100300000000    0.0119470900000000    0.0018906000000000
  -1.0038693700000001    4.9917446800000000   -0.0090312100000000
  -1.5632596400000001   -2.8124877800000001    7.0156477700000002
Li W O
8 2 10
direct
   0.6967534900000000    0.3863067900000000    0.3908430000000000 Li
   0.7786673300000000    0.5946317900000000    0.0985725100000000 Li
   0.5699100900000000    0.1951482500000000    0.6956999699999999 Li
   0.5000000000000000    0.0000000000000000    0.0000000000000000 Li
   0.2213326700000000    0.4053682100000000    0.9014274900000000 Li
   0.4300899100000000    0.8048517500000000    0.3043000300000000 Li
   0.3032465100000000    0.6136932100000000    0.6091569999999999 Li
   0.0000000000000000    0.0000000000000000    0.5000000000000000 Li
   0.8910060500000000    0.7833502300000000    0.7832455600000000 W
   0.1089939500000000    0.2166497700000000    0.2167544400000000 W
   0.0516211700000000    0.5686771700000000    0.3359006600000000 O
   0.7778365699999999    0.0097787000000000    0.2491850400000000 O
   0.2221634300000000    0.9902213000000000    0.7508149600000000 O
   0.4273053800000000    0.3900427400000000    0.1547028100000000 O
   0.9483788300000000    0.4313228300000000    0.6640993400000000 O
   0.1317134800000000    0.8242115200000000    0.0419200000000000 O
   0.3345920100000000    0.1885783900000000    0.4291714300000000 O
   0.8682865200000000    0.1757884800000000    0.9580800000000000 O
   0.5726946200000000    0.6099572599999999    0.8452971900000000 O
   0.6654079899999999    0.8114216100000000    0.5708285700000000 O
