Cs1 Cu3 O2
1.0
   5.0403547099999999   -0.0000000100000000    0.0000000000000000
  -2.5201778799999999    4.3650755500000002    0.0000000000000000
   0.0000000000000000    0.0000000000000000    5.5119734200000003
Cs Cu O
1 3 2
direct
   0.0000000000000000    0.0000000000000000    0.5000000000000000 Cs
   0.5000000000000000    0.0000000000000000    0.0000000000000000 Cu
   0.5000000000000000    0.5000000000000000    0.0000000000000000 Cu
   0.0000000000000000    0.5000000000000000    0.0000000000000000 Cu
   0.6666670000000000    0.3333330000000000    0.8005806800000000 O
   0.3333330000000000    0.6666670000000000    0.1994193200000000 O
