La4 Tl4 P8 Se24
1.0
  12.1756118600000001    0.0000000000000000    0.0049593400000000
   0.0000000000000000    7.7481186500000003    0.0000000000000000
  -3.9528238299999998    0.0000000000000000   11.0298692400000000
La Tl P Se
4 4 8 24
direct
   0.6520229500000000    0.1037665400000000    0.4053553100000000 La
   0.3479770500000000    0.6037665400000000    0.0946446900000000 La
   0.3479770500000000    0.8962334600000000    0.5946446900000000 La
   0.6520229500000000    0.3962334600000000    0.9053553100000000 La
   0.8700501200000000    0.9063170900000000    0.1274434700000000 Tl
   0.1299498800000000    0.4063170900000000    0.3725565300000000 Tl
   0.1299498800000000    0.0936829100000000    0.8725565300000000 Tl
   0.8700501200000000    0.5936829100000000    0.6274434700000000 Tl
   0.3214362500000000    0.0980599800000000    0.2514081400000000 P
   0.6785637500000000    0.5980599800000000    0.2485918600000000 P
   0.6785637500000000    0.9019400200000000    0.7485918600000000 P
   0.3214362500000000    0.4019400200000000    0.7514081400000000 P
   0.7955425699999999    0.3824736900000000    0.2356703600000000 P
   0.2044574300000000    0.8824736900000000    0.2643296400000000 P
   0.2044574300000000    0.6175263100000000    0.7643296400000000 P
   0.7955425699999999    0.1175263100000000    0.7356703600000000 P
   0.8792750800000000    0.2890718300000000    0.4225425300000000 Se
   0.1207249200000000    0.7890718300000000    0.0774574700000000 Se
   0.1207249200000000    0.7109281700000000    0.5774574700000000 Se
   0.8792750800000000    0.2109281700000000    0.9225425300000000 Se
   0.7941705999999999    0.7894026000000000    0.3670187200000000 Se
   0.2058294000000000    0.2894026000000000    0.1329812800000000 Se
   0.2058294000000000    0.2105974000000000    0.6329812800000000 Se
   0.7941705999999999    0.7105974000000000    0.8670187200000000 Se
   0.6711497800000000    0.1841216500000000    0.1367621600000000 Se
   0.3288502200000000    0.6841216500000000    0.3632378400000000 Se
   0.3288502200000000    0.8158783500000000    0.8632378400000000 Se
   0.6711497800000000    0.3158783500000000    0.6367621600000000 Se
   0.4092231300000000    0.1964646700000000    0.4369511800000000 Se
   0.5907768700000000    0.6964646700000000    0.0630488200000000 Se
   0.5907768700000000    0.8035353300000000    0.5630488200000000 Se
   0.4092231300000000    0.3035353300000000    0.9369511800000000 Se
   0.8952849600000000    0.4842453800000000    0.1271588900000000 Se
   0.1047150400000000    0.9842453799999999    0.3728411100000000 Se
   0.1047150400000000    0.5157546200000001    0.8728411100000000 Se
   0.8952849600000000    0.0157546200000000    0.6271588900000000 Se
   0.5515268300000000    0.4724463300000000    0.3207219200000000 Se
   0.4484731700000000    0.9724463300000000    0.1792780800000000 Se
   0.4484731700000000    0.5275536700000000    0.6792780800000000 Se
   0.5515268300000000    0.0275536700000000    0.8207219200000000 Se
