Cs4 P4 Se24
1.0
   6.8843943500000000    0.0000000000000000    0.0022285400000000
   0.0000000000000000   12.3904368700000003    0.0000000000000000
  -6.5252804700000002    0.0000000000000000   11.0777035999999995
Cs P Se
4 4 24
direct
   0.5000000000000000    0.9818460000000000    0.2500000000000000 Cs
   0.5000000000000000    0.0181540000000000    0.7500000000000000 Cs
   0.0000000000000000    0.5000000000000000    0.5000000000000000 Cs
   0.0000000000000000    0.5000000000000000    0.0000000000000000 Cs
   0.0000000000000000    0.1601795600000000    0.2500000000000000 P
   0.0000000000000000    0.8398204400000000    0.7500000000000000 P
   0.0000000000000000    0.6660579900000000    0.2500000000000000 P
   0.0000000000000000    0.3339420100000000    0.7500000000000000 P
   0.9843930200000000    0.7708138500000000    0.3904031000000000 Se
   0.0156069800000000    0.2291861500000000    0.6095969000000000 Se
   0.0156069800000000    0.7708138500000000    0.1095969000000000 Se
   0.9843930200000000    0.2291861500000000    0.8904031000000000 Se
   0.4420257400000000    0.6677453100000000    0.9258942999999999 Se
   0.5579742600000001    0.3322546900000000    0.0741057000000000 Se
   0.5579742600000001    0.6677453100000000    0.5741057000000001 Se
   0.4420257400000000    0.3322546900000000    0.4258943000000000 Se
   0.7606070300000000    0.2613212600000000    0.2789163100000000 Se
   0.2393929700000000    0.7386787400000000    0.7210836900000001 Se
   0.2393929700000000    0.2613212600000000    0.2210836900000000 Se
   0.7606070300000000    0.7386787400000000    0.7789163099999999 Se
   0.6880903200000000    0.5720548100000000    0.1703284400000000 Se
   0.3119096800000000    0.4279451900000000    0.8296715600000000 Se
   0.3119096800000000    0.5720548100000000    0.3296715600000000 Se
   0.6880903200000000    0.4279451900000000    0.6703284400000000 Se
   0.3684368700000000    0.8363437700000000    0.4782880700000000 Se
   0.6315631300000000    0.1636562300000000    0.5217119300000000 Se
   0.6315631300000000    0.8363437700000000    0.0217119300000000 Se
   0.3684368700000000    0.1636562300000000    0.9782880700000000 Se
   0.1728544000000000    0.0658837400000000    0.4168986700000000 Se
   0.8271456000000000    0.9341162600000000    0.5831013300000000 Se
   0.8271456000000000    0.0658837400000000    0.0831013300000000 Se
   0.1728544000000000    0.9341162600000000    0.9168986700000000 Se
