Ba2 Y2 Zn6 Ga2 O14
1.0
   6.2686931699999997   -0.0000000000000000    0.0000000000000000
  -3.1343460900000002    5.4288469399999997    0.0000000000000000
   0.0000000000000000    0.0000000000000000   10.1969045000000005
Ba Y Zn Ga O
2 2 6 2 14
direct
   0.3333330000000000    0.6666670000000000    0.4861572000000000 Ba
   0.6666670000000000    0.3333330000000000    0.9861572000000000 Ba
   0.3333330000000000    0.6666670000000000    0.1340659300000000 Y
   0.6666670000000000    0.3333330000000000    0.6340659300000000 Y
   0.8291324600000000    0.6582659300000000    0.3175002900000000 Zn
   0.8291324600000000    0.1708675400000000    0.3175002900000000 Zn
   0.3417340700000000    0.1708675400000000    0.3175002900000000 Zn
   0.1708675400000000    0.3417340700000000    0.8175002900000000 Zn
   0.1708675400000000    0.8291324600000000    0.8175002900000000 Zn
   0.6582659300000000    0.8291324600000000    0.8175002900000000 Zn
   0.0000000000000000    0.0000000000000000    0.5681003400000000 Ga
   0.0000000000000000    0.0000000000000000    0.0681003400000000 Ga
   0.4957834000000000    0.9915668000000000    0.2657022000000000 O
   0.4957834000000000    0.5042166000000000    0.2657022000000000 O
   0.0084332000000000    0.5042166000000000    0.2657022000000000 O
   0.5042166000000000    0.0084332000000000    0.7657022000000000 O
   0.5042166000000000    0.4957834000000000    0.7657022000000000 O
   0.9915668000000000    0.4957834000000000    0.7657022000000000 O
   0.0000000000000000    0.0000000000000000    0.7519077300000000 O
   0.0000000000000000    0.0000000000000000    0.2519077300000000 O
   0.8397817500000000    0.6795644900000000    0.5078037800000000 O
   0.8397817500000000    0.1602182500000000    0.5078037800000000 O
   0.3204355100000000    0.1602182500000000    0.5078037800000000 O
   0.1602182500000000    0.3204355100000000    0.0078037800000000 O
   0.1602182500000000    0.8397817500000000    0.0078037800000000 O
   0.6795644900000000    0.8397817500000000    0.0078037800000000 O
