Sr6 Te8 O22
1.0
   7.4874434799999996   -0.0668997100000000   -0.0163556900000000
  -1.8355880899999999    8.9669744500000004   -0.0399327200000000
  -3.2541489200000000   -2.0402498900000001    8.7519196400000006
Sr Te O
6 8 22
direct
   0.2940894900000000    0.0411357700000000    0.1168852900000000 Sr
   0.7059105100000000    0.9588642300000000    0.8831147100000000 Sr
   0.8649879800000000    0.0823085400000000    0.3208600300000000 Sr
   0.1350120200000000    0.9176914600000000    0.6791399700000000 Sr
   0.3063504600000000    0.5267427900000000    0.6174683100000000 Sr
   0.6936495400000000    0.4732572100000000    0.3825316900000000 Sr
   0.0890506300000000    0.3728219800000000    0.2032379400000000 Te
   0.9109493700000000    0.6271780200000000    0.7967620600000000 Te
   0.0170298500000000    0.2543838200000000    0.7758415200000000 Te
   0.9829701500000000    0.7456161800000000    0.2241584800000000 Te
   0.4499334600000000    0.6909247100000000    0.0413065500000000 Te
   0.5500665400000000    0.3090752900000000    0.9586934499999999 Te
   0.5052750700000000    0.8097128500000000    0.4621965600000000 Te
   0.4947249300000000    0.1902871500000000    0.5378034400000000 Te
   0.9899768200000000    0.5441750300000000    0.6433676900000000 O
   0.0100231800000000    0.4558249700000000    0.3566323100000000 O
   0.4192213000000000    0.5946329600000000    0.3835140700000000 O
   0.5807787000000000    0.4053670400000000    0.6164859300000000 O
   0.8372689900000000    0.2220401900000000    0.0933926400000000 O
   0.1627310100000000    0.7779598100000000    0.9066073600000000 O
   0.7021971200000000    0.1326535300000000    0.6854178700000000 O
   0.2978028800000000    0.8673464700000000    0.3145821300000000 O
   0.3946310700000000    0.8143078400000000    0.6112297000000000 O
   0.6053689300000000    0.1856921600000000    0.3887703000000000 O
   0.0362745400000000    0.1548125100000000    0.5985284199999999 O
   0.9637254600000000    0.8451874900000000    0.4014715800000000 O
   0.4813835000000000    0.3073978700000000    0.1282040800000000 O
   0.5186165000000000    0.6926021300000000    0.8717959199999999 O
   0.5568561500000000    0.9029359600000000    0.1300734200000000 O
   0.4431438500000000    0.0970640400000000    0.8699265800000000 O
   0.9510068900000000    0.9014481300000000    0.1170659600000000 O
   0.0489931100000000    0.0985518700000000    0.8829340400000000 O
   0.2054986300000000    0.2365713300000000    0.3099262300000000 O
   0.7945013700000000    0.7634286700000000    0.6900737700000000 O
   0.6874129100000000    0.6283222100000000    0.1583271100000000 O
   0.3125870900000000    0.3716777900000000    0.8416728900000000 O
