Rb4 Si6 Sn2 O18
1.0
   7.0011051399999999    0.0000002300000000    0.0000000000000000
  -3.5005532600000002    6.0631351899999997    0.0000000000000000
   0.0000000000000000    0.0000000000000000   10.1161426999999993
Rb Si Sn O
4 6 2 18
direct
   0.6666670000000000    0.3333330000000000    0.5582685400000000 Rb
   0.3333330000000000    0.6666670000000000    0.0582685400000000 Rb
   0.6666670000000000    0.3333330000000000    0.9417314600000000 Rb
   0.3333330000000000    0.6666670000000000    0.4417314600000000 Rb
   0.7522646200000001    0.1350498700000000    0.2500000000000000 Si
   0.6172137500000000    0.7522646200000001    0.7500000000000000 Si
   0.1350498700000000    0.3827862500000000    0.7500000000000000 Si
   0.8649501300000000    0.6172137500000000    0.2500000000000000 Si
   0.3827862500000000    0.2477353800000000    0.2500000000000000 Si
   0.2477353800000000    0.8649501300000000    0.7500000000000000 Si
   0.0000000000000000    0.0000000000000000    0.5000000000000000 Sn
   0.0000000000000000    0.0000000000000000    0.0000000000000000 Sn
   0.2273051700000000    0.9718786300000000    0.8865904200000000 O
   0.2554265400000000    0.2273051700000000    0.3865904200000000 O
   0.9718786300000000    0.7445734600000000    0.3865904200000000 O
   0.0281213700000000    0.2554265400000000    0.8865904200000000 O
   0.7445734600000000    0.7726948300000001    0.8865904200000000 O
   0.7726948300000001    0.0281213700000000    0.3865904200000000 O
   0.7726948300000001    0.0281213700000000    0.1134095800000000 O
   0.7445734600000000    0.7726948300000001    0.6134095800000000 O
   0.0281213700000000    0.2554265400000000    0.6134095800000000 O
   0.9718786300000000    0.7445734600000000    0.1134095800000000 O
   0.2554265400000000    0.2273051700000000    0.1134095800000000 O
   0.2273051700000000    0.9718786300000000    0.6134095800000000 O
   0.0869798600000000    0.5935314400000000    0.7500000000000000 O
   0.4934484100000000    0.0869798600000000    0.2500000000000000 O
   0.5935314400000000    0.5065515900000001    0.2500000000000000 O
   0.4064685600000000    0.4934484100000000    0.7500000000000000 O
   0.5065515900000001    0.9130201400000000    0.7500000000000000 O
   0.9130201400000000    0.4064685600000000    0.2500000000000000 O
