Cs8 Ta6 O19
1.0
  -4.9755518800000003    4.9755354699999996    6.9324894199999996
   4.9755518800000003   -4.9755354699999996    6.9324894199999996
   4.9755354699999996    4.9755518800000003   -6.9324894199999996
Cs Ta O
8 6 19
direct
   0.4329092000000000    0.0706435100000000    0.7994276600000000 Cs
   0.0706435100000000    0.2712168400000000    0.6377353100000001 Cs
   0.6334815400000000    0.4329092000000000    0.3622646900000000 Cs
   0.2712168400000000    0.6334815400000000    0.2005723400000000 Cs
   0.5670908000000000    0.9293564900000000    0.2005723400000000 Cs
   0.9293564900000000    0.7287831600000000    0.3622646900000000 Cs
   0.3665184600000000    0.5670908000000000    0.6377353100000001 Cs
   0.7287831600000000    0.3665184600000000    0.7994276600000000 Cs
   0.2111289400000000    0.1106173600000000    0.3217462900000000 Ta
   0.1106173600000000    0.7888710600000000    0.8994874200000000 Ta
   0.8893826400000000    0.2111289400000000    0.1005125800000000 Ta
   0.7888710600000000    0.8893826400000000    0.6782537100000000 Ta
   0.8317137800000000    0.8317137800000000    0.0000000000000000 Ta
   0.1682862200000000    0.1682862200000000    0.0000000000000000 Ta
   0.3661028400000000    0.2088019000000000    0.5749047400000000 O
   0.2088019000000000    0.6338971600000000    0.8426990600000001 O
   0.7911981000000000    0.3661028400000000    0.1573009400000000 O
   0.6338971600000000    0.7911981000000000    0.4250952600000000 O
   0.6997131900000000    0.6997131900000000    0.0000000000000000 O
   0.3002868100000000    0.3002868100000000    0.0000000000000000 O
   0.2661453900000000    0.9190209900000000    0.1851653800000000 O
   0.9190209900000000    0.7338546100000000    0.6528756000000000 O
   0.0809790100000000    0.2661453900000000    0.3471244000000000 O
   0.7338546100000000    0.0809790100000000    0.8148346200000000 O
   0.3178256800000000    0.2363593700000000    0.2694792600000000 O
   0.2363593700000000    0.9668801100000000    0.9185336900000000 O
   0.0483464200000000    0.3178256800000000    0.0814663100000000 O
   0.9668801100000000    0.0483464200000000    0.7305207400000000 O
   0.6821743200000000    0.7636406300000000    0.7305207400000000 O
   0.7636406300000000    0.0331198900000000    0.0814663100000000 O
   0.9516535800000000    0.6821743200000000    0.9185336900000000 O
   0.0331198900000000    0.9516535800000000    0.2694792600000000 O
   0.0000000000000000    0.0000000000000000    0.0000000000000000 O
