Rb4 Au4 O4
1.0
  -4.9312679099999999    4.9312679099999999    2.9011069400000000
   4.9312679099999999   -4.9312679099999999    2.9011069400000000
   4.9312679099999999    4.9312679099999999   -2.9011069400000000
Rb Au O
4 4 4
direct
   0.1938562700000000    0.5000000000000000    0.6938562700000001 Rb
   0.5000000000000000    0.1938562700000000    0.6938562700000001 Rb
   0.5000000000000000    0.8061437299999999    0.3061437300000000 Rb
   0.8061437299999999    0.5000000000000000    0.3061437300000000 Rb
   0.8511867200000000    0.8511867200000000    0.7023734400000000 Au
   0.1488132800000000    0.8511867200000000    0.0000000000000000 Au
   0.8511867200000000    0.1488132800000000    0.0000000000000000 Au
   0.1488132800000000    0.1488132800000000    0.2976265600000000 Au
   0.7108914500000000    0.0000000000000000    0.7108914500000000 O
   0.0000000000000000    0.7108914500000000    0.7108914500000000 O
   0.0000000000000000    0.2891085500000000    0.2891085500000000 O
   0.2891085500000000    0.0000000000000000    0.2891085500000000 O
