Ba1 Be1 Si1 O4
1.0
   4.4001658399999997   -2.6241334500000000    0.0112764600000000
   4.4001658399999997    2.6241334500000000    0.0112764600000000
  -2.8427169900000000    0.0000000000000000    4.1363897700000001
Ba Be Si O
1 1 1 4
direct
   0.9802826400000000    0.9802826400000000    0.9667296800000000 Ba
   0.2530111000000000    0.2530111000000000    0.7369150400000000 Be
   0.5014442800000000    0.5014442800000000    0.4855815000000000 Si
   0.3762790400000000    0.8794976000000000    0.5523386800000000 O
   0.3220687800000000    0.3220687800000000    0.1122317700000000 O
   0.8794976000000000    0.3762790400000000    0.5523386800000000 O
   0.4364155600000000    0.4364155600000000    0.7331626600000000 O
