Li4 Mg2 Ge2 O8
1.0
   6.3365211500000003    0.0000000000000000    0.0000000000000000
   0.0000000000000000    5.5078209700000000    0.0000000000000000
   0.0000000000000000    0.0000000000000000    5.0069360999999999
Li Mg Ge O
4 2 2 8
direct
   0.7490524200000001    0.8329887900000000    0.4998010500000000 Li
   0.7509475799999999    0.1670112100000000    0.9998010500000000 Li
   0.2490524200000000    0.1670112100000000    0.9998010500000000 Li
   0.2509475800000000    0.8329887900000000    0.4998010500000000 Li
   0.0000000000000000    0.3325963000000000    0.4993825700000000 Mg
   0.5000000000000000    0.6674037000000000    0.9993825700000000 Mg
   0.0000000000000000    0.6731702200000000    0.0068059900000000 Ge
   0.5000000000000000    0.3268297800000000    0.5068059900000000 Ge
   0.0000000000000000    0.3632483000000000    0.8943640800000000 O
   0.5000000000000000    0.6367517000000000    0.3943640800000000 O
   0.7667587500000000    0.8254408200000000    0.8937579000000000 O
   0.7332412500000000    0.1745591800000000    0.3937579000000000 O
   0.2667587500000000    0.1745591800000000    0.3937579000000000 O
   0.2332412500000000    0.8254408200000000    0.8937579000000000 O
   0.0000000000000000    0.6692777600000001    0.3648304600000000 O
   0.5000000000000000    0.3307222400000000    0.8648304600000000 O
