Ta4 Tl8 Se22
1.0
   7.7651858599999999    0.0195092200000000   -0.0265815400000000
   0.4864590000000000    9.0231542699999991   -0.0331637000000000
   0.2568607900000000    3.9548694400000000   13.2169549400000008
Ta Tl Se
4 8 22
direct
   0.3347511600000000    0.1074772300000000    0.1898462000000000 Ta
   0.6652488400000000    0.8925227700000000    0.8101538000000000 Ta
   0.1177841700000000    0.3696976600000000    0.2978915800000000 Ta
   0.8822158300000000    0.6303023400000000    0.7021084200000000 Ta
   0.0544971200000000    0.7581552000000000    0.9902774900000000 Tl
   0.9455028800000000    0.2418448000000000    0.0097225100000000 Tl
   0.2116198800000000    0.9885036699999999    0.5720191100000001 Tl
   0.7883801200000000    0.0114963300000000    0.4279808900000000 Tl
   0.5115587900000000    0.2771292600000000    0.8908648700000000 Tl
   0.4884412100000000    0.7228707400000000    0.1091351300000000 Tl
   0.2383704800000000    0.4088969200000000    0.5791328300000000 Tl
   0.7616295199999999    0.5911030800000000    0.4208671700000000 Tl
   0.2695547700000000    0.0355956400000000    0.0354518400000000 Se
   0.7304452299999999    0.9644043600000000    0.9645481600000000 Se
   0.4436031400000000    0.6879061700000000    0.8817231400000000 Se
   0.5563968600000000    0.3120938300000000    0.1182768600000000 Se
   0.2603137500000000    0.4059221500000000    0.1075301500000000 Se
   0.7396862500000000    0.5940778500000000    0.8924698500000000 Se
   0.0118866000000000    0.1294526600000000    0.2444443300000000 Se
   0.9881134000000000    0.8705473400000000    0.7555556700000000 Se
   0.3968097200000000    0.0814123600000000    0.7541522100000000 Se
   0.6031902800000000    0.9185876400000000    0.2458477900000000 Se
   0.3387261600000000    0.8472703100000000    0.3328938300000000 Se
   0.6612738400000000    0.1527296900000000    0.6671061700000001 Se
   0.4063857600000000    0.4498126200000000    0.3483066100000000 Se
   0.5936142400000000    0.5501873800000000    0.6516933900000000 Se
   0.1336891800000000    0.4871165700000000    0.8166920600000001 Se
   0.8663108200000000    0.5128834300000000    0.1833079400000000 Se
   0.0579047900000000    0.6666597000000000    0.2467182700000000 Se
   0.9420952100000000    0.3333403000000000    0.7532817300000000 Se
   0.3915475400000000    0.1777594900000000    0.3697351200000000 Se
   0.6084524600000000    0.8222405100000000    0.6302648800000000 Se
   0.0315284700000000    0.7107601800000000    0.5356224000000001 Se
   0.9684715300000000    0.2892398200000000    0.4643776000000000 Se
