Rb4 Cu4 Se16
1.0
   5.3572594200000001    0.0000000000000000    0.0000000000000000
   0.0000000000000000    8.6589080500000009    0.0000000000000000
   0.0000000000000000    0.0000000000000000   13.3963096299999993
Rb Cu Se
4 4 16
direct
   0.6746248200000000    0.0495765000000000    0.3294697600000000 Rb
   0.1746248200000000    0.4504235000000000    0.6705302400000001 Rb
   0.3253751800000000    0.5495765000000000    0.1705302400000000 Rb
   0.8253751800000000    0.9504235000000000    0.8294697599999999 Rb
   0.9668666400000000    0.8678141100000000    0.5622113600000000 Cu
   0.5331333600000000    0.1321858900000000    0.0622113600000000 Cu
   0.0331333600000000    0.3678141100000000    0.9377886400000000 Cu
   0.4668666400000000    0.6321858900000000    0.4377886400000000 Cu
   0.6645500200000000    0.8678329200000000    0.0919526400000000 Se
   0.8354499800000000    0.1321670800000000    0.5919526400000000 Se
   0.3354499800000000    0.3678329200000000    0.4080473600000000 Se
   0.1645500200000000    0.6321670800000000    0.9080473600000000 Se
   0.6404139500000000    0.6921967999999999    0.5985312000000000 Se
   0.1404139500000000    0.8078032000000001    0.4014688000000000 Se
   0.3595860500000000    0.1921968000000000    0.9014688000000000 Se
   0.8595860500000000    0.3078032000000000    0.0985312000000000 Se
   0.3419580600000000    0.8677649900000000    0.6679837199999999 Se
   0.8419580600000000    0.6322350100000000    0.3320162800000000 Se
   0.6580419400000000    0.3677649900000000    0.8320162800000001 Se
   0.1580419400000000    0.1322350100000000    0.1679837200000000 Se
   0.3932167000000000    0.0926457400000000    0.5601927799999999 Se
   0.8932167000000000    0.4073542600000000    0.4398072200000000 Se
   0.6067833000000000    0.5926457400000000    0.9398072200000001 Se
   0.1067833000000000    0.9073542600000000    0.0601927800000000 Se
