Si4 P8 O28
1.0
   4.7532498600000004    0.0000000000000000    0.0021373100000000
   0.0000000000000000   12.0932239999999993    0.0000000000000000
  -4.5996609399999997    0.0000000000000000    7.6830554900000001
Si P O
4 8 28
direct
   0.3773586600000000    0.3511607000000000    0.1538603100000000 Si
   0.6226413400000000    0.8511607000000000    0.3461396900000000 Si
   0.6226413400000000    0.6488393000000000    0.8461396900000000 Si
   0.3773586600000000    0.1488393000000000    0.6538603100000000 Si
   0.7771192400000000    0.1985000400000000    0.0525726100000000 P
   0.2228807600000000    0.6985000400000000    0.4474273900000000 P
   0.2228807600000000    0.8014999600000000    0.9474273900000000 P
   0.7771192400000000    0.3014999600000000    0.5525726100000000 P
   0.1020943800000000    0.0183670900000000    0.3038363600000000 P
   0.8979056200000000    0.5183670900000000    0.1961636400000000 P
   0.8979056200000000    0.9816329100000000    0.6961636400000000 P
   0.1020943800000000    0.4816329100000000    0.8038363600000000 P
   0.6812576299999999    0.2645517000000000    0.1637323400000000 O
   0.3187423700000000    0.7645516999999999    0.3362676600000000 O
   0.3187423700000000    0.7354483000000001    0.8362676600000000 O
   0.6812576299999999    0.2354483000000000    0.6637323400000000 O
   0.0959438400000000    0.2386108300000000    0.0699393300000000 O
   0.9040561600000000    0.7386108300000001    0.4300606700000000 O
   0.9040561600000000    0.7613891699999999    0.9300606700000000 O
   0.0959438400000000    0.2613891700000000    0.5699393300000000 O
   0.4944257000000000    0.1879957800000000    0.8671408600000000 O
   0.5055743000000000    0.6879957799999999    0.6328591400000000 O
   0.5055743000000000    0.8120042200000001    0.1328591400000000 O
   0.4944257000000000    0.3120042200000000    0.3671408600000000 O
   0.8371741500000000    0.4255271800000000    0.6257154800000000 O
   0.1628258500000000    0.9255271800000000    0.8742845200000000 O
   0.1628258500000000    0.5744728200000000    0.3742845200000000 O
   0.8371741500000000    0.0744728200000000    0.1257154800000000 O
   0.3405067800000000    0.5364507400000000    0.7606329400000000 O
   0.6594932200000000    0.0364507400000000    0.7393670600000000 O
   0.6594932200000000    0.4635492600000000    0.2393670600000000 O
   0.3405067800000000    0.9635492600000000    0.2606329400000000 O
   0.9287175600000001    0.5637421400000000    0.8555052500000000 O
   0.0712824400000000    0.0637421400000000    0.6444947500000000 O
   0.0712824400000000    0.4362578600000000    0.1444947500000000 O
   0.9287175600000001    0.9362578600000000    0.3555052500000000 O
   0.2638258700000000    0.3898503500000000    0.9380740000000000 O
   0.7361741300000000    0.8898503500000000    0.5619260000000000 O
   0.7361741300000000    0.6101496500000000    0.0619260000000000 O
   0.2638258700000000    0.1101496500000000    0.4380740000000000 O
