Zr2 Se2 O2
1.0
   3.6774241000000001    0.0000000000000000    0.0000000000000000
   0.0000000000000000    3.6774241000000001    0.0000000000000000
   0.0000000000000000    0.0000000000000000    6.6797134500000004
Zr Se O
2 2 2
direct
   0.5000000000000000    0.0000000000000000    0.1850930300000000 Zr
   0.0000000000000000    0.5000000000000000    0.8149069700000000 Zr
   0.5000000000000000    0.0000000000000000    0.6284780900000000 Se
   0.0000000000000000    0.5000000000000000    0.3715219100000000 Se
   0.5000000000000000    0.5000000000000000    0.0000000000000000 O
   0.0000000000000000    0.0000000000000000    0.0000000000000000 O
