Cs2 Nb2 B4 O12
1.0
   7.6282506799999998    0.0000000000000000    0.0000000000000000
   0.0000000000000000    3.9600211600000002    0.0000000000000000
   0.0000000000000000    0.0000000000000000    9.8763872599999996
Cs Nb B O
2 2 4 12
direct
   0.5000000000000000    0.4678648300000000    0.2776901500000000 Cs
   0.0000000000000000    0.5321351700000000    0.7776901500000000 Cs
   0.5000000000000000    0.0922656300000000    0.6670328599999999 Nb
   0.0000000000000000    0.9077343700000000    0.1670328600000000 Nb
   0.6629915100000000    0.9890450700000000    0.9547177000000000 B
   0.8370084900000000    0.0109549300000000    0.4547177000000000 B
   0.1629915100000000    0.0109549300000000    0.4547177000000000 B
   0.3370084900000000    0.9890450700000000    0.9547177000000000 B
   0.8077118000000000    0.9305316700000000    0.0312454100000000 O
   0.6922882000000000    0.0694683300000000    0.5312454100000000 O
   0.3077118000000000    0.0694683300000000    0.5312454100000000 O
   0.1922882000000000    0.9305316700000000    0.0312454100000000 O
   0.8214655700000000    0.9402753900000000    0.3204920300000000 O
   0.6785344300000000    0.0597246100000000    0.8204920300000000 O
   0.3214655700000000    0.0597246100000000    0.8204920300000000 O
   0.1785344300000000    0.9402753900000000    0.3204920300000000 O
   0.0000000000000000    0.4301204200000000    0.1659855200000000 O
   0.5000000000000000    0.5698795800000001    0.6659855200000000 O
   0.0000000000000000    0.0313802500000000    0.5200012000000001 O
   0.5000000000000000    0.9686197500000000    0.0200012000000000 O
