Li4 V4 Te4 O20
1.0
   4.9996950099999999    0.0000000000000000    0.0000000000000000
   0.0000000000000000    8.2808504200000002    0.0000000000000000
   0.0000000000000000    0.0000000000000000    9.5467323200000003
Li V Te O
4 4 4 20
direct
   0.0236366100000000    0.8853366800000000    0.9715904000000000 Li
   0.5236366099999999    0.6146633200000000    0.0284096000000000 Li
   0.4763633900000000    0.1146633200000000    0.4715904000000000 Li
   0.9763633900000001    0.3853366800000000    0.5284096000000000 Li
   0.5385152100000000    0.9766333400000000    0.1475680000000000 V
   0.0385152100000000    0.5233666600000000    0.8524320000000000 V
   0.9614847900000000    0.0233666600000000    0.6475680000000000 V
   0.4614847900000000    0.4766333400000000    0.3524320000000000 V
   0.5010837000000000    0.1794145100000000    0.8587690000000000 Te
   0.0010837000000000    0.3205854900000000    0.1412310000000000 Te
   0.9989163000000000    0.8205854900000000    0.3587690000000000 Te
   0.4989163000000000    0.6794145100000000    0.6412310000000000 Te
   0.7028355900000000    0.1693435500000000    0.0731730700000000 O
   0.2028355900000000    0.3306564500000000    0.9268269300000000 O
   0.7971644100000000    0.8306564500000000    0.5731730700000000 O
   0.2971644100000000    0.6693435500000000    0.4268269300000000 O
   0.8133769500000000    0.9927055900000000    0.8117826700000000 O
   0.3133769500000000    0.5072944100000000    0.1882173300000000 O
   0.6866230500000000    0.0072944100000000    0.3117826700000000 O
   0.1866230500000000    0.4927055900000000    0.6882173300000000 O
   0.2891036900000000    0.0942015300000000    0.7008430000000000 O
   0.7891036900000000    0.4057984700000000    0.2991570000000000 O
   0.2108963100000000    0.9057984700000000    0.2008430000000000 O
   0.7108963100000000    0.5942015300000000    0.7991570000000000 O
   0.3319040100000000    0.0248291800000000    0.9746128700000000 O
   0.8319040100000000    0.4751708200000000    0.0253871300000000 O
   0.1680959900000000    0.9751708200000000    0.4746128700000000 O
   0.6680959900000000    0.5248291800000000    0.5253871300000000 O
   0.7076033500000000    0.8149913700000000    0.0938065900000000 O
   0.2076033500000000    0.6850086300000000    0.9061934100000000 O
   0.7923966500000000    0.1850086300000000    0.5938065900000000 O
   0.2923966500000000    0.3149913700000000    0.4061934100000000 O
