Sr7 W4 O19
1.0
   6.8410902699999996   -2.7851047599999998   -0.0092647400000000
   6.8410902699999996    2.7851047599999998   -0.0092647400000000
  -1.4859229800000000    0.0000000000000000   10.3144798899999994
Sr W O
7 4 19
direct
   0.1407271600000000    0.1407271600000000    0.9541902700000000 Sr
   0.5833950200000000    0.5833950200000000    0.1610421600000000 Sr
   0.2090308500000000    0.2090308500000000    0.5872356200000000 Sr
   0.7909691500000000    0.7909691500000000    0.4127643800000000 Sr
   0.4166049800000000    0.4166049800000000    0.8389578400000000 Sr
   0.8592728400000000    0.8592728400000000    0.0458097300000000 Sr
   0.5000000000000000    0.5000000000000000    0.5000000000000000 Sr
   0.0358563000000000    0.0358563000000000    0.3194796500000000 W
   0.6738443000000000    0.6738443000000000    0.7819222200000000 W
   0.3261557000000000    0.3261557000000000    0.2180777800000000 W
   0.9641437000000000    0.9641437000000000    0.6805203500000000 W
   0.3130847500000000    0.8302770700000000    0.7143835700000000 O
   0.8302770700000000    0.3130847500000000    0.7143835700000000 O
   0.6006079800000000    0.6006079800000000    0.9288761900000000 O
   0.0461125000000000    0.0461125000000000    0.1432456100000000 O
   0.3695888500000000    0.8756311200000000    0.3706556700000000 O
   0.8756311200000000    0.3695888500000000    0.3706556700000000 O
   0.6963078100000000    0.6963078100000000    0.6104070800000000 O
   0.0014971300000000    0.5149656700000000    0.8466781700000000 O
   0.5149656700000000    0.0014971300000000    0.8466781700000000 O
   0.4850343300000000    0.9985028700000000    0.1533218300000000 O
   0.9985028700000000    0.4850343300000000    0.1533218300000000 O
   0.3036921900000000    0.3036921900000000    0.3895929200000000 O
   0.6304111500000000    0.1243688800000000    0.6293443300000000 O
   0.1243688800000000    0.6304111500000000    0.6293443300000000 O
   0.9538875000000000    0.9538875000000000    0.8567543900000000 O
   0.3993920200000000    0.3993920200000000    0.0711238100000000 O
   0.1697229300000000    0.6869152500000000    0.2856164300000000 O
   0.6869152500000000    0.1697229300000000    0.2856164300000000 O
   0.0000000000000000    0.0000000000000000    0.5000000000000000 O
