Sr8 Ta4 O18
1.0
   5.8739207999999996   -0.0000000600000000    0.0000000000000000
  -2.9369598400000001    5.0869646900000003    0.0000000000000000
   0.0000000000000000    0.0000000000000000   15.7073328100000005
Sr Ta O
8 4 18
direct
   0.0000000000000000    0.0000000000000000    0.7500000000000000 Sr
   0.0000000000000000    0.0000000000000000    0.5000000000000000 Sr
   0.0000000000000000    0.0000000000000000    0.0000000000000000 Sr
   0.3333330000000000    0.6666670000000000    0.6371540300000000 Sr
   0.3333330000000000    0.6666670000000000    0.8628459700000000 Sr
   0.6666670000000000    0.3333330000000000    0.1371540300000000 Sr
   0.6666670000000000    0.3333330000000000    0.3628459700000000 Sr
   0.0000000000000000    0.0000000000000000    0.2500000000000000 Sr
   0.3333330000000000    0.6666670000000000    0.1554053400000000 Ta
   0.3333330000000000    0.6666670000000000    0.3445946600000000 Ta
   0.6666670000000000    0.3333330000000000    0.6554053399999999 Ta
   0.6666670000000000    0.3333330000000000    0.8445946600000001 Ta
   0.0390237300000000    0.4468587100000000    0.2500000000000000 O
   0.2700719900000000    0.3485351900000000    0.3977405300000000 O
   0.2700719900000000    0.3485351900000000    0.1022594700000000 O
   0.0784632100000000    0.7299280100000000    0.3977405300000000 O
   0.0784632100000000    0.7299280100000000    0.1022594700000000 O
   0.5531412900000000    0.5921660200000000    0.2500000000000000 O
   0.4078339800000000    0.9609762700000000    0.2500000000000000 O
   0.3485351900000000    0.0784632100000000    0.8977405300000000 O
   0.3485351900000000    0.0784632100000000    0.6022594700000000 O
   0.6514648100000000    0.9215367900000000    0.3977405300000000 O
   0.6514648100000000    0.9215367900000000    0.1022594700000000 O
   0.5921660200000000    0.0390237300000000    0.7500000000000000 O
   0.4468587100000000    0.4078339800000000    0.7500000000000000 O
   0.9215367900000000    0.2700719900000000    0.8977405300000000 O
   0.9215367900000000    0.2700719900000000    0.6022594700000000 O
   0.7299280100000000    0.6514648100000000    0.8977405300000000 O
   0.7299280100000000    0.6514648100000000    0.6022594700000000 O
   0.9609762700000000    0.5531412900000000    0.7500000000000000 O
