Hf4 Sn4 S12
1.0
   9.1461250100000004    0.0000000000000000    0.0000000000000000
   0.0000000000000000    3.7139523799999998    0.0000000000000000
   0.0000000000000000    0.0000000000000000   13.7890717299999999
Hf Sn S
4 4 12
direct
   0.8371290400000000    0.7500000000000000    0.9500941500000000 Hf
   0.1628709600000000    0.2500000000000000    0.0499058500000000 Hf
   0.3371290400000000    0.7500000000000000    0.5499058500000000 Hf
   0.6628709600000000    0.2500000000000000    0.4500941500000000 Hf
   0.4651798700000000    0.7500000000000000    0.1699456200000000 Sn
   0.5348201299999999    0.2500000000000000    0.8300543800000000 Sn
   0.9651798700000001    0.7500000000000000    0.3300543800000000 Sn
   0.0348201300000000    0.2500000000000000    0.6699456200000000 Sn
   0.5129343800000000    0.2500000000000000    0.6085672200000000 S
   0.4870656200000000    0.7500000000000000    0.3914327800000000 S
   0.0129343800000000    0.2500000000000000    0.8914327800000000 S
   0.9870656200000000    0.7500000000000000    0.1085672200000000 S
   0.6669329300000000    0.2500000000000000    0.0080642600000000 S
   0.3330670700000000    0.7500000000000000    0.9919357400000000 S
   0.1669329300000000    0.2500000000000000    0.4919357400000000 S
   0.8330670700000000    0.7500000000000000    0.5080642600000000 S
   0.7246782000000001    0.7500000000000000    0.7831540700000000 S
   0.2753218000000000    0.2500000000000000    0.2168459300000000 S
   0.2246782000000000    0.7500000000000000    0.7168459300000000 S
   0.7753217999999999    0.2500000000000000    0.2831540700000000 S
