Li4 Cr2 P8 O24
1.0
   4.6042069999999997   -7.1415879999999996    0.0000000000000000
   4.6042069999999997    7.1415879999999996    0.0000000000000000
  -1.6131380000000000    0.0000000000000000    7.3490589999999996
Li Cr P O
4 2 8 24
direct
   0.8166790000000000    0.5075040000000000    0.7416960000000000 Li
   0.1833210000000000    0.4924960000000000    0.2583040000000000 Li
   0.4924960000000000    0.1833210000000000    0.7583040000000000 Li
   0.5075040000000000    0.8166790000000000    0.2416960000000000 Li
   0.8700690000000000    0.1299310000000000    0.2500000000000000 Cr
   0.1299310000000000    0.8700690000000000    0.7500000000000000 Cr
   0.5734440000000000    0.2239990000000000    0.3768210000000000 P
   0.0647740000000000    0.2087380000000000    0.6724940000000000 P
   0.7912620000000000    0.9352260000000000    0.8275060000000000 P
   0.9352260000000000    0.7912620000000000    0.3275060000000000 P
   0.4265560000000000    0.7760010000000001    0.6231790000000000 P
   0.7760010000000001    0.4265560000000000    0.1231790000000000 P
   0.2239990000000000    0.5734440000000000    0.8768210000000000 P
   0.2087380000000000    0.0647740000000000    0.1724940000000000 P
   0.9253230000000000    0.3839080000000000    0.1929330000000000 O
   0.1050950000000000    0.1717490000000000    0.1678780000000000 O
   0.8949050000000000    0.8282510000000000    0.8321220000000000 O
   0.8282510000000000    0.8949050000000000    0.3321220000000000 O
   0.7240290000000000    0.9785010000000000    0.9927680000000000 O
   0.9785010000000000    0.7240290000000000    0.4927680000000000 O
   0.6320050000000000    0.8346120000000000    0.6581669999999999 O
   0.8346120000000000    0.6320050000000000    0.1581670000000000 O
   0.3839080000000000    0.9253230000000000    0.6929330000000000 O
   0.1108740000000000    0.8891260000000000    0.2500000000000000 O
   0.6910260000000000    0.3645840000000000    0.9274540000000000 O
   0.3692680000000000    0.6307320000000000    0.7500000000000000 O
   0.8891260000000000    0.1108740000000000    0.7500000000000000 O
   0.2759710000000000    0.0214990000000000    0.0072320000000000 O
   0.6354160000000000    0.3089740000000000    0.5725460000000000 O
   0.1717490000000000    0.1050950000000000    0.6678780000000000 O
   0.6307320000000000    0.3692680000000000    0.2500000000000000 O
   0.3089740000000000    0.6354160000000000    0.0725460000000000 O
   0.0746770000000000    0.6160920000000000    0.8070670000000000 O
   0.6160920000000000    0.0746770000000000    0.3070670000000000 O
   0.1653880000000000    0.3679950000000000    0.8418330000000001 O
   0.3679950000000000    0.1653880000000000    0.3418330000000000 O
   0.0214990000000000    0.2759710000000000    0.5072320000000000 O
   0.3645840000000000    0.6910260000000000    0.4274540000000000 O
