Ba1 Se1
1.0
   0.0000000000000000    3.2893242200000001    3.2893242200000001
   3.2893242200000001    0.0000000000000000    3.2893242200000001
   3.2893242200000001    3.2893242200000001    0.0000000000000000
Ba Se
1 1
direct
   0.0000000000000000    0.0000000000000000    0.0000000000000000 Ba
   0.5000000000000000    0.5000000000000000    0.5000000000000000 Se
