Zn2 Mo2 O8
1.0
   4.6182775100000004    0.0000000000000000    0.0309749200000000
   0.0000000000000000    5.6774102299999996    0.0000000000000000
  -0.0489378900000000    0.0000000000000000    4.8825929500000003
Zn Mo O
2 2 8
direct
   0.5000000000000000    0.6775067600000000    0.2500000000000000 Zn
   0.5000000000000000    0.3224932400000000    0.7500000000000000 Zn
   0.0000000000000000    0.8155712700000000    0.7500000000000000 Mo
   0.0000000000000000    0.1844287300000000    0.2500000000000000 Mo
   0.7391561500000000    0.6206116900000000    0.5940872400000000 O
   0.2608438500000000    0.6206116900000000    0.9059127600000000 O
   0.2608438500000000    0.3793883100000000    0.4059127600000000 O
   0.7391561500000000    0.3793883100000000    0.0940872400000000 O
   0.2212066700000000    0.8921128600000000    0.4316845400000000 O
   0.7787933300000000    0.8921128600000000    0.0683154600000000 O
   0.7787933300000000    0.1078871400000000    0.5683154600000000 O
   0.2212066700000000    0.1078871400000000    0.9316845400000000 O
