Li5 Ta1 O5
1.0
   4.8698425500000004   -2.0040652600000000    0.0049780300000000
   4.8698425500000004    2.0040652600000000    0.0049780300000000
  -1.8637966600000000    0.0000000000000000    5.5049235100000002
Li Ta O
5 1 5
direct
   0.7139573900000000    0.7139573900000000    0.3463318000000000 Li
   0.6918069200000000    0.6918069200000000    0.8601496900000000 Li
   0.0000000000000000    0.0000000000000000    0.5000000000000000 Li
   0.3081930800000000    0.3081930800000000    0.1398503100000000 Li
   0.2860426100000000    0.2860426100000000    0.6536682000000000 Li
   0.0000000000000000    0.0000000000000000    0.0000000000000000 Ta
   0.8538973200000000    0.8538973200000000    0.1740443500000000 O
   0.8428567100000000    0.8428567100000000    0.6814956000000000 O
   0.5000000000000000    0.5000000000000000    0.0000000000000000 O
   0.1571432900000000    0.1571432900000000    0.3185044000000000 O
   0.1461026800000000    0.1461026800000000    0.8259556500000000 O
