Cs1 In5 S8
1.0
   9.5738564499999992   -1.9362261400000000   -0.0268092600000000
   9.5738564499999992    1.9362261400000000   -0.0268092600000000
  -1.9618597099999999    0.0000000000000000    9.0725414999999998
Cs In S
1 5 8
direct
   0.5000000000000000    0.5000000000000000    0.5000000000000000 Cs
   0.0000000000000000    0.0000000000000000    0.0000000000000000 In
   0.6519432300000000    0.6519432300000000    0.9374165500000000 In
   0.3480567700000000    0.3480567700000000    0.0625834500000000 In
   0.7083262400000000    0.7083262400000000    0.3411831200000000 In
   0.2916737600000000    0.2916737600000000    0.6588168800000000 In
   0.1659077900000000    0.1659077900000000    0.4882949700000000 S
   0.0789858400000000    0.0789858400000000    0.8026567800000000 S
   0.9210141600000000    0.9210141600000000    0.1973432200000000 S
   0.4194543100000000    0.4194543100000000    0.8576128000000000 S
   0.5805456900000000    0.5805456900000000    0.1423872000000000 S
   0.2324867400000000    0.2324867400000000    0.1491060400000000 S
   0.7675132600000000    0.7675132600000000    0.8508939599999999 S
   0.8340922100000000    0.8340922100000000    0.5117050300000000 S
