Rb12 Sb4 S16
1.0
   9.4941571200000006    0.0000000000000000    0.0000000000000000
   0.0000000000000000   11.0235418299999992    0.0000000000000000
   0.0000000000000000    0.0000000000000000    9.8704956300000006
Rb Sb S
12 4 16
direct
   0.9371275999999999    0.0432241000000000    0.2974087200000000 Rb
   0.4371276000000000    0.0432241000000000    0.2025912800000000 Rb
   0.5628724000000001    0.5432241000000000    0.7974087200000000 Rb
   0.0628724000000000    0.9567759000000000    0.7025912800000000 Rb
   0.1398953200000000    0.2500000000000000    0.9245941400000000 Rb
   0.6398953200000000    0.2500000000000000    0.5754058600000000 Rb
   0.3601046800000000    0.7500000000000000    0.4245941400000000 Rb
   0.8601046800000000    0.7500000000000000    0.0754058600000000 Rb
   0.0628724000000000    0.5432241000000000    0.7025912800000000 Rb
   0.4371276000000000    0.4567759000000000    0.2025912800000000 Rb
   0.5628724000000001    0.9567759000000000    0.7974087200000000 Rb
   0.9371275999999999    0.4567759000000000    0.2974087200000000 Rb
   0.7768759900000000    0.7500000000000000    0.5173389100000000 Sb
   0.2768759900000000    0.7500000000000000    0.9826610900000000 Sb
   0.7231240100000000    0.2500000000000000    0.0173389100000000 Sb
   0.2231240100000000    0.2500000000000000    0.4826610900000000 Sb
   0.6508577100000000    0.9267345700000000    0.4638595500000000 S
   0.1508577100000000    0.5732654300000000    0.0361404500000000 S
   0.8491422900000000    0.0732654300000000    0.9638595500000000 S
   0.3491422900000000    0.4267345700000000    0.5361404500000000 S
   0.3491422900000000    0.0732654300000000    0.5361404500000000 S
   0.8491422900000000    0.4267345700000000    0.9638595500000000 S
   0.1508577100000000    0.9267345700000000    0.0361404500000000 S
   0.6508577100000000    0.5732654300000000    0.4638595500000000 S
   0.0035910100000000    0.2500000000000000    0.5947107500000000 S
   0.5035910100000000    0.2500000000000000    0.9052892500000000 S
   0.4964089900000000    0.7500000000000000    0.0947107500000000 S
   0.9964089900000000    0.7500000000000000    0.4052892500000000 S
   0.1833088500000000    0.2500000000000000    0.2474613900000000 S
   0.8166911500000000    0.7500000000000000    0.7525386100000000 S
   0.3166911500000000    0.7500000000000000    0.7474613900000000 S
   0.6833088500000000    0.2500000000000000    0.2525386100000000 S
