In2 Ag2 P4 Se12
1.0
   6.4479647099999999    0.0000000100000000    0.0000000000000000
  -3.2239828400000001    5.5841017099999997    0.0000000000000000
  -0.0000000000000000    0.0000000000000000   13.3113252800000001
In Ag P Se
2 2 4 12
direct
   0.0000000000000000    0.0000000000000000    0.2500000000000000 In
   0.0000000000000000    0.0000000000000000    0.7500000000000000 In
   0.6666670000000000    0.3333330000000000    0.2500000000000000 Ag
   0.3333330000000000    0.6666670000000000    0.7500000000000000 Ag
   0.6666670000000000    0.3333330000000000    0.6650986100000000 P
   0.6666670000000000    0.3333330000000000    0.8349013900000000 P
   0.3333330000000000    0.6666670000000000    0.3349013900000000 P
   0.3333330000000000    0.6666670000000000    0.1650986100000000 P
   0.9892423800000000    0.3252534900000000    0.8830881900000001 Se
   0.3360111100000000    0.3252534900000000    0.6169118099999999 Se
   0.9892423800000000    0.6639888900000001    0.6169118099999999 Se
   0.6747465100000000    0.0107576200000000    0.6169118099999999 Se
   0.3252534900000000    0.3360111100000000    0.1169118100000000 Se
   0.6639888900000001    0.9892423800000000    0.1169118100000000 Se
   0.0107576200000000    0.6747465100000000    0.1169118100000000 Se
   0.6639888900000001    0.6747465100000000    0.3830881900000000 Se
   0.0107576200000000    0.3360111100000000    0.3830881900000000 Se
   0.3252534900000000    0.9892423800000000    0.3830881900000000 Se
   0.6747465100000000    0.6639888900000001    0.8830881900000001 Se
   0.3360111100000000    0.0107576200000000    0.8830881900000001 Se
