Sr4 Zr4 S12
1.0
   8.4353289700000005    0.0000000000000000    0.0000000000000000
   0.0000000000000000    3.8266275900000002    0.0000000000000000
   0.0000000000000000    0.0000000000000000   13.8793456000000006
Sr Zr S
4 4 12
direct
   0.5671230400000000    0.2500000000000000    0.6792756100000000 Sr
   0.4328769600000000    0.7500000000000000    0.3207243900000000 Sr
   0.0671230400000000    0.2500000000000000    0.8207243900000000 Sr
   0.9328769600000000    0.7500000000000000    0.1792756100000000 Sr
   0.1718318400000000    0.7500000000000000    0.5570543100000001 Zr
   0.6718318400000000    0.7500000000000000    0.9429456899999999 Zr
   0.3281681600000000    0.2500000000000000    0.0570543100000000 Zr
   0.8281681600000000    0.2500000000000000    0.4429456900000000 Zr
   0.1595358500000000    0.7500000000000000    0.9866987000000000 S
   0.7045419800000000    0.2500000000000000    0.2815430800000000 S
   0.9801425000000000    0.2500000000000000    0.6078293200000000 S
   0.4801425000000000    0.2500000000000000    0.8921706800000000 S
   0.8404641500000000    0.2500000000000000    0.0133013000000000 S
   0.5198575000000000    0.7500000000000000    0.1078293200000000 S
   0.6595358500000000    0.7500000000000000    0.5133013000000000 S
   0.2045419800000000    0.2500000000000000    0.2184569200000000 S
   0.7954580200000000    0.7500000000000000    0.7815430799999999 S
   0.2954580200000000    0.7500000000000000    0.7184569200000001 S
   0.3404641500000000    0.2500000000000000    0.4866987000000000 S
   0.0198575000000000    0.7500000000000000    0.3921706800000000 S
