Cd6 Si2 O10
1.0
   6.8180186300000001    0.0000000000000000    0.0000000000000000
   0.0000000000000000    6.8180186300000001    0.0000000000000000
   0.0000000000000000    0.0000000000000000    5.0182370699999996
Cd Si O
6 2 10
direct
   0.5000000000000000    0.0000000000000000    0.9686666200000000 Cd
   0.0000000000000000    0.5000000000000000    0.0313333800000000 Cd
   0.2500000000000000    0.2500000000000000    0.5000000000000000 Cd
   0.7500000000000000    0.2500000000000000    0.5000000000000000 Cd
   0.2500000000000000    0.7500000000000000    0.5000000000000000 Cd
   0.7500000000000000    0.7500000000000000    0.5000000000000000 Cd
   0.0000000000000000    0.0000000000000000    0.0000000000000000 Si
   0.5000000000000000    0.5000000000000000    0.0000000000000000 Si
   0.5000000000000000    0.0000000000000000    0.3952147000000000 O
   0.0000000000000000    0.5000000000000000    0.6047853000000000 O
   0.5000000000000000    0.3093674500000000    0.7997355100000000 O
   0.5000000000000000    0.6906325500000000    0.7997355100000000 O
   0.1906325500000000    0.0000000000000000    0.7997355100000000 O
   0.8093674500000000    0.0000000000000000    0.7997355100000000 O
   0.3093674500000000    0.5000000000000000    0.2002644900000000 O
   0.0000000000000000    0.1906325500000000    0.2002644900000000 O
   0.6906325500000000    0.5000000000000000    0.2002644900000000 O
   0.0000000000000000    0.8093674500000000    0.2002644900000000 O
