Sn4 P4 O14
1.0
   7.0907650000000002    0.0000000000000000    0.0000000000000000
  -3.1929539999999998    6.4272450000000001    0.0000000000000000
  -2.3302239999999999   -2.3569570000000000    7.6547400000000003
Sn P O
4 4 14
direct
   0.6827280000000000    0.9016640000000000    0.1399220000000000 Sn
   0.3172720000000000    0.0983360000000000    0.8600780000000000 Sn
   0.0534210000000000    0.6860380000000000    0.3258040000000000 Sn
   0.9465789999999999    0.3139620000000000    0.6741960000000000 Sn
   0.5370710000000000    0.8135080000000000    0.6907900000000000 P
   0.4629290000000000    0.1864920000000000    0.3092100000000000 P
   0.8344210000000000    0.6512960000000000    0.8455890000000000 P
   0.1655790000000000    0.3487040000000000    0.1544110000000000 P
   0.0311410000000000    0.7784050000000000    0.7890250000000000 O
   0.9688590000000000    0.2215950000000000    0.2109750000000000 O
   0.7047850000000000    0.9800140000000001    0.6315590000000000 O
   0.2952150000000000    0.0199860000000000    0.3684410000000000 O
   0.8670610000000000    0.7609770000000000    0.0285690000000000 O
   0.1329390000000000    0.2390230000000000    0.9714310000000000 O
   0.2927990000000000    0.6913110000000000    0.5608130000000000 O
   0.7072010000000000    0.3086890000000000    0.4391870000000000 O
   0.3945880000000000    0.3707760000000000    0.2880730000000000 O
   0.6054120000000000    0.6292240000000000    0.7119270000000000 O
   0.4532110000000000    0.0892590000000000    0.1268840000000000 O
   0.5467890000000000    0.9107410000000000    0.8731160000000000 O
   0.2173600000000000    0.5842760000000000    0.1797550000000000 O
   0.7826400000000000    0.4157240000000000    0.8202450000000000 O
