Ba2 Ca1 B6 O12
1.0
   3.5810811800000000    2.0675379500000002    5.8579659399999997
  -3.5810811400000002    2.0675380099999998    5.8579659399999997
  -0.0000000300000000   -4.1350759699999999    5.8579659399999997
Ba Ca B O
2 1 6 12
direct
   0.7922451900000000    0.7922451900000000    0.7922451900000000 Ba
   0.2077548100000000    0.2077548100000000    0.2077548100000000 Ba
   0.0000000000000000    0.0000000000000000    0.0000000000000000 Ca
   0.6298562800000000    0.3641857800000000    0.7556268500000000 B
   0.6358142200000000    0.2443731500000000    0.3701437200000000 B
   0.3701437200000000    0.6358142200000000    0.2443731500000000 B
   0.2443731500000000    0.3701437200000000    0.6358142200000000 B
   0.3641857800000000    0.7556268500000000    0.6298562800000000 B
   0.7556268500000000    0.6298562800000000    0.3641857800000000 B
   0.4598693500000000    0.2033696500000000    0.5822625700000000 O
   0.2033696500000000    0.5822625700000000    0.4598693500000000 O
   0.5822625700000000    0.4598693500000000    0.2033696500000000 O
   0.4177374300000000    0.5401306500000000    0.7966303500000000 O
   0.8402133300000000    0.0837549500000000    0.3364542000000000 O
   0.7966303500000000    0.4177374300000000    0.5401306500000000 O
   0.5401306500000000    0.7966303500000000    0.4177374300000000 O
   0.0837549500000000    0.3364542000000000    0.8402133300000000 O
   0.3364542000000000    0.8402133300000000    0.0837549500000000 O
   0.9162450500000000    0.6635458000000000    0.1597866700000000 O
   0.6635458000000000    0.1597866700000000    0.9162450500000000 O
   0.1597866700000000    0.9162450500000000    0.6635458000000000 O
