Na2 V2 Cd2 O8
1.0
   2.9191566000000000   -4.5766916899999996    0.0000000000000000
   2.9191566000000000    4.5766916899999996    0.0000000000000000
   0.0000000000000000    0.0000000000000000    6.9984570699999997
Na V Cd O
2 2 2 8
direct
   0.3198243400000000    0.6801756600000000    0.7500000000000000 Na
   0.6801756600000000    0.3198243400000000    0.2500000000000000 Na
   0.3505846000000000    0.6494154000000000    0.2500000000000000 V
   0.6494154000000000    0.3505846000000000    0.7500000000000000 V
   0.0000000000000000    0.0000000000000000    0.0000000000000000 Cd
   0.0000000000000000    0.0000000000000000    0.5000000000000000 Cd
   0.7783215200000000    0.7076793700000000    0.7500000000000000 O
   0.2216784800000000    0.2923206300000000    0.2500000000000000 O
   0.7076793700000000    0.7783215200000000    0.2500000000000000 O
   0.2923206300000000    0.2216784800000000    0.7500000000000000 O
   0.2420026800000000    0.7579973200000000    0.0531804600000000 O
   0.7579973200000000    0.2420026800000000    0.5531804600000000 O
   0.2420026800000000    0.7579973200000000    0.4468195400000000 O
   0.7579973200000000    0.2420026800000000    0.9468195400000000 O
