Tl2 Sb2 W2 O12
1.0
  -3.6222314299999998    5.1326106999999999    3.6934898500000002
   3.6222314299999998   -5.1326106999999999    3.6934898500000002
   3.6222314299999998    5.1326106999999999   -3.6934898500000002
Tl Sb W O
2 2 2 12
direct
   0.2507383200000000    0.6546503500000000    0.0960889700000000 Tl
   0.5585613800000000    0.1546503500000000    0.9039110299999999 Tl
   0.0065231300000000    0.0065231300000000    0.0000000000000000 Sb
   0.0065231300000000    0.5065231300000000    0.5000000000000000 Sb
   0.4941444000000000    0.4863491200000000    0.5077952800000000 W
   0.9785548400000000    0.9863491200000000    0.4922047200000000 W
   0.3104158500000000    0.2517003500000000    0.5587155000000000 O
   0.9380701200000000    0.2659612700000000    0.1721098500000000 O
   0.9420124900000000    0.2524639600000000    0.5649443000000000 O
   0.3273302500000000    0.2629686400000000    0.1910152700000000 O
   0.9420124900000000    0.8770681900000000    0.1895485300000000 O
   0.3273302500000000    0.6363149800000000    0.5643616000000000 O
   0.6929848500000000    0.7517003500000000    0.4412845000000000 O
   0.0938514200000000    0.7659612700000000    0.8278901500000000 O
   0.0719543800000000    0.7629686400000000    0.4356384000000000 O
   0.6875196600000000    0.7524639600000000    0.8104514700000000 O
   0.0719543800000000    0.1363149800000000    0.8089847300000000 O
   0.6875196600000000    0.3770681900000000    0.4350557000000000 O
