P8 S12 O6
1.0
   6.5744250800000001    0.0000000000000000    0.0109971000000000
   0.0000000000000000   12.4312778999999995    0.0000000000000000
  -1.8195640200000001    0.0000000000000000    7.1212885799999999
P S O
8 12 6
direct
   0.1784122200000000    0.8691982800000000    0.8166196500000000 P
   0.2101843600000000    0.2500000000000000    0.0371861200000000 P
   0.8215877800000000    0.3691982800000000    0.1833803500000000 P
   0.8215877800000000    0.1308017200000000    0.1833803500000000 P
   0.1784122200000000    0.6308017200000000    0.8166196500000000 P
   0.6995863500000000    0.2500000000000000    0.8246695300000000 P
   0.7898156400000000    0.7500000000000000    0.9628138800000000 P
   0.3004136500000000    0.7500000000000000    0.1753304700000000 P
   0.2875013400000000    0.9822018900000000    0.6970428400000001 S
   0.7124986600000000    0.4822018900000000    0.3029571600000000 S
   0.7124986600000000    0.0177981100000000    0.3029571600000000 S
   0.2875013400000000    0.5177981100000000    0.6970428400000001 S
   0.5271056300000000    0.7500000000000000    0.3917197800000000 S
   0.4728943700000000    0.2500000000000000    0.6082802200000000 S
   0.8646823900000000    0.8866716700000000    0.8163354000000000 S
   0.8646823900000000    0.6133283300000000    0.8163354000000000 S
   0.1353176100000000    0.1133283300000000    0.1836646000000000 S
   0.9933473300000000    0.2500000000000000    0.7689959100000000 S
   0.0066526700000000    0.7500000000000000    0.2310040900000000 S
   0.1353176100000000    0.3866716700000000    0.1836646000000000 S
   0.3020001700000000    0.6487057100000000    0.0354831200000000 O
   0.8012250000000000    0.2500000000000000    0.2699494200000000 O
   0.3020001700000000    0.8512942900000000    0.0354831200000000 O
   0.6979998300000000    0.3512942900000000    0.9645168800000000 O
   0.6979998300000000    0.1487057100000000    0.9645168800000000 O
   0.1987750000000000    0.7500000000000000    0.7300505800000000 O
