Al6 In6 Se18
1.0
   7.0024385000000002    0.0000037200000000    0.0000000000000000
  -3.5012219800000000    6.0642874300000003    0.0000000000000000
   0.0000000000000000    0.0000000000000000   18.7048549400000006
Al In Se
6 6 18
direct
   0.0182523400000000    0.6869457700000000    0.0244937800000000 Al
   0.9817476600000000    0.3130542300000000    0.5244937800000000 Al
   0.3130542300000000    0.3313065700000000    0.3578277800000000 Al
   0.6686934300000000    0.9817476600000000    0.6911607800000000 Al
   0.3313065700000000    0.0182523400000000    0.1911607800000000 Al
   0.6869457700000000    0.6686934300000000    0.8578277800000000 Al
   0.3336175600000000    0.3365993900000000    0.9963439500000000 In
   0.6663824400000000    0.6634006099999999    0.4963439500000000 In
   0.6634006099999999    0.9970181600000000    0.3296769500000000 In
   0.0029818400000000    0.6663824400000000    0.6630099500000000 In
   0.9970181600000000    0.3336175600000000    0.1630099500000000 In
   0.3365993900000000    0.0029818400000000    0.8296769500000000 In
   0.0482773800000000    0.6808130800000000    0.5119912100000000 Se
   0.9517226200000000    0.3191869200000000    0.0119912100000000 Se
   0.3191869200000000    0.3674643000000000    0.8453242100000000 Se
   0.6325357000000000    0.9517226200000000    0.1786572100000000 Se
   0.3674643000000000    0.0482773800000000    0.6786572100000000 Se
   0.6808130800000000    0.6325357000000000    0.3453242100000000 Se
   0.9840216500000000    0.7092337100000000    0.1530784900000000 Se
   0.0159783500000000    0.2907662900000000    0.6530784900000000 Se
   0.2907662900000000    0.2747879500000000    0.4864124900000000 Se
   0.7252120500000000    0.0159783500000000    0.8197454900000000 Se
   0.2747879500000000    0.9840216500000000    0.3197454900000000 Se
   0.7092337100000000    0.7252120500000000    0.9864124900000000 Se
   0.3839041800000000    0.3598438100000000    0.1467575600000000 Se
   0.6160958200000000    0.6401561900000000    0.6467575600000000 Se
   0.6401561900000000    0.0240603600000000    0.4800915600000000 Se
   0.9759396400000000    0.6160958200000000    0.8134245600000000 Se
   0.0240603600000000    0.3839041800000000    0.3134245600000000 Se
   0.3598438100000000    0.9759396400000000    0.9800915600000000 Se
