Sr6 Ga8 O18
1.0
   6.7472798100000002   -0.0136270100000000    0.0042744300000000
   2.1488924400000000    7.7229045400000000   -0.0103334700000000
   2.9230876600000002    0.0573708700000000    9.2454037099999997
Sr Ga O
6 8 18
direct
   0.8133360300000000    0.4325600100000000    0.3216704700000000 Sr
   0.1866639700000000    0.5674399900000000    0.6783295300000000 Sr
   0.6875322699999999    0.7853059400000000    0.0385806600000000 Sr
   0.3124677300000000    0.2146940600000000    0.9614193400000000 Sr
   0.0605882400000000    0.0504980400000000    0.6887434000000000 Sr
   0.9394117600000000    0.9495019600000000    0.3112566000000000 Sr
   0.2512137300000000    0.7496561899999999    0.9440174700000000 Ga
   0.7487862700000000    0.2503438100000000    0.0559825300000000 Ga
   0.6645815900000001    0.4490461700000000    0.7663191300000000 Ga
   0.3354184100000000    0.5509538300000000    0.2336808700000000 Ga
   0.3893946900000000    0.1701543700000000    0.3006281000000000 Ga
   0.6106053100000000    0.8298456300000000    0.6993719000000000 Ga
   0.5604485500000000    0.1956299000000000    0.5812376800000000 Ga
   0.4395514500000000    0.8043701000000000    0.4187623200000000 Ga
   0.5904460900000000    0.1994379400000000    0.3843503200000000 O
   0.4095539100000000    0.8005620600000000    0.6156496800000000 O
   0.7845409100000000    0.2573534200000000    0.8597650400000000 O
   0.2154590900000000    0.7426465799999999    0.1402349600000000 O
   0.5623066100000000    0.1012338900000000    0.1137654600000000 O
   0.4376933900000000    0.8987661100000000    0.8862345400000000 O
   0.6974604300000000    0.3676991600000000    0.5855709500000000 O
   0.3025395700000000    0.6323008400000000    0.4144290500000000 O
   0.2398120700000000    0.0143858500000000    0.3999623300000000 O
   0.7601879300000000    0.9856141500000000    0.6000376700000000 O
   0.7095254100000000    0.7578463400000000    0.2955601100000000 O
   0.2904745900000000    0.2421536600000000    0.7044398900000000 O
   0.9797887000000000    0.1838187000000000    0.1247398700000000 O
   0.0202113000000000    0.8161813000000000    0.8752601300000000 O
   0.3757207100000000    0.5204628800000000    0.8724872500000000 O
   0.6242792900000000    0.4795371200000000    0.1275127500000000 O
   0.7959762400000000    0.6276335500000000    0.7381435200000001 O
   0.2040237600000000    0.3723664500000000    0.2618564800000000 O
