Cu4 Si2 Hg2 S8
1.0
   7.5466016600000003    0.0000000000000000    0.0000000000000000
   0.0000000000000000    6.4133332200000002    0.0000000000000000
   0.0000000000000000    0.0000000000000000    6.2118219600000000
Cu Si Hg S
4 2 2 8
direct
   0.2511835700000000    0.3269187400000000    0.5063777000000000 Cu
   0.7488164300000000    0.3269187400000000    0.5063777000000000 Cu
   0.2488164300000000    0.6730812600000000    0.0063777000000000 Cu
   0.7511835700000000    0.6730812600000000    0.0063777000000000 Cu
   0.5000000000000000    0.8200438700000000    0.5013976400000000 Si
   0.0000000000000000    0.1799561300000000    0.0013976400000000 Si
   0.5000000000000000    0.1514478900000000    0.0104399800000000 Hg
   0.0000000000000000    0.8485521100000000    0.5104399800000000 Hg
   0.5000000000000000    0.7884932400000000    0.8452090000000000 S
   0.0000000000000000    0.2115067600000000    0.3452090000000000 S
   0.5000000000000000    0.1447435300000000    0.4166832100000000 S
   0.0000000000000000    0.8552564700000000    0.9166832100000000 S
   0.2241376900000000    0.3418416000000000    0.8707573900000000 S
   0.7758623100000001    0.3418416000000000    0.8707573900000000 S
   0.2758623100000000    0.6581584000000000    0.3707573900000000 S
   0.7241376899999999    0.6581584000000000    0.3707573900000000 S
