Ba4 Se8 O20
1.0
   4.5200354000000003    0.0000000000000000    0.0269647400000000
   0.0000000000000000   11.6767037899999995    0.0000000000000000
  -0.3738206900000000    0.0000000000000000    9.7313723599999999
Ba Se O
4 8 20
direct
   0.2440449800000000    0.6685798600000000    0.9623999300000000 Ba
   0.7559550200000000    0.1685798600000000    0.5376000700000000 Ba
   0.7559550200000000    0.3314201400000000    0.0376000700000000 Ba
   0.2440449800000000    0.8314201400000000    0.4623999300000000 Ba
   0.8081508200000000    0.6084363300000000    0.2589610300000000 Se
   0.1918491800000000    0.1084363300000000    0.2410389700000000 Se
   0.1918491800000000    0.3915636700000000    0.7410389700000000 Se
   0.8081508200000000    0.8915636700000000    0.7589610300000000 Se
   0.7352047800000000    0.5789500000000000    0.6434983200000000 Se
   0.2647952200000000    0.0789500000000000    0.8565016800000000 Se
   0.2647952200000000    0.4210500000000000    0.3565016800000000 Se
   0.7352047800000000    0.9210500000000000    0.1434983200000000 Se
   0.7539062700000000    0.5597424800000000    0.0959228500000000 O
   0.2460937300000000    0.0597424800000000    0.4040771500000000 O
   0.2460937300000000    0.4402575200000000    0.9040771500000000 O
   0.7539062700000000    0.9402575200000000    0.5959228500000000 O
   0.1624036600000000    0.6556077500000000    0.2594693000000000 O
   0.8375963400000001    0.1556077500000000    0.2405307000000000 O
   0.8375963400000001    0.3443922500000000    0.7405307000000000 O
   0.1624036600000000    0.8443922500000000    0.7594693000000000 O
   0.1312186900000000    0.5355794600000000    0.6536135500000000 O
   0.8687813100000000    0.0355794600000000    0.8463864500000000 O
   0.8687813100000000    0.4644205400000000    0.3463864500000000 O
   0.1312186900000000    0.9644205400000000    0.1536135500000000 O
   0.7178586300000001    0.8570710900000000    0.2983789000000000 O
   0.2821413700000000    0.3570710900000000    0.2016211000000000 O
   0.2821413700000000    0.1429289100000000    0.7016211000000000 O
   0.7178586300000001    0.6429289100000000    0.7983789000000000 O
   0.7647111700000000    0.8106041300000000    0.0329286700000000 O
   0.2352888300000000    0.3106041300000000    0.4670713300000000 O
   0.2352888300000000    0.1893958700000000    0.9670713300000000 O
   0.7647111700000000    0.6893958700000000    0.5329286700000000 O
