Ga6 N2 O6
1.0
   2.9267527400000000    1.6897616700000000    4.8649480199999999
  -2.9267527400000000    1.6897616700000000    4.8649480199999999
   0.0000000000000000   -3.3795233499999999    4.8649480199999999
Ga N O
6 2 6
direct
   0.5000000000000000    0.0000000000000000    0.5000000000000000 Ga
   0.5000000000000000    0.5000000000000000    0.5000000000000000 Ga
   0.8623180000000000    0.8623180000000000    0.8623180000000000 Ga
   0.0000000000000000    0.5000000000000000    0.5000000000000000 Ga
   0.1376820000000000    0.1376820000000000    0.1376820000000000 Ga
   0.5000000000000000    0.5000000000000000    0.0000000000000000 Ga
   0.2676441400000000    0.2676441400000000    0.2676441400000000 N
   0.7323558600000000    0.7323558600000000    0.7323558600000000 N
   0.7395563600000000    0.2596675900000000    0.2596675900000000 O
   0.2596675900000000    0.7395563600000000    0.2596675900000000 O
   0.2596675900000000    0.2596675900000000    0.7395563600000000 O
   0.7403324100000001    0.7403324100000001    0.2604436400000000 O
   0.2604436400000000    0.7403324100000001    0.7403324100000001 O
   0.7403324100000001    0.2604436400000000    0.7403324100000001 O
