Li2 Sc2 P4 O14
1.0
   4.9451793500000001    0.0000000000000000   -0.0220412000000000
   0.0000000000000000    8.3803850400000002    0.0000000000000000
  -2.3059255799999998    0.0000000000000000    6.6677864400000004
Li Sc P O
2 2 4 14
direct
   0.1810146400000000    0.3544159500000000    0.6591085200000000 Li
   0.8189853600000000    0.8544159500000000    0.3408914800000000 Li
   0.2127825200000000    0.0012176500000000    0.7312328400000000 Sc
   0.7872174800000000    0.5012176500000000    0.2687671600000000 Sc
   0.5967561400000000    0.1789136400000000    0.4680318300000000 P
   0.2122773900000000    0.2870670600000000    0.0787587400000000 P
   0.7877226100000000    0.7870670600000000    0.9212412600000000 P
   0.4032438600000000    0.6789136400000000    0.5319681700000000 P
   0.9517002200000000    0.3274570000000000    0.1364902400000000 O
   0.4003366300000000    0.1560055800000000    0.2362565600000000 O
   0.5996633700000000    0.6560055800000000    0.7637434400000001 O
   0.1984925100000000    0.5365234000000000    0.4914361300000000 O
   0.8015074900000000    0.0365234000000000    0.5085638700000000 O
   0.6029454500000000    0.6779904700000000    0.4069993700000000 O
   0.1377228300000000    0.2027633100000000    0.8755065800000000 O
   0.8622771700000000    0.7027633100000000    0.1244934200000000 O
   0.3970545500000000    0.1779904700000000    0.5930006300000000 O
   0.2425837700000000    0.8376459500000000    0.5149354300000000 O
   0.3987241600000000    0.4329999700000000    0.0833636800000000 O
   0.7574162300000000    0.3376459500000000    0.4850645700000000 O
   0.6012758400000000    0.9329999700000000    0.9166363199999999 O
   0.0482997800000000    0.8274570000000000    0.8635097600000000 O
