Sr4 Tl4 P4 S16
1.0
  12.5399692300000005    0.0000000000000000    0.0000000000000000
   0.0000000000000000    6.5179628200000002    0.0000000000000000
   0.0000000000000000    0.0000000000000000    8.4836240000000007
Sr Tl P S
4 4 4 16
direct
   0.1344170400000000    0.2500000000000000    0.6111775100000000 Sr
   0.8655829600000000    0.7500000000000000    0.3888224900000000 Sr
   0.3655829600000000    0.7500000000000000    0.1111775100000000 Sr
   0.6344170400000000    0.2500000000000000    0.8888224900000000 Sr
   0.8897724800000000    0.7500000000000000    0.8758980400000000 Tl
   0.1102275200000000    0.2500000000000000    0.1241019600000000 Tl
   0.6102275200000000    0.2500000000000000    0.3758980400000000 Tl
   0.3897724800000000    0.7500000000000000    0.6241019600000000 Tl
   0.6493842000000000    0.7500000000000000    0.1261086300000000 P
   0.8506158000000000    0.2500000000000000    0.6261086300000001 P
   0.1493842000000000    0.7500000000000000    0.3738913700000000 P
   0.3506158000000000    0.2500000000000000    0.8738913699999999 P
   0.7508829200000000    0.4997691800000000    0.6353988699999999 S
   0.2491170800000000    0.9997691800000000    0.3646011300000000 S
   0.7491170800000000    0.5002308200000000    0.1353988700000000 S
   0.2508829200000000    0.0002308200000000    0.8646011300000001 S
   0.7491170800000000    0.9997691800000000    0.1353988700000000 S
   0.2491170800000000    0.5002308200000000    0.3646011300000000 S
   0.2508829200000000    0.4997691800000000    0.8646011300000001 S
   0.7508829200000000    0.0002308200000000    0.6353988699999999 S
   0.4461500000000000    0.2500000000000000    0.6796502000000000 S
   0.5538500000000000    0.7500000000000000    0.3203498000000000 S
   0.0538500000000000    0.7500000000000000    0.1796502000000000 S
   0.9461500000000000    0.2500000000000000    0.8203498000000000 S
   0.4331656200000000    0.2500000000000000    0.0819503200000000 S
   0.5668343800000000    0.7500000000000000    0.9180496800000000 S
   0.0668343800000000    0.7500000000000000    0.5819503200000000 S
   0.9331656200000000    0.2500000000000000    0.4180496800000000 S
