Ti4 As8 O28
1.0
   5.1441961599999999    0.0000000000000000    0.0007440700000000
   0.0000000000000000   13.0413757100000005    0.0000000000000000
  -4.9688983000000002    0.0000000000000000    8.2748865899999995
Ti As O
4 8 28
direct
   0.6390329600000000    0.3464683100000000    0.3450726000000000 Ti
   0.3609670400000000    0.8464683100000000    0.1549274000000000 Ti
   0.3609670400000000    0.6535316900000000    0.6549274000000000 Ti
   0.6390329600000000    0.1535316900000000    0.8450726000000000 Ti
   0.2320067800000000    0.3105558100000000    0.9378526300000000 As
   0.7679932200000000    0.8105558100000000    0.5621473700000000 As
   0.7679932200000000    0.6894441900000000    0.0621473700000000 As
   0.2320067800000000    0.1894441900000000    0.4378526300000000 As
   0.8744450600000000    0.4851702300000000    0.6894714000000000 As
   0.1255549400000000    0.9851702300000000    0.8105286000000000 As
   0.1255549400000000    0.5148297700000000    0.3105286000000000 As
   0.8744450600000000    0.0148297700000000    0.1894714000000000 As
   0.1895800600000000    0.4390272700000000    0.8691486200000000 O
   0.8104199399999999    0.9390272700000000    0.6308513800000000 O
   0.8104199399999999    0.5609727300000000    0.1308513800000000 O
   0.1895800600000000    0.0609727300000000    0.3691486200000000 O
   0.3591846200000000    0.0343049600000000    0.7522815000000000 O
   0.6408153800000000    0.5343049600000001    0.7477185000000000 O
   0.6408153800000000    0.9656950399999999    0.2477185000000000 O
   0.3591846200000000    0.4656950400000000    0.2522815000000000 O
   0.9053621900000000    0.2770858500000000    0.9280010100000000 O
   0.0946378100000000    0.7770858500000000    0.5719989900000000 O
   0.0946378100000000    0.7229141500000000    0.0719989900000000 O
   0.9053621900000000    0.2229141500000000    0.4280010100000000 O
   0.3059644300000000    0.2584416000000000    0.3134705900000000 O
   0.6940355700000000    0.7584416000000000    0.1865294100000000 O
   0.6940355700000000    0.7415584000000000    0.6865294100000000 O
   0.3059644300000000    0.2415584000000000    0.8134705900000000 O
   0.5427380700000000    0.3190606500000000    0.1245219900000000 O
   0.4572619300000000    0.8190606499999999    0.3754780100000000 O
   0.4572619300000000    0.6809393500000001    0.8754780100000000 O
   0.5427380700000000    0.1809393500000000    0.6245219900000000 O
   0.7112371400000000    0.3846049000000000    0.5617621600000000 O
   0.2887628600000000    0.8846049000000000    0.9382378400000000 O
   0.2887628600000000    0.6153951000000000    0.4382378400000000 O
   0.7112371400000000    0.1153951000000000    0.0617621600000000 O
   0.9943400800000000    0.4257014100000000    0.3864069500000000 O
   0.0056599200000000    0.9257014099999999    0.1135930500000000 O
   0.0056599200000000    0.5742985900000001    0.6135930500000000 O
   0.9943400800000000    0.0742985900000000    0.8864069500000000 O
