Rb2 Na1 Nb6 P3 O24
1.0
   5.2438688400000002   -6.7230731800000001    0.0056550500000000
   5.2438688400000002    6.7230731800000001    0.0056550500000000
  -3.4791682100000001    0.0000000000000000    7.7955158999999998
Rb Na Nb P O
2 1 6 3 24
direct
   0.1023665000000000    0.4041515600000000    0.7828967600000000 Rb
   0.5958484400000000    0.8976335000000000    0.2171032400000000 Rb
   0.0028775800000000    0.9971224200000000    0.0000000000000000 Na
   0.3398920400000000    0.1459353200000000    0.4623861200000000 Nb
   0.6578635000000000    0.5330732600000000    0.8503426300000000 Nb
   0.4669267400000000    0.3421365000000000    0.1496573700000000 Nb
   0.8540646800000000    0.6601079600000000    0.5376138800000000 Nb
   0.1478032300000000    0.4655820500000000    0.3402196100000000 Nb
   0.5344179500000000    0.8521967700000000    0.6597803900000000 Nb
   0.7732718500000000    0.2267281500000000    0.0000000000000000 P
   0.9972973100000000    0.7719434800000000    0.2281819700000000 P
   0.2280565200000000    0.0027026900000000    0.7718180300000000 P
   0.7400308200000000    0.0542841700000000    0.8620517400000000 O
   0.4716429600000000    0.9969953600000000    0.5221990399999999 O
   0.2587544300000000    0.1431819600000000    0.9419486600000000 O
   0.2103882100000000    0.0826220300000000    0.6282538300000000 O
   0.7907012500000000    0.3702975400000000    0.9201868000000000 O
   0.9457158300000000    0.2599691800000000    0.1379482600000000 O
   0.4273528400000000    0.1799919600000000    0.2841399200000000 O
   0.6297024600000000    0.2092987500000000    0.0798132000000000 O
   0.5006792000000000    0.3469854700000000    0.6506415400000000 O
   0.1872798900000000    0.2917234500000000    0.4320342300000000 O
   0.8200080400000000    0.5726471600000000    0.7158600800000000 O
   0.6530145300000000    0.4993208000000000    0.3493584600000000 O
   0.2890192700000000    0.4308818300000000    0.1839336000000000 O
   0.5260466600000000    0.4739533400000000    0.0000000000000000 O
   0.5691181700000000    0.7109807299999999    0.8160664000000000 O
   0.0030046400000000    0.5283570399999999    0.4778009600000000 O
   0.3467437500000000    0.6532562500000000    0.5000000000000000 O
   0.9173779700000000    0.7896117900000000    0.3717461700000000 O
   0.7082765500000000    0.8127201100000000    0.5679657700000000 O
   0.8568180399999999    0.7412455700000000    0.0580513400000000 O
   0.0747747600000000    0.6264822900000000    0.2089348900000000 O
   0.3735177100000000    0.9252252399999999    0.7910651100000000 O
   0.0569827900000000    0.8637380600000000    0.7384684500000001 O
   0.1362619400000000    0.9430172100000001    0.2615315500000000 O
