Rb4 Cd2 P4 Se12
1.0
   6.6166495899999997    0.0000000000000000   -0.0035008800000000
   0.0000000000000000   12.4898107599999992    0.0000000000000000
  -5.5195467899999997    0.0000000000000000    7.6533106100000001
Rb Cd P Se
4 2 4 12
direct
   0.7249523500000000    0.1806411900000000    0.9809673400000000 Rb
   0.2750476500000000    0.6806411900000000    0.5190326600000000 Rb
   0.2750476500000000    0.8193588100000000    0.0190326600000000 Rb
   0.7249523500000000    0.3193588100000000    0.4809673400000000 Rb
   0.0000000000000000    0.0000000000000000    0.5000000000000000 Cd
   0.0000000000000000    0.5000000000000000    0.0000000000000000 Cd
   0.3478980800000000    0.0406924700000000    0.3732702400000000 P
   0.6521019200000000    0.5406924700000000    0.1267297600000000 P
   0.6521019200000000    0.9593075300000000    0.6267297600000000 P
   0.3478980800000000    0.4593075300000000    0.8732702400000000 P
   0.2376877200000000    0.1822994600000000    0.4500590400000000 Se
   0.7623122800000000    0.6822994600000000    0.0499409600000000 Se
   0.7623122800000000    0.8177005400000000    0.5499409600000000 Se
   0.2376877200000000    0.3177005400000000    0.9500590400000000 Se
   0.0385039000000000    0.9257474000000000    0.2336112100000000 Se
   0.9614961000000000    0.4257474000000000    0.2663887900000000 Se
   0.9614961000000000    0.0742526000000000    0.7663887900000000 Se
   0.0385039000000000    0.5742526000000000    0.7336112100000000 Se
   0.5273555400000000    0.4268452400000000    0.7429732800000000 Se
   0.4726444600000000    0.9268452400000000    0.7570267200000000 Se
   0.4726444600000000    0.5731547600000000    0.2570267200000000 Se
   0.5273555400000000    0.0731547600000000    0.2429732800000000 Se
