Na6 P2 O8
1.0
   6.7575988799999998    0.0000000000000000    0.0000000000000000
   0.0000000000000000    5.8353278900000003    0.0000000000000000
   0.0000000000000000    0.0000000000000000    5.4068128099999999
Na P O
6 2 8
direct
   0.2445121700000000    0.8219001800000000    0.5060464200000000 Na
   0.5000000000000000    0.3547781400000000    0.5084863800000000 Na
   0.2554878300000000    0.1780998200000000    0.0060464200000000 Na
   0.7445121700000000    0.1780998200000000    0.0060464200000000 Na
   0.7554878300000000    0.8219001800000000    0.5060464200000000 Na
   0.0000000000000000    0.6452218600000000    0.0084863800000000 Na
   0.5000000000000000    0.6812115200000000    0.9988105900000001 P
   0.0000000000000000    0.3187884800000000    0.4988105900000000 P
   0.0000000000000000    0.5722748800000000    0.5893758700000000 O
   0.5000000000000000    0.6878149300000000    0.7119554400000000 O
   0.8106858500000000    0.1941764000000000    0.5954579400000000 O
   0.1893141500000000    0.1941764000000000    0.5954579400000000 O
   0.5000000000000000    0.4277251200000000    0.0893758700000000 O
   0.3106858500000000    0.8058236000000000    0.0954579400000000 O
   0.6893141500000000    0.8058236000000000    0.0954579400000000 O
   0.0000000000000000    0.3121850700000000    0.2119554400000000 O
