Cs12 Sc4 O12
1.0
   7.9733879900000000    0.0000000000000000    0.0247865700000000
   0.0000000000000000    7.2896912800000004    0.0000000000000000
  -1.2386323200000000    0.0000000000000000   11.6114364299999995
Cs Sc O
12 4 12
direct
   0.6502296300000000    0.8372204100000000    0.5750292500000000 Cs
   0.0515137000000000    0.1229375100000000    0.6551039900000000 Cs
   0.6232320300000000    0.3221242500000000    0.6918335400000000 Cs
   0.3767679700000000    0.8221242500000000    0.8081664600000000 Cs
   0.9484863000000000    0.6229375100000000    0.8448960100000000 Cs
   0.3497703700000000    0.3372204100000000    0.9249707500000000 Cs
   0.6502296300000000    0.6627795900000000    0.0750292500000000 Cs
   0.0515137000000000    0.3770624900000000    0.1551039900000000 Cs
   0.6232320300000000    0.1778757500000000    0.1918335400000000 Cs
   0.3767679700000000    0.6778757500000000    0.3081664600000000 Cs
   0.9484863000000000    0.8770624900000000    0.3448960100000000 Cs
   0.3497703700000000    0.1627795900000000    0.4249707500000000 Cs
   0.1503309900000000    0.5832538800000000    0.5669745899999999 Sc
   0.8496690099999999    0.0832538800000000    0.9330254100000001 Sc
   0.1503309900000000    0.9167461200000000    0.0669745900000000 Sc
   0.8496690099999999    0.4167461200000000    0.4330254100000000 Sc
   0.2397243200000000    0.8304396800000000    0.5443874300000000 O
   0.8982619900000000    0.5562388400000000    0.5836087200000000 O
   0.2851856400000000    0.4518314100000000    0.6898638300000000 O
   0.7148143600000000    0.9518314100000000    0.8101361700000000 O
   0.1017380100000000    0.0562388400000000    0.9163912800000000 O
   0.7602756800000000    0.3304396800000000    0.9556125700000000 O
   0.2397243200000000    0.6695603200000000    0.0443874300000000 O
   0.8982619900000000    0.9437611600000000    0.0836087200000000 O
   0.2851856400000000    0.0481685900000000    0.1898638300000000 O
   0.7148143600000000    0.5481685900000000    0.3101361700000000 O
   0.1017380100000000    0.4437611600000000    0.4163912800000000 O
   0.7602756800000000    0.1695603200000000    0.4556125700000000 O
