Li2 P6 Pb2 O18
1.0
   6.7678529699999999   -0.0030089200000000   -0.0265814700000000
   1.0078480599999999    7.1715219299999999    0.0095918200000000
   1.3238274299999999    0.6525960500000000    7.2938249800000001
Li P Pb O
2 6 2 18
direct
   0.4627621000000000    0.8265671300000000    0.8265435800000001 Li
   0.5372379000000000    0.1734328700000000    0.1734564200000000 Li
   0.4103551900000000    0.3875592300000000    0.7867303900000000 P
   0.8495200300000000    0.2812547200000000    0.7740995500000000 P
   0.2304673300000000    0.1572883500000000    0.5606211100000000 P
   0.5896448100000000    0.6124407700000000    0.2132696100000000 P
   0.7695326700000000    0.8427116500000000    0.4393788900000000 P
   0.1504799700000000    0.7187452800000000    0.2259004500000000 P
   0.9784906000000000    0.7702941700000000    0.8504057100000000 Pb
   0.0215094000000000    0.2297058300000000    0.1495942900000000 Pb
   0.3517856200000000    0.5928771700000000    0.7999954600000000 O
   0.6804927600000000    0.6677280300000000    0.3827401600000000 O
   0.0120447300000000    0.7727865900000001    0.4166944400000000 O
   0.3715938300000000    0.2517611900000000    0.9538599400000000 O
   0.9879552700000001    0.2272134100000000    0.5833055600000000 O
   0.1741426300000000    0.8886558200000000    0.0901134400000000 O
   0.6284061700000000    0.7482388100000000    0.0461400600000000 O
   0.7081684000000000    0.8498188800000001    0.6420658400000000 O
   0.3527976700000000    0.6432416800000000    0.3030335000000000 O
   0.3195072400000000    0.3322719700000000    0.6172598400000000 O
   0.6472023300000000    0.3567583200000000    0.6969665000000000 O
   0.7364322900000000    0.0122754500000000    0.3090773000000000 O
   0.2635677100000000    0.9877245500000000    0.6909227000000000 O
   0.9388855800000000    0.4324636200000000    0.8447566000000000 O
   0.6482143800000000    0.4071228300000000    0.2000045400000000 O
   0.8258573700000000    0.1113441800000000    0.9098865600000000 O
   0.0611144200000000    0.5675363800000000    0.1552434000000000 O
   0.2918316000000000    0.1501811200000000    0.3579341600000000 O
