Sr2 La2 Ga6 O14
1.0
   5.6758000800000001   -5.6759747400000000    0.0000000000000000
   5.6758000800000001    5.6759747400000000    0.0000000000000000
   0.0000000000000000    0.0000000000000000    5.3177279899999998
Sr La Ga O
2 2 6 14
direct
   0.1615593700000000    0.8384406300000000    0.4900931900000000 Sr
   0.8384406300000000    0.1615593700000000    0.4900931900000000 Sr
   0.6631749800000000    0.6631749800000000    0.5085773700000000 La
   0.3368250200000000    0.3368250200000000    0.5085773700000000 La
   0.5000000000000000    0.0000000000000000    0.0007070200000000 Ga
   0.0000000000000000    0.5000000000000000    0.0007070200000000 Ga
   0.3566888100000000    0.6433111900000000    0.0326339600000000 Ga
   0.8555146200000000    0.8555146200000000    0.9661602100000000 Ga
   0.6433111900000000    0.3566888100000000    0.0326339600000000 Ga
   0.1444853800000000    0.1444853800000000    0.9661602100000000 Ga
   0.3692647100000000    0.6307352899999999    0.6931256900000000 O
   0.8512820400000000    0.8512820400000000    0.3048565200000000 O
   0.6307352899999999    0.3692647100000000    0.6931256900000000 O
   0.1487179600000000    0.1487179600000000    0.3048565200000000 O
   0.4181719100000000    0.8347093000000000    0.2054683300000000 O
   0.9071561900000000    0.6592000600000000    0.7922701700000000 O
   0.5818280900000000    0.1652907000000000    0.2054683300000000 O
   0.0928438100000000    0.3407999400000000    0.7922701700000000 O
   0.3407999400000000    0.0928438100000000    0.7922701700000000 O
   0.8347093000000000    0.4181719100000000    0.2054683300000000 O
   0.6592000600000000    0.9071561900000000    0.7922701700000000 O
   0.1652907000000000    0.5818280900000000    0.2054683300000000 O
   0.0000000000000000    0.0000000000000000    0.8150897800000000 O
   0.5000000000000000    0.5000000000000000    0.2016432800000000 O
