Cs4 Zn4 P4 O16
1.0
   9.2246762199999992    0.0000000000000000    0.0000000000000000
   0.0000000000000000    9.2372713599999994    0.0000000000000000
   0.0000000000000000    0.0000000000000000    5.3720834399999999
Cs Zn P O
4 4 4 16
direct
   0.0025767600000000    0.7899137899999999    0.7601001600000000 Cs
   0.4974232400000000    0.2899137900000000    0.2601001600000000 Cs
   0.9974232400000000    0.2100862100000000    0.2601001600000000 Cs
   0.5025767600000000    0.7100862100000001    0.7601001600000000 Cs
   0.3237602700000000    0.9147154700000000    0.2535169200000000 Zn
   0.1762397300000000    0.4147154700000000    0.7535169200000000 Zn
   0.8237602700000000    0.5852845300000000    0.2535169200000000 Zn
   0.6762397300000000    0.0852845300000000    0.7535169200000000 Zn
   0.8067467300000000    0.4145537300000000    0.7523600900000000 P
   0.1932532700000000    0.5854462700000000    0.2523600900000000 P
   0.3067467300000000    0.0854462700000000    0.7523600900000000 P
   0.6932532700000000    0.9145537300000000    0.2523600900000000 P
   0.7586473500000001    0.5399992500000000    0.5780562400000000 O
   0.7413526499999999    0.0399992500000000    0.0780562400000000 O
   0.2371945600000000    0.2270744300000000    0.6574511800000000 O
   0.2586473500000000    0.9600007500000000    0.5780562400000000 O
   0.7517518200000000    0.4481506100000000    0.0196129900000000 O
   0.2628054400000000    0.7270744300000000    0.1574511800000000 O
   0.2482481800000000    0.5518493900000000    0.5196129900000001 O
   0.2517518200000000    0.0518493900000000    0.0196129900000000 O
   0.0275828900000000    0.6019265000000000    0.2508034400000000 O
   0.2413526500000000    0.4600007500000000    0.0780562400000000 O
   0.4724171100000000    0.1019265000000000    0.7508034400000000 O
   0.9724171100000000    0.3980735000000000    0.7508034400000000 O
   0.5275828900000000    0.8980735000000000    0.2508034400000000 O
   0.7628054399999999    0.7729255700000000    0.1574511800000000 O
   0.7371945600000001    0.2729255700000000    0.6574511800000000 O
   0.7482481800000000    0.9481506100000000    0.5196129900000001 O
