La8 Hf4 S20
1.0
  11.3070215699999999    0.0000000000000000    0.0000000000000000
   0.0000000000000000    8.2004579700000004    0.0000000000000000
   0.0000000000000000    0.0000000000000000    7.3185094099999999
La Hf S
8 4 20
direct
   0.8304129500000000    0.9975781000000000    0.9343282800000000 La
   0.3304129500000000    0.5024219000000000    0.5656717200000000 La
   0.1695870500000000    0.4975781000000000    0.0656717200000000 La
   0.6695870500000000    0.0024219000000000    0.4343282800000000 La
   0.1695870500000000    0.0024219000000000    0.0656717200000000 La
   0.6695870500000000    0.4975781000000000    0.4343282800000000 La
   0.8304129500000000    0.5024219000000000    0.9343282800000000 La
   0.3304129500000000    0.9975781000000000    0.5656717200000000 La
   0.9909969199999999    0.7500000000000000    0.4334159900000000 Hf
   0.4909969200000000    0.7500000000000000    0.0665840100000000 Hf
   0.0090030800000000    0.2500000000000000    0.5665840100000000 Hf
   0.5090030800000001    0.2500000000000000    0.9334159900000000 Hf
   0.5701729600000000    0.9640037000000000    0.8175368500000000 S
   0.0701729600000000    0.5359963000000000    0.6824631500000000 S
   0.4298270400000000    0.4640037000000000    0.1824631500000000 S
   0.9298270400000000    0.0359963000000000    0.3175368500000000 S
   0.4298270400000000    0.0359963000000000    0.1824631500000000 S
   0.9298270400000000    0.4640037000000000    0.3175368500000000 S
   0.5701729600000000    0.5359963000000000    0.8175368500000000 S
   0.0701729600000000    0.9640037000000000    0.6824631500000000 S
   0.8029177800000000    0.7500000000000000    0.6357113200000000 S
   0.3029177800000000    0.7500000000000000    0.8642886800000000 S
   0.1970822200000000    0.2500000000000000    0.3642886800000000 S
   0.6970822200000000    0.2500000000000000    0.1357113200000000 S
   0.4951069700000000    0.7500000000000000    0.4403991500000000 S
   0.9951069700000000    0.7500000000000000    0.0596008500000000 S
   0.5048930300000000    0.2500000000000000    0.5596008500000000 S
   0.0048930300000000    0.2500000000000000    0.9403991500000000 S
   0.7109974900000000    0.7500000000000000    0.1560702200000000 S
   0.2109974900000000    0.7500000000000000    0.3439297800000000 S
   0.2890025100000000    0.2500000000000000    0.8439297800000000 S
   0.7890025100000000    0.2500000000000000    0.6560702200000000 S
