Ba6 B2 As2 O6
1.0
   5.5231465799999997    0.0000000000000000    0.0000000000000000
  -2.7615737800000000    4.7831855299999999    0.0000000000000000
   0.0000000000000000    0.0000000000000000   13.7474062400000001
Ba B As O
6 2 2 6
direct
   0.6666670000000000    0.3333330000000000    0.8989118800000000 Ba
   0.0000000000000000    0.0000000000000000    0.7500000000000000 Ba
   0.0000000000000000    0.0000000000000000    0.2500000000000000 Ba
   0.3333330000000000    0.6666670000000000    0.3989118800000000 Ba
   0.3333330000000000    0.6666670000000000    0.1010881200000000 Ba
   0.6666670000000000    0.3333330000000000    0.6010881200000000 Ba
   0.3333330000000000    0.6666670000000000    0.7500000000000000 B
   0.6666670000000000    0.3333330000000000    0.2500000000000000 B
   0.0000000000000000    0.0000000000000000    0.5000000000000000 As
   0.0000000000000000    0.0000000000000000    0.0000000000000000 As
   0.9581783300000000    0.4790896700000000    0.2500000000000000 O
   0.4790896700000000    0.9581783300000000    0.7500000000000000 O
   0.0418216700000000    0.5209103300000000    0.7500000000000000 O
   0.5209103300000000    0.4790896700000000    0.2500000000000000 O
   0.5209103300000000    0.0418216700000000    0.2500000000000000 O
   0.4790896700000000    0.5209103300000000    0.7500000000000000 O
