Cs8 As8 Se16
1.0
   6.9973027999999999    0.0000000000000000    0.0162157600000000
   0.0000000000000000   14.7202819199999997    0.0000000000000000
  -4.4465778100000000    0.0000000000000000   10.2160346700000009
Cs As Se
8 8 16
direct
   0.2169500500000000    0.1031978900000000    0.4319203200000000 Cs
   0.6947314700000000    0.2963153500000000    0.5440732900000000 Cs
   0.6947314700000000    0.2036846500000000    0.0440732900000000 Cs
   0.2169500500000000    0.3968021100000000    0.9319203200000000 Cs
   0.7830499500000000    0.6031978900000000    0.0680796800000000 Cs
   0.7830499500000000    0.8968021100000000    0.5680796800000000 Cs
   0.3052685300000000    0.7963153500000000    0.9559267100000000 Cs
   0.3052685300000000    0.7036846500000000    0.4559267100000000 Cs
   0.5282505500000000    0.5040055200000000    0.3299900000000000 As
   0.9080338300000000    0.9415673400000000    0.1549703000000000 As
   0.4717494500000000    0.4959944800000000    0.6700100000000000 As
   0.0919661700000000    0.0584326600000000    0.8450297000000000 As
   0.4717494500000000    0.0040055200000000    0.1700100000000000 As
   0.5282505500000000    0.9959944800000000    0.8299900000000000 As
   0.9080338300000000    0.5584326600000000    0.6549703000000000 As
   0.0919661700000000    0.4415673400000000    0.3450297000000000 As
   0.3284999400000000    0.9095659400000000    0.6492782700000000 Se
   0.3284999400000000    0.5904340600000000    0.1492782700000000 Se
   0.2736631600000000    0.8954801300000000    0.2476654700000000 Se
   0.8009529900000000    0.8243200400000000    0.2572664600000000 Se
   0.1990470100000000    0.1756799600000000    0.7427335400000000 Se
   0.8009529900000000    0.6756799600000000    0.7572664600000000 Se
   0.6715000600000000    0.4095659400000000    0.8507217300000000 Se
   0.2009074900000000    0.1201844600000000    0.0671052200000000 Se
   0.1990470100000000    0.3243200400000000    0.2427335400000000 Se
   0.2009074900000000    0.3798155400000000    0.5671052200000000 Se
   0.7990925100000000    0.8798155400000000    0.9328947800000000 Se
   0.7990925100000000    0.6201844600000000    0.4328947800000000 Se
   0.7263368400000000    0.1045198700000000    0.7523345299999999 Se
   0.7263368400000000    0.3954801300000000    0.2523345300000000 Se
   0.6715000600000000    0.0904340600000000    0.3507217300000000 Se
   0.2736631600000000    0.6045198700000000    0.7476654700000001 Se
