Rb8 Ge8 S20
1.0
   7.7741590399999998   -7.7571868500000001   -0.0024652500000000
   7.7741590399999998    7.7571868500000001   -0.0024652500000000
  -2.0979170900000002    0.0000000000000000    8.8097851200000008
Rb Ge S
8 8 20
direct
   0.2106422900000000    0.4748540300000000    0.1263842200000000 Rb
   0.5251459700000000    0.7893577100000000    0.3736157800000000 Rb
   0.7893577100000000    0.5251459700000000    0.8736157800000000 Rb
   0.4748540300000000    0.2106422900000000    0.6263842200000000 Rb
   0.9459383600000000    0.7879680900000000    0.3824328100000000 Rb
   0.2120319100000000    0.0540616400000000    0.1175671900000000 Rb
   0.0540616400000000    0.2120319100000000    0.6175671900000000 Rb
   0.7879680900000000    0.9459383600000000    0.8824328100000000 Rb
   0.2675989500000000    0.5287182000000000    0.5999801000000000 Ge
   0.4712818000000000    0.7324010500000000    0.9000199000000000 Ge
   0.7324010500000000    0.4712818000000000    0.4000199000000000 Ge
   0.5287182000000000    0.2675989500000000    0.0999801000000000 Ge
   0.8677973700000000    0.2691280300000000    0.1125076700000000 Ge
   0.7308719700000000    0.1322026300000000    0.3874923300000000 Ge
   0.1322026300000000    0.7308719700000000    0.8874923300000001 Ge
   0.2691280300000000    0.8677973700000000    0.6125076699999999 Ge
   0.1132170400000000    0.5440924000000000    0.7408966500000000 S
   0.4559076000000000    0.8867829600000000    0.7591033500000000 S
   0.8867829600000000    0.4559076000000000    0.2591033500000000 S
   0.5440924000000000    0.1132170400000000    0.2408966500000000 S
   0.7536066700000000    0.3178611800000000    0.5425818700000000 S
   0.6821388200000000    0.2463933300000000    0.9574181300000000 S
   0.2463933300000000    0.6821388200000000    0.4574181300000000 S
   0.3178611800000000    0.7536066700000000    0.0425818700000000 S
   0.2456539900000000    0.3548740900000000    0.4516601600000000 S
   0.6451259100000000    0.7543460100000000    0.0483398400000000 S
   0.7543460100000000    0.6451259100000000    0.5483398400000000 S
   0.3548740900000000    0.2456539900000000    0.9516601600000000 S
   0.9939112500000000    0.7528312900000000    0.0301502700000000 S
   0.2471687100000000    0.0060887500000000    0.4698497300000000 S
   0.0060887500000000    0.2471687100000000    0.9698497300000000 S
   0.7528312900000000    0.9939112500000000    0.5301502700000000 S
   0.1133868500000000    0.8866131500000000    0.7500000000000000 S
   0.8866131500000000    0.1133868500000000    0.2500000000000000 S
   0.4540718600000000    0.5459281400000000    0.7500000000000000 S
   0.5459281400000000    0.4540718600000000    0.2500000000000000 S
