Rb4 Mo2 O8
1.0
   6.3939908699999997   -3.1137557199999999    0.0070471900000000
   6.3939908699999997    3.1137557199999999    0.0070471900000000
  -3.4256221600000001    0.0000000000000000    7.0558798100000004
Rb Mo O
4 2 8
direct
   0.1559951200000000    0.1559951200000000    0.7475460700000000 Rb
   0.8440048800000000    0.8440048800000000    0.2524539300000000 Rb
   0.5134526700000001    0.5134526700000001    0.2384885700000000 Rb
   0.4865473300000000    0.4865473300000000    0.7615114300000000 Rb
   0.8248288200000000    0.8248288200000000    0.7773299400000000 Mo
   0.1751711800000000    0.1751711800000000    0.2226700600000000 Mo
   0.0928931200000000    0.6234875500000000    0.9231431800000000 O
   0.3765124500000000    0.9071068799999999    0.0768568200000000 O
   0.9071068799999999    0.3765124500000000    0.0768568200000000 O
   0.6234875500000000    0.0928931200000000    0.9231431800000000 O
   0.3285126200000000    0.3285126200000000    0.3727207200000000 O
   0.6714873800000000    0.6714873800000000    0.6272792800000000 O
   0.9083274200000000    0.9083274200000000    0.6436925200000000 O
   0.0916725800000000    0.0916725800000000    0.3563074800000000 O
