Li8 Se2 O10
1.0
   4.3644121399999998   -2.8759390300000001   -0.0017158800000000
   4.3644121399999998    2.8759390300000001   -0.0017158800000000
  -1.1068664200000000    0.0000000000000000    7.7622765999999999
Li Se O
8 2 10
direct
   0.9656443400000000    0.6374862400000000    0.3537091800000000 Li
   0.3625137600000000    0.0343556600000000    0.1462908200000000 Li
   0.7771582100000000    0.4328528500000000    0.9434960400000000 Li
   0.5671471500000000    0.2228417900000000    0.5565039600000000 Li
   0.2228417900000000    0.5671471500000000    0.0565039600000000 Li
   0.4328528500000000    0.7771582100000000    0.4434960400000000 Li
   0.0343556600000000    0.3625137600000000    0.6462908200000000 Li
   0.6374862400000000    0.9656443400000000    0.8537091800000000 Li
   0.8281049300000000    0.1718950700000000    0.2500000000000000 Se
   0.1718950700000000    0.8281049300000000    0.7500000000000000 Se
   0.6499370500000000    0.9936213300000000    0.3405193400000000 O
   0.0063786700000000    0.3500629500000000    0.1594806600000000 O
   0.8697174300000000    0.1302825700000000    0.7500000000000000 O
   0.1302825700000000    0.8697174300000000    0.2500000000000000 O
   0.2333065600000000    0.5878040300000000    0.5724511300000000 O
   0.4121959700000000    0.7666934399999999    0.9275488700000000 O
   0.7666934399999999    0.4121959700000000    0.4275488700000000 O
   0.5878040300000000    0.2333065600000000    0.0724511300000000 O
   0.9936213300000000    0.6499370500000000    0.8405193399999999 O
   0.3500629500000000    0.0063786700000000    0.6594806600000001 O
