Sr2 Ca1 W1 O6
1.0
  -2.8652738000000002    2.8652738100000001    4.1648579400000001
   2.8652738000000002   -2.8652738100000001    4.1648579400000001
   2.8652738100000001    2.8652738000000002   -4.1648579400000001
Sr Ca W O
2 1 1 6
direct
   0.2500000000000000    0.7500000000000000    0.5000000000000000 Sr
   0.7500000000000000    0.2500000000000000    0.5000000000000000 Sr
   0.5000000000000000    0.5000000000000000    0.0000000000000000 Ca
   0.0000000000000000    0.0000000000000000    0.0000000000000000 W
   0.8371451300000000    0.7064050600000000    0.5435502000000000 O
   0.1628548700000000    0.2935949400000000    0.4564498000000000 O
   0.7064050600000000    0.1628548700000000    0.8692599300000000 O
   0.2935949400000000    0.8371451300000000    0.1307400700000000 O
   0.2317658500000000    0.2317658500000000    0.0000000000000000 O
   0.7682341499999999    0.7682341499999999    0.0000000000000000 O
