Rb4 Ti4 Nb4 O20
1.0
   6.4900153899999999    0.0000000000000000    0.0000000000000000
   0.0000000000000000    3.8904967899999998    0.0000000000000000
   0.0000000000000000    0.0000000000000000   18.9650881899999995
Rb Ti Nb O
4 4 4 20
direct
   0.2827609900000000    0.2500000000000000    0.6932515299999999 Rb
   0.7827609900000000    0.2500000000000000    0.8067484700000001 Rb
   0.7172390100000000    0.7500000000000000    0.3067484700000000 Rb
   0.2172390100000000    0.7500000000000000    0.1932515300000000 Rb
   0.8251757700000000    0.2500000000000000    0.4689530300000000 Ti
   0.3251757700000000    0.2500000000000000    0.0310469700000000 Ti
   0.1748242300000000    0.7500000000000000    0.5310469700000000 Ti
   0.6748242300000000    0.7500000000000000    0.9689530300000000 Ti
   0.2749627500000000    0.2500000000000000    0.3934450000000000 Nb
   0.7749627500000000    0.2500000000000000    0.1065550000000000 Nb
   0.7250372500000000    0.7500000000000000    0.6065550000000000 Nb
   0.2250372500000000    0.7500000000000000    0.8934450000000000 Nb
   0.7383576300000000    0.2500000000000000    0.5772774100000000 O
   0.2383576300000000    0.2500000000000000    0.9227225900000000 O
   0.2616423700000000    0.7500000000000000    0.4227225900000000 O
   0.7616423700000000    0.7500000000000000    0.0772774100000000 O
   0.3434801000000000    0.2500000000000000    0.3005233100000000 O
   0.8434801000000000    0.2500000000000000    0.1994766900000000 O
   0.6565199000000000    0.7500000000000000    0.6994766900000000 O
   0.1565199000000000    0.7500000000000000    0.8005233100000000 O
   0.9665223600000000    0.2500000000000000    0.3815904900000000 O
   0.4665223600000000    0.2500000000000000    0.1184095100000000 O
   0.0334776400000000    0.7500000000000000    0.6184095100000000 O
   0.5334776400000000    0.7500000000000000    0.8815904900000000 O
   0.5663600000000000    0.2500000000000000    0.4298490100000000 O
   0.0663600000000000    0.2500000000000000    0.0701509900000000 O
   0.4336400000000000    0.7500000000000000    0.5701509900000000 O
   0.9336400000000000    0.7500000000000000    0.9298490100000000 O
   0.1397735400000000    0.2500000000000000    0.5089745700000000 O
   0.6397735400000000    0.2500000000000000    0.9910254300000000 O
   0.8602264600000000    0.7500000000000000    0.4910254300000000 O
   0.3602264600000000    0.7500000000000000    0.0089745700000000 O
