Cs8 In4 S10
1.0
   7.8010739200000003   -0.0274604800000000    0.0448542200000000
   0.9668956000000000    9.6610319899999997   -0.0250286500000000
   3.7315580700000002    2.9443694699999998   10.0646920099999999
Cs In S
8 4 10
direct
   0.5075956200000000    0.7901047500000000    0.9131933500000000 Cs
   0.4924043800000000    0.2098952500000000    0.0868066500000000 Cs
   0.5448651500000000    0.1851066900000000    0.5453621800000000 Cs
   0.4551348500000000    0.8148933100000000    0.4546378200000000 Cs
   0.1128278500000000    0.1827072200000000    0.9044071500000000 Cs
   0.8871721500000000    0.8172927800000001    0.0955928500000000 Cs
   0.7635579000000000    0.4745476100000000    0.6590155700000000 Cs
   0.2364421000000000    0.5254523900000000    0.3409844300000000 Cs
   0.0316109100000000    0.0035648000000000    0.3411382100000000 In
   0.9683890900000000    0.9964352000000000    0.6588617900000000 In
   0.8782936099999999    0.4103707000000000    0.1676494300000000 In
   0.1217063900000000    0.5896293000000000    0.8323505700000000 In
   0.8308273000000000    0.8491529200000000    0.5618169700000000 S
   0.1691727000000000    0.1508470800000000    0.4381830300000000 S
   0.8133115900000000    0.1432365000000000    0.2290914100000000 S
   0.1866884100000000    0.8567635000000000    0.7709085900000000 S
   0.2059030400000000    0.4886663800000000    0.0440232600000000 S
   0.7940969600000000    0.5113336200000000    0.9559767400000000 S
   0.7184709700000000    0.5174095300000000    0.3456380500000000 S
   0.2815290300000000    0.4825904700000000    0.6543619500000000 S
   0.2551932800000000    0.8922045900000000    0.1854515200000000 S
   0.7448067200000000    0.1077954100000000    0.8145484800000000 S
