Li16 Sn4 Se16
1.0
  15.0177112600000005    0.0000000000000000    0.0000000000000000
   0.0000000000000000    8.1604545799999997    0.0000000000000000
   0.0000000000000000    0.0000000000000000    6.5867623000000002
Li Sn Se
16 4 16
direct
   0.5000000000000000    0.5000000000000000    0.0000000000000000 Li
   0.0000000000000000    0.0000000000000000    0.5000000000000000 Li
   0.5000000000000000    0.0000000000000000    0.0000000000000000 Li
   0.0000000000000000    0.5000000000000000    0.5000000000000000 Li
   0.3240606100000000    0.4968535400000000    0.8201637400000000 Li
   0.8240606100000000    0.0031464600000000    0.6798362600000000 Li
   0.6759393900000000    0.9968535400000000    0.1798362600000000 Li
   0.1759393900000000    0.5031464600000000    0.3201637400000000 Li
   0.6759393900000000    0.5031464600000000    0.1798362600000000 Li
   0.1759393900000000    0.9968535400000000    0.3201637400000000 Li
   0.3240606100000000    0.0031464600000000    0.8201637400000000 Li
   0.8240606100000000    0.4968535400000000    0.6798362600000000 Li
   0.4142728500000000    0.7500000000000000    0.3837121400000000 Li
   0.9142728500000000    0.7500000000000000    0.1162878600000000 Li
   0.5857271500000000    0.2500000000000000    0.6162878600000000 Li
   0.0857271500000000    0.2500000000000000    0.8837121400000000 Li
   0.5937816400000000    0.7500000000000000    0.6420888400000000 Sn
   0.0937816400000000    0.7500000000000000    0.8579111600000000 Sn
   0.4062183600000000    0.2500000000000000    0.3579111600000000 Sn
   0.9062183600000000    0.2500000000000000    0.1420888400000000 Sn
   0.4334285900000000    0.7500000000000000    0.7764485400000000 Se
   0.9334285900000000    0.7500000000000000    0.7235514600000000 Se
   0.5665714100000000    0.2500000000000000    0.2235514600000000 Se
   0.0665714100000000    0.2500000000000000    0.2764485400000000 Se
   0.6622234299999999    0.4917017200000000    0.7851710600000000 Se
   0.1622234300000000    0.0082982800000000    0.7148289400000000 Se
   0.3377765700000000    0.9917017200000000    0.2148289400000000 Se
   0.8377765700000001    0.5082982800000000    0.2851710600000000 Se
   0.3377765700000000    0.5082982800000000    0.2148289400000000 Se
   0.8377765700000001    0.9917017200000000    0.2851710600000000 Se
   0.6622234299999999    0.0082982800000000    0.7851710600000000 Se
   0.1622234300000000    0.4917017200000000    0.7148289400000000 Se
   0.5804311800000000    0.7500000000000000    0.2577578400000000 Se
   0.0804311800000000    0.7500000000000000    0.2422421600000000 Se
   0.4195688200000000    0.2500000000000000    0.7422421600000000 Se
   0.9195688200000000    0.2500000000000000    0.7577578400000000 Se
