Li8 Sn4 O12
1.0
   2.6498758100000002   -4.6009157099999998   -0.0031917200000000
   2.6498758100000002    4.6009157099999998   -0.0031917200000000
  -1.7763917199999999    0.0000000000000000    9.8484558100000008
Li Sn O
8 4 12
direct
   0.1856532400000000    0.3421317400000000    0.0007138400000000 Li
   0.6578682600000000    0.8143467599999999    0.4992861600000000 Li
   0.8143467599999999    0.6578682600000000    0.9992861600000000 Li
   0.3421317400000000    0.1856532400000000    0.5007138400000000 Li
   0.5848575000000000    0.4151425000000000    0.2500000000000000 Li
   0.4151425000000000    0.5848575000000000    0.7500000000000000 Li
   0.0000000000000000    0.5000000000000000    0.5000000000000000 Li
   0.5000000000000000    0.0000000000000000    0.0000000000000000 Li
   0.9169491900000000    0.0830508100000000    0.2500000000000000 Sn
   0.0830508100000000    0.9169491900000000    0.7500000000000000 Sn
   0.2495123600000000    0.7504876400000000    0.2500000000000000 Sn
   0.7504876400000000    0.2495123600000000    0.7500000000000000 Sn
   0.0286203400000000    0.1946472400000000    0.6321065100000000 O
   0.8053527600000000    0.9713796600000000    0.8678934900000000 O
   0.9713796600000000    0.8053527600000000    0.3678934900000000 O
   0.1946472400000000    0.0286203400000000    0.1321065100000000 O
   0.8942838000000000    0.3766035600000000    0.1320600300000000 O
   0.6233964400000001    0.1057162000000000    0.3679399700000000 O
   0.1057162000000000    0.6233964400000001    0.8679399700000000 O
   0.3766035600000000    0.8942838000000000    0.6320600300000000 O
   0.2739064800000000    0.4580511500000000    0.3702749600000000 O
   0.5419488500000000    0.7260935200000000    0.1297250400000000 O
   0.7260935200000000    0.5419488500000000    0.6297250400000000 O
   0.4580511500000000    0.2739064800000000    0.8702749600000000 O
