Al2 Tl2 Si6 O16
1.0
   7.2969462099999998   -0.0197084700000000    0.0532306400000000
  -1.8175746300000000    7.5064266200000000   -0.0655627300000000
  -2.1296257500000002   -3.5449815500000001    6.8871290700000003
Al Tl Si O
2 2 6 16
direct
   0.2159557900000000    0.8211512500000000    0.2006723400000000 Al
   0.7840442100000000    0.1788487500000000    0.7993276600000000 Al
   0.1448215600000000    0.2969281100000000    0.2725618200000000 Tl
   0.8551784400000000    0.7030718900000000    0.7274381800000000 Tl
   0.3368023100000000    0.5991744600000000    0.8396387900000000 Si
   0.3497876300000000    0.8292080700000000    0.5967265300000000 Si
   0.6631976900000000    0.4008255400000000    0.1603612100000000 Si
   0.6502123700000000    0.1707919300000000    0.4032734700000000 Si
   0.2335783500000000    0.1945194000000000    0.8254073100000000 Si
   0.7664216500000000    0.8054806000000000    0.1745926900000000 Si
   0.2146244300000000    0.6694984400000000    0.9752514500000000 O
   0.2389588700000000    0.9858170200000000    0.6783884100000001 O
   0.7853755700000000    0.3305015600000000    0.0247485500000000 O
   0.7610411300000000    0.0141829800000000    0.3216115900000000 O
   0.2544048400000000    0.7186287099999999    0.3617303100000000 O
   0.2717847100000000    0.3544101700000000    0.7381756700000000 O
   0.7455951600000000    0.2813712900000000    0.6382696900000000 O
   0.7282152900000000    0.6455898300000000    0.2618243300000000 O
   0.9802851299999999    0.8517073800000000    0.1465215100000000 O
   0.0197148700000000    0.1482926200000000    0.8534784900000000 O
   0.2805948700000000    0.6483852400000000    0.6563292900000000 O
   0.7194051299999999    0.3516147600000000    0.3436707100000000 O
   0.4049327400000000    0.0614342100000000    0.3063474600000000 O
   0.4147532700000000    0.2924475400000000    0.0416397500000000 O
   0.5950672600000000    0.9385657900000000    0.6936525400000000 O
   0.5852467300000000    0.7075524600000000    0.9583602500000000 O
