Na1 La1 Mo2 O8
1.0
  -2.6605799499999998    2.6605798500000000    5.7639446000000003
   2.6605799499999998   -2.6605798500000000    5.7639446000000003
   2.6605798500000000    2.6605799499999998   -5.7639446000000003
Na La Mo O
1 1 2 8
direct
   0.7500000000000000    0.2500000000000000    0.5000000000000000 Na
   0.5000000000000000    0.5000000000000000    0.0000000000000000 La
   0.2500000000000000    0.7500000000000000    0.5000000000000000 Mo
   0.0000000000000000    0.0000000000000000    0.0000000000000000 Mo
   0.1904729400000000    0.5996744600000000    0.1155000300000000 O
   0.4841744200000000    0.0749739000000000    0.8844999700000000 O
   0.7655041400000000    0.6745380399999999    0.6076436900000000 O
   0.0668943500000000    0.1578604500000000    0.3923563100000000 O
   0.4003255400000000    0.5158255800000000    0.5907984800000000 O
   0.9250261000000000    0.8095270600000000    0.4092015200000000 O
   0.3254619600000000    0.9331056500000000    0.0909661000000000 O
   0.8421395500000000    0.2344958600000000    0.9090339000000000 O
