Cs4 Mo6 O20
1.0
   7.2814888599999996   -4.2421038299999996    0.0159408500000000
   7.2814888599999996    4.2421038299999996    0.0159408500000000
  -1.2203578100000001    0.0000000000000000    9.3733226199999997
Cs Mo O
4 6 20
direct
   0.3986106000000000    0.2430379900000000    0.3380404800000000 Cs
   0.7569620100000000    0.6013894000000000    0.1619595200000000 Cs
   0.6013894000000000    0.7569620100000000    0.6619595200000000 Cs
   0.2430379900000000    0.3986106000000000    0.8380404800000000 Cs
   0.2695036300000000    0.7304963700000000    0.2500000000000000 Mo
   0.7304963700000000    0.2695036300000000    0.7500000000000000 Mo
   0.1730761700000000    0.0377119200000000    0.0237313900000000 Mo
   0.9622880800000000    0.8269238300000000    0.4762686100000000 Mo
   0.8269238300000000    0.9622880800000000    0.9762686100000000 Mo
   0.0377119200000000    0.1730761700000000    0.5237313900000000 Mo
   0.4473968200000000    0.6512149200000000    0.3813006900000000 O
   0.3487850800000000    0.5526031800000000    0.1186993100000000 O
   0.5526031800000000    0.3487850800000000    0.6186993100000000 O
   0.6512149200000000    0.4473968200000000    0.8813006900000000 O
   0.3301283200000000    0.9059294300000000    0.1829393900000000 O
   0.0940705700000000    0.6698716800000000    0.3170606100000000 O
   0.6698716800000000    0.0940705700000000    0.8170606100000000 O
   0.9059294300000000    0.3301283200000000    0.6829393900000000 O
   0.0483976600000000    0.9061419900000000    0.0974549700000000 O
   0.0938580100000000    0.9516023400000000    0.4025450300000000 O
   0.9516023400000000    0.0938580100000000    0.9025450300000000 O
   0.9061419900000000    0.0483976600000000    0.5974549700000000 O
   0.3287935000000000    0.9549434700000000    0.8927055200000000 O
   0.0450565300000000    0.6712065000000000    0.6072944800000000 O
   0.6712065000000000    0.0450565300000000    0.1072944800000000 O
   0.9549434700000000    0.3287935000000000    0.3927055200000000 O
   0.1300555500000000    0.2594012200000000    0.0778827000000000 O
   0.7405987800000000    0.8699444500000000    0.4221173000000000 O
   0.8699444500000000    0.7405987800000000    0.9221173000000000 O
   0.2594012200000000    0.1300555500000000    0.5778827000000000 O
