Ca4 Pb2 O8
1.0
   5.8186251999999996    0.0000000000000000    0.0000000000000000
   0.0000000000000000    9.7771587499999999    0.0000000000000000
   0.0000000000000000    0.0000000000000000    3.3737981000000001
Ca Pb O
4 2 8
direct
   0.4278835200000000    0.8180517500000000    0.5000000000000000 Ca
   0.5721164800000000    0.1819482500000000    0.5000000000000000 Ca
   0.9278835200000000    0.6819482500000000    0.5000000000000000 Ca
   0.0721164800000000    0.3180517500000000    0.5000000000000000 Ca
   0.5000000000000000    0.5000000000000000    0.0000000000000000 Pb
   0.0000000000000000    0.0000000000000000    0.0000000000000000 Pb
   0.1419858600000000    0.7964691800000000    0.0000000000000000 O
   0.8580141400000000    0.2035308200000000    0.0000000000000000 O
   0.6419858600000000    0.7035308200000000    0.0000000000000000 O
   0.3580141400000000    0.2964691800000000    0.0000000000000000 O
   0.2577846500000000    0.5474018000000000    0.5000000000000000 O
   0.7422153500000001    0.4525982000000000    0.5000000000000000 O
   0.2422153500000000    0.0474018000000000    0.5000000000000000 O
   0.7577846499999999    0.9525982000000000    0.5000000000000000 O
