Li4 In4 Si2 Se12
1.0
   6.3253502900000003   -3.6778149999999998   -0.0290541800000000
   6.3253502900000003    3.6778149999999998   -0.0290541800000000
  -4.2872557499999999    0.0000000000000000   11.8204583499999991
Li In Si Se
4 4 2 12
direct
   0.0222317800000000    0.4002296800000000    0.1645349300000000 Li
   0.4002296800000000    0.0222317800000000    0.6645349300000000 Li
   0.6007984700000000    0.3943418800000000    0.4966298300000000 Li
   0.3943418800000000    0.6007984700000000    0.9966298300000000 Li
   0.9234447900000000    0.1201490600000000    0.8120903400000000 In
   0.1201490600000000    0.9234447900000000    0.3120903400000000 In
   0.9130522800000000    0.7714075800000000    0.5087199200000000 In
   0.7714075800000000    0.9130522800000000    0.0087199200000000 In
   0.0052110600000000    0.5438243100000000    0.7505096600000000 Si
   0.5438243100000000    0.0052110600000000    0.2505096600000000 Si
   0.7699842600000000    0.2664906200000000    0.9989090400000000 Se
   0.2664906200000000    0.7699842600000000    0.4989090400000000 Se
   0.1317007100000000    0.6565291599999999    0.1192174100000000 Se
   0.6565291599999999    0.1317007100000000    0.6192174100000000 Se
   0.2135972400000000    0.7149173599999999    0.7977178100000000 Se
   0.7149173599999999    0.2135972400000000    0.2977178100000000 Se
   0.6781870700000000    0.7277091800000000    0.7987123900000000 Se
   0.7277091800000000    0.6781870700000000    0.2987123900000000 Se
   0.2095035400000000    0.2576953600000000    0.8398046500000000 Se
   0.2576953600000000    0.2095035400000000    0.3398046500000000 Se
   0.9638705100000000    0.4243641000000000    0.5604550300000000 Se
   0.4243641000000000    0.9638705100000000    0.0604550300000000 Se
