Rb4 Ba4 P4 S16
1.0
  11.6012889200000000    0.0000000000000000    0.0000000000000000
   0.0000000000000000    6.6835169900000002    0.0000000000000000
   0.0000000000000000    0.0000000000000000    9.9379061199999992
Rb Ba P S
4 4 4 16
direct
   0.9043546800000000    0.2500000000000000    0.8422796500000000 Rb
   0.4043546800000000    0.2500000000000000    0.6577203500000000 Rb
   0.0956453200000000    0.7500000000000000    0.1577203500000000 Rb
   0.5956453200000000    0.7500000000000000    0.3422796500000000 Rb
   0.8524455300000000    0.2500000000000000    0.3925832100000000 Ba
   0.3524455300000000    0.2500000000000000    0.1074167900000000 Ba
   0.1475544700000000    0.7500000000000000    0.6074167900000000 Ba
   0.6475544700000000    0.7500000000000000    0.8925832100000000 Ba
   0.6806618500000000    0.2500000000000000    0.1085188200000000 P
   0.1806618500000000    0.2500000000000000    0.3914811800000000 P
   0.3193381500000000    0.7500000000000000    0.8914811800000000 P
   0.8193381500000000    0.7500000000000000    0.6085188200000000 P
   0.7822305100000000    0.4988622800000000    0.1162252800000000 S
   0.2822305100000000    0.0011377200000000    0.3837747200000000 S
   0.2177694900000000    0.9988622800000000    0.8837747200000000 S
   0.7177694900000000    0.5011377200000000    0.6162252800000000 S
   0.2177694900000000    0.5011377200000000    0.8837747200000000 S
   0.7177694900000000    0.9988622800000000    0.6162252800000000 S
   0.7822305100000000    0.0011377200000000    0.1162252800000000 S
   0.2822305100000000    0.4988622800000000    0.3837747200000000 S
   0.5793306100000000    0.2500000000000000    0.2774830800000000 S
   0.0793306100000000    0.2500000000000000    0.2225169200000000 S
   0.4206693900000000    0.7500000000000000    0.7225169200000000 S
   0.9206693900000000    0.7500000000000000    0.7774830800000000 S
   0.5869009500000000    0.2500000000000000    0.9332146400000000 S
   0.0869009500000000    0.2500000000000000    0.5667853600000000 S
   0.4130990500000000    0.7500000000000000    0.0667853600000000 S
   0.9130990500000000    0.7500000000000000    0.4332146400000000 S
