Na12 Au4 O8
1.0
   9.5927242699999997    0.0000000000000000    0.0000000000000000
   0.0000000000000000    9.5927242699999997    0.0000000000000000
   0.0000000000000000    0.0000000000000000    4.5257508299999998
Na Au O
12 4 8
direct
   0.6562456900000000    0.6562456900000000    0.5000000000000000 Na
   0.1506061200000000    0.5139995200000000    0.0000000000000000 Na
   0.9860004800000000    0.6506061200000000    0.5000000000000000 Na
   0.8493938800000000    0.4860004800000000    0.0000000000000000 Na
   0.3493938800000000    0.0139995200000000    0.5000000000000000 Na
   0.6506061200000000    0.9860004800000000    0.5000000000000000 Na
   0.5139995200000000    0.1506061200000000    0.0000000000000000 Na
   0.4860004800000000    0.8493938800000000    0.0000000000000000 Na
   0.8437543100000000    0.1562456900000000    0.0000000000000000 Na
   0.3437543100000000    0.3437543100000000    0.5000000000000000 Na
   0.0139995200000000    0.3493938800000000    0.5000000000000000 Na
   0.1562456900000000    0.8437543100000000    0.0000000000000000 Na
   0.8328887699999999    0.8328887699999999    0.0000000000000000 Au
   0.3328887700000000    0.6671112300000001    0.5000000000000000 Au
   0.6671112300000001    0.3328887700000000    0.5000000000000000 Au
   0.1671112300000000    0.1671112300000000    0.0000000000000000 Au
   0.3100625900000000    0.0166461200000000    0.0000000000000000 O
   0.6899374100000000    0.9833538800000000    0.0000000000000000 O
   0.4833538800000000    0.8100625900000000    0.5000000000000000 O
   0.5166461200000000    0.1899374100000000    0.5000000000000000 O
   0.1899374100000000    0.5166461200000000    0.5000000000000000 O
   0.9833538800000000    0.6899374100000000    0.0000000000000000 O
   0.0166461200000000    0.3100625900000000    0.0000000000000000 O
   0.8100625900000000    0.4833538800000000    0.5000000000000000 O
