Na4 Au4 Se8
1.0
   6.9893539599999999    0.0000000000000000   -0.0267727500000000
   0.0000000000000000    8.3103797099999994    0.0000000000000000
  -1.7848091200000000    0.0000000000000000    6.4355488400000000
Na Au Se
4 4 8
direct
   0.7297163600000000    0.1339222200000000    0.0142890300000000 Na
   0.2702836400000000    0.6339222200000000    0.4857109700000000 Na
   0.2702836400000000    0.8660777800000000    0.9857109700000000 Na
   0.7297163600000000    0.3660777800000000    0.5142890300000000 Na
   0.7818043200000000    0.8690351600000000    0.4907754400000000 Au
   0.2181956800000000    0.3690351600000000    0.0092245600000000 Au
   0.2181956800000000    0.1309648400000000    0.5092245600000000 Au
   0.7818043200000000    0.6309648400000000    0.9907754400000000 Au
   0.0175618700000000    0.5783867499999999    0.7841664000000000 Se
   0.9824381300000000    0.0783867500000000    0.7158336000000000 Se
   0.9824381300000000    0.4216132500000000    0.2158336000000000 Se
   0.0175618700000000    0.9216132500000001    0.2841664000000000 Se
   0.5846159399999999    0.8353024400000000    0.7495606400000000 Se
   0.4153840600000000    0.3353024400000000    0.7504393600000000 Se
   0.4153840600000000    0.1646975600000000    0.2504393600000000 Se
   0.5846159399999999    0.6646975600000000    0.2495606400000000 Se
