Al4 B6 O15
1.0
   5.7364180999999999    3.3119234400000002    2.1678536099999999
  -5.7364186200000002    3.3119225399999999    2.1678536099999999
   0.0000005200000000   -6.6238449900000003    2.1678536099999999
Al B O
4 6 15
direct
   0.8032681400000000    0.2926245600000000    0.0843782300000000 Al
   0.2926245600000000    0.0843782300000000    0.8032681400000000 Al
   0.0843782300000000    0.8032681400000000    0.2926245600000000 Al
   0.0023874600000000    0.0023874600000000    0.0023874600000000 Al
   0.2734318900000000    0.4996188700000000    0.1746262800000000 B
   0.4996188700000000    0.1746262800000000    0.2734318900000000 B
   0.1746262800000000    0.2734318900000000    0.4996188700000000 B
   0.5241930000000000    0.8556745400000000    0.5998669100000000 B
   0.8556745400000000    0.5998669100000000    0.5241930000000000 B
   0.5998669100000000    0.5241930000000000    0.8556745400000000 B
   0.5253031800000000    0.1047163200000000    0.0770928500000000 O
   0.3943267000000000    0.5001742000000000    0.6879622200000000 O
   0.6879622200000000    0.3943267000000000    0.5001742000000000 O
   0.5001742000000000    0.6879622200000000    0.3943267000000000 O
   0.0770928500000000    0.5253031800000000    0.1047163200000000 O
   0.2790185700000000    0.0278908700000000    0.2404705000000000 O
   0.2404705000000000    0.2790185700000000    0.0278908700000000 O
   0.8251464300000000    0.7438980800000000    0.0163705600000000 O
   0.0163705600000000    0.8251464300000000    0.7438980800000000 O
   0.7438980800000000    0.0163705600000000    0.8251464300000000 O
   0.3318269600000000    0.8763192100000000    0.5777134400000000 O
   0.5777134400000000    0.3318269600000000    0.8763192100000000 O
   0.8763192100000000    0.5777134400000000    0.3318269600000000 O
   0.0278908700000000    0.2404705000000000    0.2790185700000000 O
   0.1047163200000000    0.0770928500000000    0.5253031800000000 O
