Li1 Y1 S2
1.0
   1.9326983900000001    1.1158436500000000    6.0691005799999997
  -1.9326983900000001    1.1158436500000000    6.0691005799999997
   0.0000000000000000   -2.2316882900000001    6.0691005799999997
Li Y S
1 1 2
direct
   0.5000000000000000    0.5000000000000000    0.5000000000000000 Li
   0.0000000000000000    0.0000000000000000    0.0000000000000000 Y
   0.7508824100000000    0.7508824100000000    0.7508824100000000 S
   0.2491175900000000    0.2491175900000000    0.2491175900000000 S
