In2 P2 O8
1.0
   2.6718850999999999   -4.0358321699999999    0.0000000000000000
   2.6718850999999999    4.0358321699999999    0.0000000000000000
   0.0000000000000000    0.0000000000000000    6.8504413800000004
In P O
2 2 8
direct
   0.0000000000000000    0.0000000000000000    0.0000000000000000 In
   0.0000000000000000    0.0000000000000000    0.5000000000000000 In
   0.6460272300000000    0.3539727700000000    0.7500000000000000 P
   0.3539727700000000    0.6460272300000000    0.2500000000000000 P
   0.2572402300000000    0.7427597700000000    0.0594570500000000 O
   0.7427597700000000    0.2572402300000000    0.5594570500000000 O
   0.7427597700000000    0.2572402300000000    0.9405429500000000 O
   0.2572402300000000    0.7427597700000000    0.4405429500000000 O
   0.7080881999999999    0.7704190700000000    0.2500000000000000 O
   0.2919118000000000    0.2295809300000000    0.7500000000000000 O
   0.7704190700000000    0.7080881999999999    0.7500000000000000 O
   0.2295809300000000    0.2919118000000000    0.2500000000000000 O
