Ba2 Cd1 Mo1 O6
1.0
   0.0000000000000000    4.1752966000000002    4.1752966000000002
   4.1752966000000002    0.0000000000000000    4.1752966000000002
   4.1752966000000002    4.1752966000000002    0.0000000000000000
Ba Cd Mo O
2 1 1 6
direct
   0.2500000000000000    0.2500000000000000    0.2500000000000000 Ba
   0.7500000000000000    0.7500000000000000    0.7500000000000000 Ba
   0.5000000000000000    0.5000000000000000    0.5000000000000000 Cd
   0.0000000000000000    0.0000000000000000    0.0000000000000000 Mo
   0.7689524700000000    0.2310475300000000    0.2310475300000000 O
   0.2310475300000000    0.7689524700000000    0.7689524700000000 O
   0.2310475300000000    0.7689524700000000    0.2310475300000000 O
   0.7689524700000000    0.2310475300000000    0.7689524700000000 O
   0.2310475300000000    0.2310475300000000    0.7689524700000000 O
   0.7689524700000000    0.7689524700000000    0.2310475300000000 O
