Rb4 Ca4 Si6 O18
1.0
   6.6006558200000001    0.0000000000000000    0.0011110600000000
   0.0000000000000000    7.3888911200000003    0.0000000000000000
  -5.8988299399999997    0.0000000000000000   10.5545926100000003
Rb Ca Si O
4 4 6 18
direct
   0.4404126700000000    0.4097612200000000    0.2268334000000000 Rb
   0.4404126700000000    0.5902387800000000    0.7268334000000000 Rb
   0.8284703700000000    0.6594336700000000    0.1020915800000000 Rb
   0.8284703700000000    0.3405663300000000    0.6020915800000000 Rb
   0.8715159700000000    0.8333447300000000    0.4133796700000000 Ca
   0.8715159700000000    0.1666552700000000    0.9133796700000000 Ca
   0.3396097900000000    0.9332865100000000    0.1443129800000000 Ca
   0.3396097900000000    0.0667134900000000    0.6443129800000000 Ca
   0.1138074500000000    0.5849364300000000    0.9070989600000000 Si
   0.1138074500000000    0.4150635700000000    0.4070989600000000 Si
   0.4288894300000000    0.2562103900000000    0.9512609000000000 Si
   0.4288894300000000    0.7437896100000000    0.4512609000000000 Si
   0.8740520899999999    0.1343542700000000    0.1835502800000000 Si
   0.8740520899999999    0.8656457300000000    0.6835502800000000 Si
   0.4756716300000000    0.8262294900000000    0.3424397700000000 O
   0.4756716300000000    0.1737705100000000    0.8424397700000000 O
   0.3359623200000000    0.4682294700000000    0.9114650100000000 O
   0.3359623200000000    0.5317705300000000    0.4114650100000000 O
   0.8885606500000000    0.4564070800000000    0.8605557300000000 O
   0.8885606500000000    0.5435929200000000    0.3605557300000000 O
   0.9891113100000000    0.0317436400000000    0.1093926600000000 O
   0.9891113100000000    0.9682563600000000    0.6093926600000000 O
   0.2642632500000000    0.8523235900000000    0.4921611300000000 O
   0.2642632500000000    0.1476764100000000    0.9921611299999999 O
   0.2042174200000000    0.6766581400000000    0.0442723900000000 O
   0.2042174200000000    0.3233418600000000    0.5442723900000001 O
   0.7376684600000000    0.0012806700000000    0.2319352400000000 O
   0.7376684600000000    0.9987193300000000    0.7319352400000000 O
   0.6891235800000000    0.2868289400000000    0.0807506800000000 O
   0.6891235800000000    0.7131710600000000    0.5807506800000000 O
   0.0725626000000000    0.7386167600000000    0.7970606200000000 O
   0.0725626000000000    0.2613832400000000    0.2970606200000000 O
