Ba2 Ca2 C4 O12
1.0
   6.5228183299999998    0.0000000000000000   -0.0000164500000000
   0.0000000000000000    5.2363306700000001    0.0000000000000000
  -2.2789234500000002    0.0000000000000000    7.7353379799999997
Ba Ca C O
2 2 4 12
direct
   0.7107875800000000    0.7500000000000000    0.3522486400000000 Ba
   0.2892124200000000    0.2500000000000000    0.6477513600000000 Ba
   0.1964480400000000    0.2500000000000000    0.1229150500000000 Ca
   0.8035519600000000    0.7500000000000000    0.8770849500000000 Ca
   0.2528692600000000    0.7500000000000000    0.8849936200000000 C
   0.7515475600000000    0.2500000000000000    0.6009404900000000 C
   0.7471307400000000    0.2500000000000000    0.1150063800000000 C
   0.2484524400000000    0.7500000000000000    0.3990595100000000 C
   0.4388558200000000    0.7500000000000000    0.8633104500000000 O
   0.3089101900000000    0.5363660800000000    0.3459482900000000 O
   0.6910898100000000    0.0363660800000000    0.6540517100000000 O
   0.6910898100000000    0.4636339200000000    0.6540517100000000 O
   0.3089101900000000    0.9636339200000000    0.3459482900000000 O
   0.8488336800000000    0.0376356000000000    0.1067347400000000 O
   0.5611441800000000    0.2500000000000000    0.1366895500000000 O
   0.8488336800000000    0.4623644000000000    0.1067347400000000 O
   0.8599400500000000    0.2500000000000000    0.4901114600000000 O
   0.1511663200000000    0.5376356000000000    0.8932652599999999 O
   0.1511663200000000    0.9623644000000000    0.8932652599999999 O
   0.1400599500000000    0.7500000000000000    0.5098885399999999 O
