Li8 Mo2 O10
1.0
   5.0579820700000004    0.0120644200000000    0.0033337700000000
  -0.9973409800000000    4.9925677600000000   -0.0102520600000000
  -1.5776867100000000   -2.8142655500000000    6.9919808300000001
Li Mo O
8 2 10
direct
   0.4226837700000000    0.8054142700000000    0.2983456900000000 Li
   0.5773162300000000    0.1945857300000000    0.7016543100000000 Li
   0.0000000000000000    0.0000000000000000    0.5000000000000000 Li
   0.5000000000000000    0.0000000000000000    0.0000000000000000 Li
   0.2171286900000000    0.4033697600000000    0.9034972700000000 Li
   0.7828713100000000    0.5966302400000000    0.0965027300000000 Li
   0.3065715300000000    0.6132082700000000    0.6104322599999999 Li
   0.6934284700000000    0.3867917300000000    0.3895677400000000 Li
   0.8925397100000000    0.7790615300000000    0.7821914100000000 Mo
   0.1074602900000000    0.2209384700000000    0.2178085900000000 Mo
   0.5725046400000000    0.6089377300000000    0.8455840900000000 O
   0.4274953600000000    0.3910622700000000    0.1544159100000000 O
   0.0500831200000000    0.5732790600000000    0.3373388000000000 O
   0.9499168800000000    0.4267209400000000    0.6626612000000000 O
   0.1330565000000000    0.8221292700000000    0.0427335600000000 O
   0.8669435000000000    0.1778707300000000    0.9572664400000001 O
   0.2247504200000000    0.9898304400000000    0.7514162800000000 O
   0.7752495800000000    0.0101695600000000    0.2485837200000000 O
   0.3349026700000000    0.1895067700000000    0.4299382000000000 O
   0.6650973300000000    0.8104932300000000    0.5700618000000000 O
