Rb4 Ge2 S6
1.0
   6.7419988699999998   -3.4263558999999999    0.0364905000000000
   6.7419988699999998    3.4263558999999999    0.0364905000000000
  -5.6315049000000004    0.0000000000000000    7.8344001800000003
Rb Ge S
4 2 6
direct
   0.8115666900000000    0.8115666900000000    0.1864242500000000 Rb
   0.1884333100000000    0.1884333100000000    0.8135757500000000 Rb
   0.5829038100000000    0.5829038100000000    0.3657395400000000 Rb
   0.4170961900000000    0.4170961900000000    0.6342604600000000 Rb
   0.8797822300000000    0.8797822300000000    0.8152210700000000 Ge
   0.1202177700000000    0.1202177700000000    0.1847789300000000 Ge
   0.2966753400000000    0.2966753400000000    0.2247785200000000 S
   0.7033246600000000    0.7033246600000000    0.7752214800000000 S
   0.7527522700000000    0.2472477300000000    0.0000000000000000 S
   0.2472477300000000    0.7527522700000000    0.0000000000000000 S
   0.8848073700000000    0.8848073700000000    0.5940191100000000 S
   0.1151926300000000    0.1151926300000000    0.4059808900000000 S
