Cs4 Na2 V2 O8
1.0
   6.0262341199999998    0.0000000000000000   -0.0024039500000000
   0.0000000000000000    6.1249464600000003    0.0000000000000000
  -0.4542972600000000    0.0000000000000000    8.2260599400000007
Cs Na V O
4 2 2 8
direct
   0.8015479200000000    0.7500000000000000    0.5146864500000000 Cs
   0.1984520800000000    0.2500000000000000    0.4853135500000000 Cs
   0.6493225000000000    0.2500000000000000    0.1808144700000000 Cs
   0.3506775000000000    0.7500000000000000    0.8191855300000001 Cs
   0.1260530300000000    0.2500000000000000    0.9723251800000000 Na
   0.8739469700000000    0.7500000000000000    0.0276748200000000 Na
   0.2967572300000000    0.7500000000000000    0.2424120400000000 V
   0.7032427700000000    0.2500000000000000    0.7575879599999999 V
   0.1557606700000000    0.9780624700000000    0.1659050700000000 O
   0.8442393300000000    0.4780624700000000    0.8340949300000000 O
   0.8442393300000000    0.0219375300000000    0.8340949300000000 O
   0.1557606700000000    0.5219375300000000    0.1659050700000000 O
   0.4327032000000000    0.2500000000000000    0.8200329100000000 O
   0.6985165100000000    0.2500000000000000    0.5479492400000000 O
   0.5672968000000000    0.7500000000000000    0.1799670900000000 O
   0.3014834900000000    0.7500000000000000    0.4520507600000000 O
