Hf6 N4 O6
1.0
   5.2726235199999998   -2.0543430499999999    0.0023326800000000
   5.2726235199999998    2.0543430499999999    0.0023326800000000
  -0.0453140700000000    0.0000000000000000   10.5812126000000006
Hf N O
6 4 6
direct
   0.8553081100000000    0.8553081100000000    0.4354100600000000 Hf
   0.8520961300000000    0.8520961300000000    0.0628875000000000 Hf
   0.8073077200000000    0.8073077200000000    0.7517915500000000 Hf
   0.1921964500000000    0.1921964500000000    0.2445254200000000 Hf
   0.1421497300000000    0.1421497300000000    0.9408098700000000 Hf
   0.1405949200000000    0.1405949200000000    0.5628892300000000 Hf
   0.6994061100000000    0.6994061100000000    0.5730647800000001 N
   0.6942397000000000    0.6942397000000000    0.9185120300000000 N
   0.7611749300000000    0.7611749300000000    0.2558355200000000 N
   0.2999350600000000    0.2999350600000000    0.0732400800000000 N
   0.9532550100000000    0.9532550100000000    0.8834096500000000 O
   0.9561320400000000    0.9561320400000000    0.6174737200000000 O
   0.0483263300000000    0.0483263300000000    0.3871626600000000 O
   0.0438563700000000    0.0438563700000000    0.1158982500000000 O
   0.3079369200000000    0.3079369200000000    0.4299852000000000 O
   0.2460874700000000    0.2460874700000000    0.7471024800000000 O
