Ca2 W2 O8
1.0
  -2.6127915599999998    2.6127914799999998    5.6181071600000001
   2.6127915599999998   -2.6127914799999998    5.6181071600000001
   2.6127914799999998    2.6127915599999998   -5.6181071600000001
Ca W O
2 2 8
direct
   0.2500000000000000    0.7500000000000000    0.5000000000000000 Ca
   0.5000000000000000    0.5000000000000000    0.0000000000000000 Ca
   0.7500000000000000    0.2500000000000000    0.5000000000000000 W
   0.0000000000000000    0.0000000000000000    0.0000000000000000 W
   0.2454633200000000    0.8454557300000000    0.9160269500000000 O
   0.5954557300000000    0.1794287800000000    0.0999924100000000 O
   0.0794363600000000    0.4954633200000000    0.9000075900000000 O
   0.9294287800000000    0.3294363600000000    0.0839730500000000 O
   0.8205712200000000    0.9205636400000000    0.4160269500000000 O
   0.6705636400000000    0.7545366800000000    0.5999924100000000 O
   0.5045366800000000    0.4045442700000000    0.5839730500000000 O
   0.1545442700000000    0.0705712200000000    0.4000075900000000 O
