Sr2 Al1 Sb1 O6
1.0
   0.0000000000000000    3.8874819700000001    3.8874819700000001
   3.8874819700000001    0.0000000000000000    3.8874819700000001
   3.8874819700000001    3.8874819700000001    0.0000000000000000
Sr Al Sb O
2 1 1 6
direct
   0.2500000000000000    0.2500000000000000    0.2500000000000000 Sr
   0.7500000000000000    0.7500000000000000    0.7500000000000000 Sr
   0.0000000000000000    0.0000000000000000    0.0000000000000000 Al
   0.5000000000000000    0.5000000000000000    0.5000000000000000 Sb
   0.7543197500000000    0.2456802500000000    0.2456802500000000 O
   0.2456802500000000    0.7543197500000000    0.7543197500000000 O
   0.2456802500000000    0.7543197500000000    0.2456802500000000 O
   0.7543197500000000    0.2456802500000000    0.7543197500000000 O
   0.2456802500000000    0.2456802500000000    0.7543197500000000 O
   0.7543197500000000    0.7543197500000000    0.2456802500000000 O
