Na12 Sb4 O12
1.0
  -4.6973763799999997    4.6973763799999997    4.6973763799999997
   4.6973763799999997   -4.6973763799999997    4.6973763799999997
   4.6973763799999997    4.6973763799999997   -4.6973763799999997
Na Sb O
12 4 12
direct
   0.2451333500000000    0.7249979900000000    0.7249979900000000 Na
   0.7249979900000000    0.7249979900000000    0.2451333500000000 Na
   0.7249979900000000    0.2451333500000000    0.7249979900000000 Na
   0.0000000000000000    0.5201353500000000    0.2750020100000000 Na
   0.0000000000000000    0.2750020100000000    0.5201353500000000 Na
   0.7548666500000000    0.4798646500000000    0.4798646500000000 Na
   0.4798646500000000    0.4798646500000000    0.7548666500000000 Na
   0.5201353500000000    0.2750020100000000    0.0000000000000000 Na
   0.2750020100000000    0.0000000000000000    0.5201353500000000 Na
   0.5201353500000000    0.0000000000000000    0.2750020100000000 Na
   0.4798646500000000    0.7548666500000000    0.4798646500000000 Na
   0.2750020100000000    0.5201353500000000    0.0000000000000000 Na
   0.0000000000000000    0.7144026800000000    0.0000000000000000 Sb
   0.0000000000000000    0.0000000000000000    0.7144026800000000 Sb
   0.2855973200000000    0.2855973200000000    0.2855973200000000 Sb
   0.7144026800000000    0.0000000000000000    0.0000000000000000 Sb
   0.4803664700000000    0.2571114100000000    0.4803664700000000 O
   0.2571114100000000    0.4803664700000000    0.4803664700000000 O
   0.4803664700000000    0.4803664700000000    0.2571114100000000 O
   0.5196335300000000    0.7767449400000001    0.0000000000000000 O
   0.7767449400000001    0.0000000000000000    0.5196335300000000 O
   0.5196335300000000    0.0000000000000000    0.7767449400000001 O
   0.2232550600000000    0.7428885900000000    0.2232550600000000 O
   0.7767449400000001    0.5196335300000000    0.0000000000000000 O
   0.0000000000000000    0.5196335300000000    0.7767449400000001 O
   0.2232550600000000    0.2232550600000000    0.7428885900000000 O
   0.7428885900000000    0.2232550600000000    0.2232550600000000 O
   0.0000000000000000    0.7767449400000001    0.5196335300000000 O
