Tl2 Ag2 As4 Pb2 S10
1.0
   7.6961430399999999    0.0042238300000000    0.0003225000000000
   3.1297359299999998    7.3145832600000000    0.0049264700000000
   2.4021919500000002    3.1320743300000000    8.1326646100000008
Tl Ag As Pb S
2 2 4 2 10
direct
   0.7007036600000000    0.8530319500000000    0.8700390800000000 Tl
   0.2992963400000000    0.1469680500000000    0.1299609200000000 Tl
   0.8900500900000000    0.2262695100000000    0.9216126200000000 Ag
   0.1099499100000000    0.7737304900000000    0.0783873800000000 Ag
   0.8916074400000000    0.9653019800000000    0.3664088300000000 As
   0.5396015800000000    0.3820659700000000    0.1934655200000000 As
   0.4603984200000000    0.6179340300000000    0.8065344800000001 As
   0.1083925600000000    0.0346980200000000    0.6335911700000000 As
   0.7497610100000000    0.5345288800000000    0.4027422400000000 Pb
   0.2502389900000000    0.4654711200000000    0.5972577600000000 Pb
   0.8231979100000000    0.4326759400000000    0.0898310400000000 S
   0.8652017100000000    0.6976252700000000    0.5882607100000000 S
   0.7753155100000000    0.9305799100000000    0.1788761200000000 S
   0.6231965000000000    0.1808655400000000    0.4573412400000000 S
   0.3751155300000000    0.6597007700000000    0.2464980800000000 S
   0.6248844700000000    0.3402992300000000    0.7535019200000000 S
   0.3768035000000000    0.8191344600000000    0.5426587600000000 S
   0.2246844900000000    0.0694200900000000    0.8211238800000000 S
   0.1347982900000000    0.3023747300000000    0.4117392900000000 S
   0.1768020900000000    0.5673240600000000    0.9101689600000000 S
