Na2 Mg8 As6 O24
1.0
  -3.4161071600000001    3.4161071600000001    9.5929282600000008
   3.4161071600000001   -3.4161071600000001    9.5929282600000008
   3.4161071600000001    3.4161071600000001   -9.5929282600000008
Na Mg As O
2 8 6 24
direct
   0.2500000000000000    0.7500000000000000    0.5000000000000000 Na
   0.5000000000000000    0.5000000000000000    0.0000000000000000 Na
   0.3750000000000000    0.8808970900000000    0.0058970900000000 Mg
   0.1191029100000000    0.1250000000000000    0.4941029100000000 Mg
   0.6308970900000000    0.6250000000000000    0.5058970900000000 Mg
   0.8750000000000000    0.3691029100000000    0.9941029100000000 Mg
   0.7706532000000000    0.7706532000000000    0.0000000000000000 Mg
   0.2293468000000000    0.2293468000000000    0.0000000000000000 Mg
   0.9793468000000000    0.4793468000000000    0.5000000000000000 Mg
   0.5206532000000000    0.0206532000000000    0.5000000000000000 Mg
   0.3750000000000000    0.4684206000000000    0.5934206000000000 As
   0.5315794000000000    0.1250000000000000    0.9065794000000000 As
   0.2184206000000000    0.6250000000000000    0.0934206000000000 As
   0.8750000000000000    0.7815794000000000    0.4065794000000000 As
   0.7500000000000000    0.2500000000000000    0.5000000000000000 As
   0.0000000000000000    0.0000000000000000    0.0000000000000000 As
   0.7367675700000000    0.5034422500000000    0.6513206300000000 O
   0.8521216100000000    0.0854469400000000    0.3486793700000000 O
   0.2534422500000000    0.9867675700000000    0.1513206300000000 O
   0.9145530600000000    0.2632324300000000    0.7666746700000000 O
   0.4965577500000000    0.1478783900000000    0.2333253300000000 O
   0.0132324300000000    0.1645530600000000    0.2666746700000000 O
   0.8978783900000000    0.7465577500000000    0.7333253300000000 O
   0.8354469400000000    0.1021216100000000    0.8486793700000000 O
   0.0712418100000000    0.8050788000000000    0.1788290500000000 O
   0.6262497500000000    0.8924127600000000    0.8211709500000000 O
   0.5550788000000000    0.3212418100000000    0.6788290500000000 O
   0.1075872400000000    0.9287581900000000    0.7338369900000000 O
   0.1949212000000000    0.3737502500000000    0.2661630100000000 O
   0.6787581900000000    0.3575872400000000    0.2338369900000000 O
   0.1237502500000000    0.4449212000000000    0.7661630100000000 O
   0.6424127600000000    0.8762497500000000    0.3211709500000000 O
   0.8543928300000000    0.5501133700000000    0.2868067400000000 O
   0.4498866300000000    0.7366933800000000    0.3042804700000000 O
   0.4324139100000000    0.1456071700000000    0.6957195300000000 O
   0.4866933800000000    0.6998866300000000    0.8042804700000000 O
   0.8956071700000000    0.6824139100000000    0.1957195300000000 O
   0.2633066200000000    0.5675860900000000    0.7131932600000001 O
   0.3001133700000000    0.1043928300000000    0.7868067399999999 O
   0.3175860900000000    0.5133066200000000    0.2131932600000000 O
