Sb8 S12
1.0
  11.2718857099999994    0.0000000000000000    0.0000000000000000
   0.0000000000000000    3.8272028800000002    0.0000000000000000
   0.0000000000000000    0.0000000000000000   10.9037665100000005
Sb S
8 12
direct
   0.0239499500000000    0.2500000000000000    0.8258198400000000 Sb
   0.4760500500000000    0.7500000000000000    0.3258198400000000 Sb
   0.1530489200000000    0.7500000000000000    0.5324228000000000 Sb
   0.3469510800000000    0.2500000000000000    0.0324228000000000 Sb
   0.9760500500000000    0.7500000000000000    0.1741801600000000 Sb
   0.5239499500000000    0.2500000000000000    0.6741801600000000 Sb
   0.8469510800000000    0.2500000000000000    0.4675772000000000 Sb
   0.6530489200000000    0.7500000000000000    0.9675772000000000 Sb
   0.1256403500000000    0.7500000000000000    0.9423484300000000 S
   0.3743596500000000    0.2500000000000000    0.4423484300000000 S
   0.2101321300000000    0.2500000000000000    0.6917874500000000 S
   0.2898678700000000    0.7500000000000000    0.1917874500000000 S
   0.9512496200000000    0.7500000000000000    0.6271044000000000 S
   0.5487503800000000    0.2500000000000000    0.1271044000000000 S
   0.8743596500000000    0.2500000000000000    0.0576515700000000 S
   0.6256403500000000    0.7500000000000000    0.5576515700000000 S
   0.7898678700000000    0.7500000000000000    0.3082125500000000 S
   0.7101321300000000    0.2500000000000000    0.8082125500000000 S
   0.0487503800000000    0.2500000000000000    0.3728956000000000 S
   0.4512496200000000    0.7500000000000000    0.8728956000000000 S
