Sr6 Li2 Sb2 O12
1.0
   4.8746014799999999    2.8143528199999999    3.7325534199999999
  -4.8746014799999999    2.8143528199999999    3.7325534199999999
   0.0000000000000000   -5.6287056299999998    3.7325534199999999
Sr Li Sb O
6 2 2 12
direct
   0.8977997400000000    0.6022002600000000    0.2500000000000000 Sr
   0.2500000000000000    0.8977997400000000    0.6022002600000000 Sr
   0.6022002600000000    0.2500000000000000    0.8977997400000000 Sr
   0.7500000000000000    0.1022002600000000    0.3977997400000000 Sr
   0.3977997400000000    0.7500000000000000    0.1022002600000000 Sr
   0.1022002600000000    0.3977997400000000    0.7500000000000000 Sr
   0.2500000000000000    0.2500000000000000    0.2500000000000000 Li
   0.7500000000000000    0.7500000000000000    0.7500000000000000 Li
   0.5000000000000000    0.5000000000000000    0.5000000000000000 Sb
   0.0000000000000000    0.0000000000000000    0.0000000000000000 Sb
   0.2174709500000000    0.5479462500000000    0.4187278800000000 O
   0.4187278800000000    0.2174709500000000    0.5479462500000000 O
   0.5479462500000000    0.4187278800000000    0.2174709500000000 O
   0.9187278800000001    0.0479462500000000    0.7174709500000001 O
   0.7174709500000001    0.9187278800000001    0.0479462500000000 O
   0.0479462500000000    0.7174709500000001    0.9187278800000001 O
   0.7825290499999999    0.4520537500000000    0.5812721199999999 O
   0.5812721199999999    0.7825290499999999    0.4520537500000000 O
   0.4520537500000000    0.5812721199999999    0.7825290499999999 O
   0.0812721200000000    0.9520537500000000    0.2825290500000000 O
   0.2825290500000000    0.0812721200000000    0.9520537500000000 O
   0.9520537500000000    0.2825290500000000    0.0812721200000000 O
