Sr2 La2 Mg2 Ta2 O12
1.0
   5.6118800300000000    0.0000000000000000   -0.0009517000000000
   0.0000000000000000    5.6706905399999998    0.0000000000000000
  -5.6176328199999999    0.0000000000000000    7.9474656499999998
Sr La Mg Ta O
2 2 2 2 12
direct
   0.2560062600000000    0.2791962400000000    0.2502448000000000 Sr
   0.2560062600000000    0.7208037600000000    0.7502448000000000 Sr
   0.7430425000000001    0.2090618700000000    0.7525019800000000 La
   0.7430425000000001    0.7909381300000000    0.2525019800000000 La
   0.9997360100000000    0.2524663400000000    0.5003889300000000 Mg
   0.9997360100000000    0.7475336600000000    0.0003889300000000 Mg
   0.5001953400000000    0.7466612500000001    0.5004431700000000 Ta
   0.5001953400000000    0.2533387500000000    0.0004431700000000 Ta
   0.1680627200000000    0.7325805100000000    0.2554134000000000 O
   0.1680627200000000    0.2674194900000000    0.7554134000000000 O
   0.8121331600000000    0.7731942600000000    0.7447130100000000 O
   0.8121331600000000    0.2268057400000000    0.2447130100000000 O
   0.2607512400000000    0.9633131900000000    0.5358334300000001 O
   0.2607512400000000    0.0366868100000000    0.0358334300000000 O
   0.7417844400000000    0.5452229400000000    0.4565726100000000 O
   0.7417844400000000    0.4547770600000000    0.9565726100000000 O
   0.3437129100000000    0.4616894500000000    0.5444604900000000 O
   0.3437129100000000    0.5383105500000001    0.0444604900000000 O
   0.6745754100000000    0.0223006300000000    0.4594271800000000 O
   0.6745754100000000    0.9776993700000000    0.9594271800000000 O
