Ba2 S8 O26
1.0
   4.6875643699999996   -5.9704028100000004    0.0002812600000000
   4.6875643699999996    5.9704028100000004    0.0002812600000000
  -1.4418751900000000    0.0000000000000000    9.4885043000000007
Ba S O
2 8 26
direct
   0.1969189900000000    0.8030810100000000    0.7500000000000000 Ba
   0.8030810100000000    0.1969189900000000    0.2500000000000000 Ba
   0.5678462300000000    0.2338365600000000    0.6175997400000000 S
   0.7661634400000000    0.4321537700000000    0.8824002600000000 S
   0.4321537700000000    0.7661634400000000    0.3824002600000000 S
   0.2338365600000000    0.5678462300000000    0.1175997400000000 S
   0.1907821100000000    0.2868584800000000    0.5823886500000000 S
   0.7131415200000000    0.8092178900000000    0.9176113500000000 S
   0.8092178900000000    0.7131415200000000    0.4176113500000000 S
   0.2868584800000000    0.1907821100000000    0.0823886500000000 S
   0.5056001200000000    0.0635665600000000    0.6717919200000000 O
   0.9364334400000000    0.4943998800000000    0.8282080800000000 O
   0.4943998800000000    0.9364334400000000    0.3282080800000000 O
   0.0635665600000000    0.5056001200000000    0.1717919200000000 O
   0.7248111100000000    0.2605996300000000    0.5429091400000000 O
   0.7394003700000000    0.2751888900000000    0.9570908600000000 O
   0.2751888900000000    0.7394003700000000    0.4570908600000000 O
   0.2605996300000000    0.7248111100000000    0.0429091400000000 O
   0.6043359800000000    0.3956640200000000    0.7500000000000000 O
   0.3956640200000000    0.6043359800000000    0.2500000000000000 O
   0.4172327600000000    0.2923382500000000    0.5301798599999999 O
   0.7076617500000000    0.5827672400000000    0.9698201400000001 O
   0.5827672400000000    0.7076617500000000    0.4698201400000000 O
   0.2923382500000000    0.4172327600000000    0.0301798600000000 O
   0.2310684500000000    0.4489159800000000    0.6816814300000000 O
   0.5510840200000000    0.7689315500000000    0.8183185700000000 O
   0.7689315500000000    0.5510840200000000    0.3183185700000000 O
   0.4489159800000000    0.2310684500000000    0.1816814300000000 O
   0.1046112600000000    0.2985495600000000    0.4449108400000000 O
   0.7014504400000000    0.8953887400000000    0.0550891600000000 O
   0.8953887400000000    0.7014504400000000    0.5550891600000000 O
   0.2985495600000000    0.1046112600000000    0.9449108400000000 O
   0.1411980200000000    0.1144251000000000    0.6375777000000000 O
   0.8855749000000001    0.8588019800000000    0.8624223000000000 O
   0.8588019800000000    0.8855749000000001    0.3624223000000000 O
   0.1144251000000000    0.1411980200000000    0.1375777000000000 O
