La6 Si2 Ag2 Se14
1.0
  10.7073449499999995   -0.0000018500000000    0.0000000000000000
  -5.3536708700000002    9.2728337900000000    0.0000000000000000
   0.0000000000000000    0.0000000000000000    6.0144797099999998
La Si Ag Se
6 2 2 14
direct
   0.3576732600000000    0.2315357100000000    0.2429851800000000 La
   0.1261365500000000    0.3576732600000000    0.7429851800000000 La
   0.2315357100000000    0.8738634500000000    0.7429851800000000 La
   0.7684642900000000    0.1261365500000000    0.2429851800000000 La
   0.8738634500000000    0.6423267400000000    0.2429851800000000 La
   0.6423267400000000    0.7684642900000000    0.7429851800000000 La
   0.6666670000000000    0.3333330000000000    0.8298308100000000 Si
   0.3333330000000000    0.6666670000000000    0.3298308100000000 Si
   0.0000000000000000    0.0000000000000000    0.6796868900000000 Ag
   0.0000000000000000    0.0000000000000000    0.1796868900000000 Ag
   0.1076488600000000    0.5856473200000000    0.4773512700000000 Se
   0.8923511400000000    0.4143526800000000    0.9773512700000000 Se
   0.5856473200000000    0.4779984600000000    0.9773512700000000 Se
   0.4779984600000000    0.8923511400000000    0.4773512700000000 Se
   0.2680191600000000    0.1740717300000000    0.7296260900000000 Se
   0.0939474400000000    0.2680191600000000    0.2296260900000000 Se
   0.5220015400000000    0.1076488600000000    0.9773512700000000 Se
   0.4143526800000000    0.5220015400000000    0.4773512700000000 Se
   0.6666670000000000    0.3333330000000000    0.4544437000000000 Se
   0.3333330000000000    0.6666670000000000    0.9544437000000000 Se
   0.7319808400000000    0.8259282700000000    0.2296260900000000 Se
   0.9060525600000000    0.7319808400000000    0.7296260900000000 Se
   0.8259282700000000    0.0939474400000000    0.7296260900000000 Se
   0.1740717300000000    0.9060525600000000    0.2296260900000000 Se
