Li16 Se2 N4
1.0
  -3.5103720900000002    3.5103720900000002    4.9563038600000002
   3.5103720900000002   -3.5103720900000002    4.9563038600000002
   3.5103720900000002    3.5103720900000002   -4.9563038600000002
Li Se N
16 2 4
direct
   0.1149079600000000    0.6149079600000000    0.5000000000000000 Li
   0.1582013400000000    0.7355779300000000    0.0454073800000000 Li
   0.1582013400000000    0.1127939600000000    0.4226234100000000 Li
   0.3085844300000000    0.6541334100000000    0.3455489800000000 Li
   0.3085844300000000    0.9630354500000000    0.6544510200000000 Li
   0.3649079600000000    0.3649079600000000    0.0000000000000000 Li
   0.4041334100000000    0.5585844300000000    0.8455489800000000 Li
   0.4855779300000000    0.9401705400000000    0.0773765900000000 Li
   0.4855779300000000    0.4082013400000000    0.5454073800000000 Li
   0.5364438600000000    0.0364438600000000    0.5000000000000000 Li
   0.6901705400000000    0.7355779300000000    0.5773765900000000 Li
   0.6901705400000000    0.1127939600000000    0.9545926200000000 Li
   0.7130354500000000    0.5585844300000000    0.1544510200000000 Li
   0.7864438600000000    0.7864438600000000    0.0000000000000000 Li
   0.8627939600000000    0.9401705400000000    0.4545926200000000 Li
   0.8627939600000000    0.4082013400000000    0.9226234100000000 Li
   0.1005573400000000    0.1005573400000000    0.0000000000000000 Se
   0.8505573400000001    0.3505573400000000    0.5000000000000000 Se
   0.0187383500000000    0.7496751000000000    0.2690632500000000 N
   0.4806118600000000    0.7496751000000000    0.7309367500000000 N
   0.4996751000000000    0.7306118600000000    0.2309367500000000 N
   0.4996751000000000    0.2687383500000000    0.7690632500000000 N
