Na4 Al2 P2 C2 O14
1.0
   5.1244166699999996    0.0000000000000000   -0.0364187900000000
   0.0000000000000000    6.3227954700000000    0.0000000000000000
  -0.3377647500000000    0.0000000000000000    8.8034447799999995
Na Al P C O
4 2 2 2 14
direct
   0.2332940700000000    0.5038946500000000    0.7762296600000000 Na
   0.2332940700000000    0.9961053500000000    0.7762296600000000 Na
   0.7667059300000000    0.4961053500000000    0.2237703400000000 Na
   0.7667059300000000    0.0038946500000000    0.2237703400000000 Na
   0.7862730700000000    0.2500000000000000    0.6476130300000000 Al
   0.2137269300000000    0.7500000000000000    0.3523869700000000 Al
   0.7247760800000000    0.7500000000000000    0.5690848400000000 P
   0.2752239200000000    0.2500000000000000    0.4309151600000000 P
   0.7229477000000000    0.2500000000000000    0.9133974300000000 C
   0.2770523000000000    0.7500000000000000    0.0866025700000000 C
   0.3203137700000000    0.7500000000000000    0.9480172000000000 O
   0.9537821200000000    0.2500000000000000    0.8561927400000000 O
   0.5357772200000001    0.2500000000000000    0.8045980800000000 O
   0.7984531700000000    0.9477075400000000    0.6629563400000000 O
   0.7984531700000000    0.5522924600000000    0.6629563400000000 O
   0.1262367800000000    0.2500000000000000    0.5800452100000000 O
   0.4245552900000000    0.7500000000000000    0.5294179800000000 O
   0.5754447100000000    0.2500000000000000    0.4705820200000000 O
   0.8737632200000000    0.7500000000000000    0.4199547900000000 O
   0.2015468300000000    0.4477075400000000    0.3370436600000000 O
   0.2015468300000000    0.0522924600000000    0.3370436600000000 O
   0.4642227800000000    0.7500000000000000    0.1954019200000000 O
   0.0462178800000000    0.7500000000000000    0.1438072600000000 O
   0.6796862299999999    0.2500000000000000    0.0519828000000000 O
