La1 Cu1 O2
1.0
   1.9055878399999999    1.1001913999999999    5.6010708899999999
  -1.9055878399999999    1.1001913999999999    5.6010708899999999
   0.0000000000000000   -2.2003838000000000    5.6010708899999999
La Cu O
1 1 2
direct
   0.5000000000000000    0.5000000000000000    0.5000000000000000 La
   0.0000000000000000    0.0000000000000000    0.0000000000000000 Cu
   0.1062075900000000    0.1062075900000000    0.1062075900000000 O
   0.8937924100000000    0.8937924100000000    0.8937924100000000 O
