Cs4 Li4 Si2 O8
1.0
   5.5452971199999999    0.0005564400000000    0.0087155700000000
   0.2805232800000000    5.7234756899999999   -0.0183162300000000
   2.1517125799999999    0.8629699900000000    8.9064671299999993
Cs Li Si O
4 4 2 8
direct
   0.5162435300000000    0.1506568000000000    0.2842081400000000 Cs
   0.4837564700000000    0.8493432000000000    0.7157918599999999 Cs
   0.7897762100000000    0.7326257600000000    0.0160815500000000 Cs
   0.2102237900000000    0.2673742400000000    0.9839184500000000 Cs
   0.3025781300000000    0.4098340000000000    0.5806394100000000 Li
   0.6974218700000000    0.5901660000000000    0.4193605900000000 Li
   0.0657089400000000    0.8129975699999999    0.5611914300000000 Li
   0.9342910600000000    0.1870024300000000    0.4388085700000000 Li
   0.1423321900000000    0.6845903500000000    0.2940376000000000 Si
   0.8576678100000000    0.3154096500000000    0.7059624000000000 Si
   0.3519275700000000    0.6416706300000000    0.3996998700000000 O
   0.6480724300000000    0.3583293700000000    0.6003001300000000 O
   0.9959280900000000    0.4411765500000000    0.2896158800000000 O
   0.0040719100000000    0.5588234500000000    0.7103841200000000 O
   0.9220371700000000    0.8615491500000000    0.3879266700000000 O
   0.0779628300000000    0.1384508500000000    0.6120733300000000 O
   0.2670334700000000    0.7963977900000000    0.1242237800000000 O
   0.7329665300000000    0.2036022100000000    0.8757762200000000 O
