Rb1 Na1 Cd3 O4
1.0
   6.4848037800000000   -1.8324574499999999    0.0132252100000000
   6.4848037800000000    1.8324574499999999    0.0132252100000000
  -6.4298691699999999    0.0000000000000000    6.3927517299999996
Rb Na Cd O
1 1 3 4
direct
   0.0049774700000000    0.0049774700000000    0.0023367500000000 Rb
   0.8198666600000000    0.8198666600000000    0.4518134400000000 Na
   0.1912073300000000    0.1912073300000000    0.5534263699999999 Cd
   0.6207939000000000    0.6207939000000000    0.8031905499999999 Cd
   0.3703626800000000    0.3703626800000000    0.1923260800000000 Cd
   0.7618552700000000    0.7618552700000000    0.1545302200000000 O
   0.2320991700000000    0.2320991700000000    0.8315973000000000 O
   0.4019390700000000    0.4019390700000000    0.6515989000000000 O
   0.5968994500000000    0.5968994500000000    0.3591804000000000 O
