Ga2 Ag2 Se4
1.0
  -2.9670260700000002    2.9670260700000002    5.4959888299999999
   2.9670260700000002   -2.9670260700000002    5.4959888299999999
   2.9670260700000002    2.9670260700000002   -5.4959888299999999
Ga Ag Se
2 2 4
direct
   0.5000000000000000    0.5000000000000000    0.0000000000000000 Ga
   0.2500000000000000    0.7500000000000000    0.5000000000000000 Ga
   0.7500000000000000    0.2500000000000000    0.5000000000000000 Ag
   0.0000000000000000    0.0000000000000000    0.0000000000000000 Ag
   0.8750000000000000    0.8482656400000000    0.4732656400000000 Se
   0.1517343600000000    0.6250000000000000    0.0267343600000000 Se
   0.3750000000000000    0.4017343600000000    0.5267343600000000 Se
   0.5982656400000000    0.1250000000000000    0.9732656400000000 Se
