Sr6 Li2 Nb2 O12
1.0
   4.8999533299999998    2.8289897100000001    3.7327157700000000
  -4.8999533299999998    2.8289897100000001    3.7327157700000000
   0.0000000000000000   -5.6579794100000003    3.7327157700000000
Sr Li Nb O
6 2 2 12
direct
   0.3971877900000000    0.7500000000000000    0.1028122100000000 Sr
   0.1028122100000000    0.3971877900000000    0.7500000000000000 Sr
   0.7500000000000000    0.1028122100000000    0.3971877900000000 Sr
   0.8971877900000000    0.6028122100000000    0.2500000000000000 Sr
   0.2500000000000000    0.8971877900000000    0.6028122100000000 Sr
   0.6028122100000000    0.2500000000000000    0.8971877900000000 Sr
   0.2500000000000000    0.2500000000000000    0.2500000000000000 Li
   0.7500000000000000    0.7500000000000000    0.7500000000000000 Li
   0.5000000000000000    0.5000000000000000    0.5000000000000000 Nb
   0.0000000000000000    0.0000000000000000    0.0000000000000000 Nb
   0.5797696700000000    0.7843404300000000    0.4519641200000000 O
   0.4519641200000000    0.5797696700000000    0.7843404300000000 O
   0.7843404300000000    0.4519641200000000    0.5797696700000000 O
   0.0797696700000000    0.9519641200000000    0.2843404300000000 O
   0.2843404300000000    0.0797696700000000    0.9519641200000000 O
   0.9519641200000000    0.2843404300000000    0.0797696700000000 O
   0.4202303300000000    0.2156595700000000    0.5480358800000000 O
   0.5480358800000000    0.4202303300000000    0.2156595700000000 O
   0.2156595700000000    0.5480358800000000    0.4202303300000000 O
   0.9202303300000000    0.0480358800000000    0.7156595700000000 O
   0.7156595700000000    0.9202303300000000    0.0480358800000000 O
   0.0480358800000000    0.7156595700000000    0.9202303300000000 O
