Na1 Sr2 Re1 O6
1.0
   0.0000000000000000    4.0314570900000000    4.0314570900000000
   4.0314570900000000    0.0000000000000000    4.0314570900000000
   4.0314570900000000    4.0314570900000000    0.0000000000000000
Na Sr Re O
1 2 1 6
direct
   0.5000000000000000    0.5000000000000000    0.5000000000000000 Na
   0.2500000000000000    0.2500000000000000    0.2500000000000000 Sr
   0.7500000000000000    0.7500000000000000    0.7500000000000000 Sr
   0.0000000000000000    0.0000000000000000    0.0000000000000000 Re
   0.7668141700000000    0.2331858300000000    0.2331858300000000 O
   0.2331858300000000    0.7668141700000000    0.7668141700000000 O
   0.2331858300000000    0.7668141700000000    0.2331858300000000 O
   0.7668141700000000    0.2331858300000000    0.7668141700000000 O
   0.2331858300000000    0.2331858300000000    0.7668141700000000 O
   0.7668141700000000    0.7668141700000000    0.2331858300000000 O
