Na2 Bi2 O6
1.0
   2.8033358000000002    1.6185071799999999    5.2773729899999999
  -2.8033358200000000    1.6185071400000000    5.2773729899999999
   0.0000000200000000   -3.2370133600000002    5.2773729999999999
Na Bi O
2 2 6
direct
   0.8619312800000000    0.8619312800000000    0.8619312800000000 Na
   0.1380687200000000    0.1380687200000000    0.1380687200000000 Na
   0.6563575200000000    0.6563575200000000    0.6563575200000000 Bi
   0.3436424800000000    0.3436424800000000    0.3436424800000000 Bi
   0.9426358100000000    0.2914848600000000    0.5375524600000000 O
   0.2914848600000000    0.5375524600000000    0.9426358100000000 O
   0.5375524600000000    0.9426358100000000    0.2914848600000000 O
   0.0573641900000000    0.7085151400000000    0.4624475400000000 O
   0.4624475400000000    0.0573641900000000    0.7085151400000000 O
   0.7085151400000000    0.4624475400000000    0.0573641900000000 O
