Rb4 As4 O8
1.0
   7.3837061200000003    0.0000000000000000    0.0000000000000000
   0.0000000000000000    7.7460582699999998    0.0000000000000000
   0.0000000000000000    0.0000000000000000    5.5094506599999997
Rb As O
4 4 8
direct
   0.3614487300000000    0.4020173500000000    0.2500000000000000 Rb
   0.6385512700000000    0.5979826499999999    0.7500000000000000 Rb
   0.3614487300000000    0.0979826500000000    0.7500000000000000 Rb
   0.6385512700000000    0.9020173500000001    0.2500000000000000 Rb
   0.8540171800000000    0.3668986000000000    0.2500000000000000 As
   0.8540171800000000    0.1331014000000000    0.7500000000000000 As
   0.1459828200000000    0.6331014000000000    0.7500000000000000 As
   0.1459828200000000    0.8668986000000000    0.2500000000000000 As
   0.2664063300000000    0.7500000000000000    0.5000000000000000 O
   0.7335936700000000    0.2500000000000000    0.0000000000000000 O
   0.7335936700000000    0.2500000000000000    0.5000000000000000 O
   0.2664063300000000    0.7500000000000000    0.0000000000000000 O
   0.7236438600000000    0.5493884100000000    0.2500000000000000 O
   0.2763561400000000    0.0493884100000000    0.2500000000000000 O
   0.7236438600000000    0.9506115900000000    0.7500000000000000 O
   0.2763561400000000    0.4506115900000000    0.7500000000000000 O
