Ba6 Mg2 Sb4 O18
1.0
   5.8497144099999998    0.0000000000000000    0.0000000000000000
  -2.9248577000000000    5.0660019700000003    0.0000000000000000
   0.0000000000000000    0.0000000000000000   14.4725245099999995
Ba Mg Sb O
6 2 4 18
direct
   0.6666670000000000    0.3333330000000000    0.0880148200000000 Ba
   0.3333330000000000    0.6666670000000000    0.5880148200000000 Ba
   0.3333330000000000    0.6666670000000000    0.9119851800000000 Ba
   0.6666670000000000    0.3333330000000000    0.4119851800000000 Ba
   0.0000000000000000    0.0000000000000000    0.2500000000000000 Ba
   0.0000000000000000    0.0000000000000000    0.7500000000000000 Ba
   0.0000000000000000    0.0000000000000000    0.5000000000000000 Mg
   0.0000000000000000    0.0000000000000000    0.0000000000000000 Mg
   0.3333330000000000    0.6666670000000000    0.1513328500000000 Sb
   0.6666670000000000    0.3333330000000000    0.6513328500000000 Sb
   0.3333330000000000    0.6666670000000000    0.3486671500000000 Sb
   0.6666670000000000    0.3333330000000000    0.8486671500000000 Sb
   0.8318806500000000    0.6637613000000000    0.5833185200000000 O
   0.3362387000000000    0.1681193500000000    0.5833185200000000 O
   0.8318806500000000    0.1681193500000000    0.5833185200000000 O
   0.1681193500000000    0.8318806500000000    0.0833185200000000 O
   0.6637613000000000    0.8318806500000000    0.4166814800000000 O
   0.1681193500000000    0.3362387000000000    0.0833185200000000 O
   0.6637613000000000    0.8318806500000000    0.0833185200000000 O
   0.8318806500000000    0.6637613000000000    0.9166814800000000 O
   0.8318806500000000    0.1681193500000000    0.9166814800000000 O
   0.1681193500000000    0.8318806500000000    0.4166814800000000 O
   0.1681193500000000    0.3362387000000000    0.4166814800000000 O
   0.3362387000000000    0.1681193500000000    0.9166814800000000 O
   0.9658720700000000    0.4829355400000000    0.7500000000000000 O
   0.4829355400000000    0.9658720700000000    0.2500000000000000 O
   0.4829355400000000    0.5170644599999999    0.2500000000000000 O
   0.5170644599999999    0.4829355400000000    0.7500000000000000 O
   0.5170644599999999    0.0341279300000000    0.7500000000000000 O
   0.0341279300000000    0.5170644599999999    0.2500000000000000 O
