Ba8 Sb4 O18
1.0
   6.0073851200000004    0.0000000000000000    0.0000000000000000
  -3.0036925600000002    5.2025481999999998    0.0000000000000000
   0.0000000000000000    0.0000000000000000   16.9388171199999995
Ba Sb O
8 4 18
direct
   0.3333330000000000    0.6666670000000000    0.3696782200000000 Ba
   0.6666670000000000    0.3333330000000000    0.6303217800000001 Ba
   0.6666670000000000    0.3333330000000000    0.8696782199999999 Ba
   0.3333330000000000    0.6666670000000000    0.1303217800000000 Ba
   0.0000000000000000    0.0000000000000000    0.0000000000000000 Ba
   0.0000000000000000    0.0000000000000000    0.5000000000000000 Ba
   0.0000000000000000    0.0000000000000000    0.2500000000000000 Ba
   0.0000000000000000    0.0000000000000000    0.7500000000000000 Ba
   0.6666670000000000    0.3333330000000000    0.1634812200000000 Sb
   0.3333330000000000    0.6666670000000000    0.8365187800000000 Sb
   0.3333330000000000    0.6666670000000000    0.6634812200000000 Sb
   0.6666670000000000    0.3333330000000000    0.3365187800000000 Sb
   0.3387651600000000    0.1693825800000000    0.3891974100000000 O
   0.6612348400000000    0.8306174200000001    0.6108025900000000 O
   0.8306174200000001    0.1693825800000000    0.3891974100000000 O
   0.1693825800000000    0.8306174200000001    0.6108025900000000 O
   0.8306174200000001    0.6612348400000000    0.3891974100000000 O
   0.1693825800000000    0.3387651600000000    0.6108025900000000 O
   0.6612348400000000    0.8306174200000001    0.8891974100000000 O
   0.3387651600000000    0.1693825800000000    0.1108025900000000 O
   0.1693825800000000    0.8306174200000001    0.8891974100000000 O
   0.8306174200000001    0.1693825800000000    0.1108025900000000 O
   0.1693825800000000    0.3387651600000000    0.8891974100000000 O
   0.8306174200000001    0.6612348400000000    0.1108025900000000 O
   0.0375001700000000    0.5187500900000001    0.7500000000000000 O
   0.9624998299999999    0.4812499100000000    0.2500000000000000 O
   0.4812499100000000    0.5187500900000001    0.7500000000000000 O
   0.5187500900000001    0.4812499100000000    0.2500000000000000 O
   0.4812499100000000    0.9624998299999999    0.7500000000000000 O
   0.5187500900000001    0.0375001700000000    0.2500000000000000 O
