Rb4 Zn6 O8
1.0
   7.5155215200000001   -3.1987867699999999    0.0604896300000000
   7.5155215200000001    3.1987867699999999    0.0604896300000000
  -1.1286357499999999    0.0000000000000000    5.5225811399999998
Rb Zn O
4 6 8
direct
   0.7488388700000000    0.0208195700000000    0.9977325300000000 Rb
   0.9791804300000000    0.2511611300000000    0.5022674700000000 Rb
   0.2511611300000000    0.9791804300000000    0.0022674700000000 Rb
   0.0208195700000000    0.7488388700000000    0.4977325300000000 Rb
   0.1885975400000000    0.4198828500000000    0.9104151400000000 Zn
   0.5801171500000000    0.8114024600000000    0.5895848600000000 Zn
   0.5142375700000000    0.4857624300000000    0.7500000000000000 Zn
   0.4857624300000000    0.5142375700000000    0.2500000000000000 Zn
   0.8114024600000000    0.5801171500000000    0.0895848600000000 Zn
   0.4198828500000000    0.1885975400000000    0.4104151400000000 Zn
   0.8602635800000000    0.6225921100000000    0.7898452800000000 O
   0.3774078900000000    0.1397364200000000    0.7101547200000000 O
   0.1397364200000000    0.3774078900000000    0.2101547200000000 O
   0.6225921100000000    0.8602635800000000    0.2898452800000000 O
   0.4123043200000000    0.7191653700000000    0.5402281300000000 O
   0.2808346300000000    0.5876956800000001    0.9597718700000000 O
   0.7191653700000000    0.4123043200000000    0.0402281300000000 O
   0.5876956800000001    0.2808346300000000    0.4597718700000000 O
