Ti2 O4
1.0
   4.6392460000000000    0.0000000000000000    0.0000000000000000
   0.0000000000000000    4.6392460000000000    0.0000000000000000
   0.0000000000000000    0.0000000000000000    3.0009209999999999
Ti O
2 4
direct
   0.5000000000000000    0.5000000000000000    0.0000000000000000 Ti
   0.0000000000000000    0.0000000000000000    0.5000000000000000 Ti
   0.6954020000000000    0.6954020000000000    0.5000000000000000 O
   0.8045980000000000    0.1954020000000000    0.0000000000000000 O
   0.1954020000000000    0.8045980000000000    0.0000000000000000 O
   0.3045980000000000    0.3045980000000000    0.5000000000000000 O
