Ca4 Hf4 O12
1.0
   5.7549046600000002    0.0000000000000000    0.0000000000000000
   0.0000000000000000    7.9896377400000000    0.0000000000000000
   0.0000000000000000    0.0000000000000000    5.5624925799999998
Ca Hf O
4 4 12
direct
   0.5510225600000001    0.2500000000000000    0.4862768800000000 Ca
   0.0510225600000000    0.2500000000000000    0.0137231200000000 Ca
   0.4489774400000000    0.7500000000000000    0.5137231200000000 Ca
   0.9489774399999999    0.7500000000000000    0.9862768800000000 Ca
   0.5000000000000000    0.0000000000000000    0.0000000000000000 Hf
   0.0000000000000000    0.5000000000000000    0.5000000000000000 Hf
   0.5000000000000000    0.5000000000000000    0.0000000000000000 Hf
   0.0000000000000000    0.0000000000000000    0.5000000000000000 Hf
   0.4571271300000000    0.2500000000000000    0.8902831500000000 O
   0.9571271300000000    0.2500000000000000    0.6097168500000000 O
   0.5428728700000000    0.7500000000000000    0.1097168500000000 O
   0.0428728700000000    0.7500000000000000    0.3902831500000000 O
   0.6995573800000000    0.9416940900000000    0.6965618400000000 O
   0.1995573800000000    0.5583059100000000    0.8034381600000000 O
   0.3004426200000000    0.4416940900000000    0.3034381600000000 O
   0.8004426200000000    0.0583059100000000    0.1965618400000000 O
   0.3004426200000000    0.0583059100000000    0.3034381600000000 O
   0.8004426200000000    0.4416940900000000    0.1965618400000000 O
   0.6995573800000000    0.5583059100000000    0.6965618400000000 O
   0.1995573800000000    0.9416940900000000    0.8034381600000000 O
