Rb4 Ta2 Cu2 Se8
1.0
   0.0000000000000000    6.9017495999999996   12.1901696600000005
   2.8834746299999998    0.0000000000000000   12.1901696600000005
   2.8834746299999998    6.9017495999999996    0.0000000000000000
Rb Ta Cu Se
4 2 2 8
direct
   0.3206391000000000    0.3206391000000000    0.6793609000000000 Rb
   0.6793609000000000    0.6793609000000000    0.3206391000000000 Rb
   0.9293609000000000    0.9293609000000000    0.5706391000000000 Rb
   0.5706391000000000    0.5706391000000000    0.9293609000000000 Rb
   0.5000000000000000    0.5000000000000000    0.5000000000000000 Ta
   0.7500000000000000    0.7500000000000000    0.7500000000000000 Ta
   0.0000000000000000    0.0000000000000000    0.0000000000000000 Cu
   0.2500000000000000    0.2500000000000000    0.2500000000000000 Cu
   0.2972136800000000    0.5896037500000000    0.9042063400000000 Se
   0.2089762300000000    0.9042063400000000    0.5896037500000000 Se
   0.9042063400000000    0.2089762300000000    0.2972136800000000 Se
   0.5896037500000000    0.2972136800000000    0.2089762300000000 Se
   0.6603962500000000    0.9527863200000000    0.0410237700000000 Se
   0.3457936600000000    0.0410237700000000    0.9527863200000000 Se
   0.0410237700000000    0.3457936600000000    0.6603962500000000 Se
   0.9527863200000000    0.6603962500000000    0.3457936600000000 Se
