Li12 S2 N8
1.0
   6.2545079699999997    0.0000000000000000    0.0000000000000000
   0.0000000000000000    6.2545079699999997    0.0000000000000000
   0.0000000000000000    0.0000000000000000    4.8318386499999999
Li S N
12 2 8
direct
   0.0000000000000000    0.5000000000000000    0.6513516400000000 Li
   0.5000000000000000    0.0000000000000000    0.8486483600000000 Li
   0.5000000000000000    0.0000000000000000    0.3486483600000000 Li
   0.0000000000000000    0.5000000000000000    0.1513516400000000 Li
   0.2119019100000000    0.2119019100000000    0.5000000000000000 Li
   0.7880980900000000    0.7880980900000000    0.5000000000000000 Li
   0.7119019100000000    0.7119019100000000    0.0000000000000000 Li
   0.2880980900000000    0.2880980900000000    0.0000000000000000 Li
   0.7880980900000000    0.2119019100000000    0.5000000000000000 Li
   0.2119019100000000    0.7880980900000000    0.5000000000000000 Li
   0.2880980900000000    0.7119019100000000    0.0000000000000000 Li
   0.7119019100000000    0.2880980900000000    0.0000000000000000 Li
   0.5000000000000000    0.5000000000000000    0.5000000000000000 S
   0.0000000000000000    0.0000000000000000    0.0000000000000000 S
   0.2824841100000000    0.5000000000000000    0.3215025100000000 N
   0.7175158900000000    0.5000000000000000    0.3215025100000000 N
   0.7824841100000000    0.0000000000000000    0.1784974900000000 N
   0.2175158900000000    0.0000000000000000    0.1784974900000000 N
   0.5000000000000000    0.2824841100000000    0.6784974900000000 N
   0.5000000000000000    0.7175158900000000    0.6784974900000000 N
   0.0000000000000000    0.7824841100000000    0.8215025100000000 N
   0.0000000000000000    0.2175158900000000    0.8215025100000000 N
