Rb12 As4 Se16
1.0
   9.5267189699999992    0.0000000000000000    0.0000000000000000
   0.0000000000000000   11.2287727999999998    0.0000000000000000
   0.0000000000000000    0.0000000000000000   10.1299117899999995
Rb As Se
12 4 16
direct
   0.6547915800000000    0.7500000000000000    0.9168025500000000 Rb
   0.1547915800000000    0.7500000000000000    0.5831974500000000 Rb
   0.8452084200000000    0.2500000000000000    0.4168025500000000 Rb
   0.3452084200000000    0.2500000000000000    0.0831974500000000 Rb
   0.0605709500000000    0.0433988700000000    0.8090548700000000 Rb
   0.5605709500000000    0.4566011300000000    0.6909451300000000 Rb
   0.4394290500000000    0.9566011300000000    0.3090548700000000 Rb
   0.9394290500000000    0.5433988700000000    0.1909451300000000 Rb
   0.9394290500000000    0.9566011300000000    0.1909451300000000 Rb
   0.4394290500000000    0.5433988700000000    0.3090548700000000 Rb
   0.5605709500000000    0.0433988700000000    0.6909451300000000 Rb
   0.0605709500000000    0.4566011300000000    0.8090548700000000 Rb
   0.7626411400000001    0.2500000000000000    0.9737873600000000 As
   0.2373588600000000    0.7500000000000000    0.0262126400000000 As
   0.7373588599999999    0.7500000000000000    0.4737873600000000 As
   0.2626411400000000    0.2500000000000000    0.5262126400000000 As
   0.3639930100000000    0.9246850900000000    0.9749947600000000 Se
   0.8639930100000000    0.5753149100000000    0.5250052400000000 Se
   0.1360069900000000    0.0753149100000000    0.4749947600000000 Se
   0.6360069900000000    0.4246850900000000    0.0250052400000000 Se
   0.0224458000000000    0.7500000000000000    0.9106908900000000 Se
   0.5224458000000000    0.7500000000000000    0.5893091100000000 Se
   0.4775542000000000    0.2500000000000000    0.4106908900000000 Se
   0.9775542000000000    0.2500000000000000    0.0893091100000000 Se
   0.6360069900000000    0.0753149100000000    0.0250052400000000 Se
   0.3639930100000000    0.5753149100000000    0.9749947600000000 Se
   0.8639930100000000    0.9246850900000000    0.5250052400000000 Se
   0.1360069900000000    0.4246850900000000    0.4749947600000000 Se
   0.8132569900000000    0.2500000000000000    0.7484836000000000 Se
   0.3132569900000000    0.2500000000000000    0.7515164000000000 Se
   0.6867430100000000    0.7500000000000000    0.2484836000000000 Se
   0.1867430100000000    0.7500000000000000    0.2515164000000000 Se
