Na2 Sb10 O16
1.0
   7.0691198799999997   -0.0729578200000000    0.0716131800000000
   0.8408968200000000    7.2446330500000000   -0.0315151400000000
   2.7405565099999998    2.5543606200000002    8.9474786099999992
Na Sb O
2 10 16
direct
   0.7536287400000000    0.4270941300000000    0.9619910800000000 Na
   0.2463712600000000    0.5729058700000000    0.0380089200000000 Na
   0.7508611800000000    0.9325089200000000    0.9705801700000000 Sb
   0.5449115500000000    0.8235810200000000    0.7251552300000000 Sb
   0.5325186600000000    0.3924611200000000    0.6746933300000000 Sb
   0.1138257700000000    0.7562854900000000    0.6604616400000000 Sb
   0.0419085700000000    0.2984582500000000    0.6493011000000000 Sb
   0.9580914300000000    0.7015417500000000    0.3506989000000000 Sb
   0.8861742300000000    0.2437145100000000    0.3395383600000000 Sb
   0.4674813400000000    0.6075388800000000    0.3253066700000000 Sb
   0.4550884500000000    0.1764189800000000    0.2748447700000000 Sb
   0.2491388200000000    0.0674910800000000    0.0294198300000000 Sb
   0.4976716400000000    0.8914304800000000    0.9238854900000000 O
   0.8437084200000000    0.7864081500000000    0.8064805700000000 O
   0.8108695100000000    0.1882691900000000    0.8264053000000000 O
   0.5337956200000000    0.5447000700000000    0.8235060800000000 O
   0.2386948800000000    0.8227579699999999    0.7970604400000000 O
   0.0808854300000000    0.4732019000000000    0.7629987100000000 O
   0.8235089200000000    0.4618190900000000    0.5718830100000000 O
   0.4407002400000000    0.6462253400000000    0.5605217800000000 O
   0.5592997600000000    0.3537746600000000    0.4394782200000000 O
   0.1764910800000000    0.5381809100000000    0.4281169900000000 O
   0.9191145700000000    0.5267981000000000    0.2370012900000000 O
   0.7613051199999999    0.1772420300000000    0.2029395600000000 O
   0.4662043800000000    0.4552999300000000    0.1764939200000000 O
   0.1891304900000000    0.8117308100000000    0.1735947000000000 O
   0.1562915800000000    0.2135918500000000    0.1935194300000000 O
   0.5023283600000000    0.1085695200000000    0.0761145100000000 O
