Na6 B6 O12
1.0
   5.9073918000000001    3.4106346300000001    2.1022002500000001
  -5.9073918000000001    3.4106346300000001    2.1022002500000001
   0.0000000000000000   -6.8212692600000002    2.1022002500000001
Na B O
6 6 12
direct
   0.2500000000000000    0.6869333800000000    0.8130666200000000 Na
   0.8130666200000000    0.2500000000000000    0.6869333800000000 Na
   0.3130666200000000    0.1869333800000000    0.7500000000000000 Na
   0.7500000000000000    0.3130666200000000    0.1869333800000000 Na
   0.6869333800000000    0.8130666200000000    0.2500000000000000 Na
   0.1869333800000000    0.7500000000000000    0.3130666200000000 Na
   0.3721501600000000    0.1278498400000000    0.2500000000000000 B
   0.7500000000000000    0.6278498400000000    0.8721501600000000 B
   0.6278498400000000    0.8721501600000000    0.7500000000000000 B
   0.1278498400000000    0.2500000000000000    0.3721501600000000 B
   0.2500000000000000    0.3721501600000000    0.1278498400000000 B
   0.8721501600000000    0.7500000000000000    0.6278498400000000 B
   0.1323192800000000    0.3676807200000000    0.2500000000000000 O
   0.7500000000000000    0.5165916500000000    0.9834083500000000 O
   0.5165916500000000    0.9834083500000000    0.7500000000000000 O
   0.0165916500000000    0.2500000000000000    0.4834083500000000 O
   0.2500000000000000    0.4834083500000000    0.0165916500000000 O
   0.4834083500000000    0.0165916500000000    0.2500000000000000 O
   0.2500000000000000    0.1323192800000000    0.3676807200000000 O
   0.3676807200000000    0.2500000000000000    0.1323192800000000 O
   0.8676807200000000    0.6323192800000000    0.7500000000000000 O
   0.7500000000000000    0.8676807200000000    0.6323192800000000 O
   0.6323192800000000    0.7500000000000000    0.8676807200000000 O
   0.9834083500000000    0.7500000000000000    0.5165916500000000 O
