Ca2 Cd2 P4 O14
1.0
   6.6365710000000000    0.0000000000000000    0.0000000000000000
   0.7045790000000000    6.6269299999999998    0.0000000000000000
   0.3119830000000000    2.7301639999999998    6.0972119999999999
Ca Cd P O
2 2 4 14
direct
   0.1252190000000000    0.7387140000000000    0.3153770000000000 Ca
   0.8747810000000000    0.2612860000000000    0.6846230000000000 Ca
   0.6487020000000000    0.1117800000000000    0.2586870000000000 Cd
   0.3512980000000000    0.8882200000000000    0.7413130000000000 Cd
   0.1479990000000000    0.2400150000000000    0.2328210000000000 P
   0.8520010000000000    0.7599850000000000    0.7671790000000001 P
   0.6347390000000001    0.6338450000000000    0.1906050000000000 P
   0.3652610000000000    0.3661550000000000    0.8093950000000000 P
   0.9868110000000000    0.1256740000000000    0.1718160000000000 O
   0.0131890000000000    0.8743260000000000    0.8281840000000000 O
   0.2517200000000000    0.4051320000000000    0.0145270000000000 O
   0.7482799999999999    0.5948680000000000    0.9854730000000000 O
   0.4206090000000000    0.7398070000000000    0.1090500000000000 O
   0.5793910000000000    0.2601930000000000    0.8909500000000000 O
   0.0680210000000000    0.3843480000000000    0.3497260000000000 O
   0.9319790000000000    0.6156520000000000    0.6502740000000000 O
   0.3149850000000000    0.0546560000000000    0.3587280000000000 O
   0.6850150000000000    0.9453440000000000    0.6412720000000000 O
   0.2400540000000000    0.2141830000000000    0.7590789999999999 O
   0.7599460000000000    0.7858170000000000    0.2409210000000000 O
   0.6384890000000000    0.3987710000000000    0.3688040000000000 O
   0.3615110000000000    0.6012290000000000    0.6311960000000000 O
