Na4 Zn2 Ge4 S12
1.0
   3.6180229900000000   -6.1472266600000003   -0.0002908800000000
   3.6180229900000000    6.1472266600000003   -0.0002908800000000
  -2.1232191000000000    0.0000000000000000   11.2266438199999996
Na Zn Ge S
4 2 4 12
direct
   0.1510755300000000    0.7498128600000000    0.0224572600000000 Na
   0.7498128600000000    0.1510755300000000    0.5224572600000000 Na
   0.3480989800000000    0.3324545800000000    0.8871831200000000 Na
   0.3324545800000000    0.3480989800000000    0.3871831200000000 Na
   0.7504998000000001    0.2628070800000000    0.1838092400000000 Zn
   0.2628070800000000    0.7504998000000001    0.6838092400000000 Zn
   0.6916901000000000    0.7353743600000000    0.1557375100000000 Ge
   0.7353743600000000    0.6916901000000000    0.6557375100000000 Ge
   0.7410120200000000    0.0288919700000000    0.9066987000000000 Ge
   0.0288919700000000    0.7410120200000000    0.4066987000000000 Ge
   0.9718013400000000    0.3085782200000000    0.0409058500000000 S
   0.3085782200000000    0.9718013400000000    0.5409058500000000 S
   0.5060322500000000    0.3849834800000000    0.1638548200000000 S
   0.3849834800000000    0.5060322500000000    0.6638548200000000 S
   0.5194203100000000    0.9060771900000000    0.2052454000000000 S
   0.9060771900000000    0.5194203100000000    0.7052454000000000 S
   0.9035947500000000    0.0483230700000000    0.7434735200000000 S
   0.0483230700000000    0.9035947500000000    0.2434735200000000 S
   0.4117169800000000    0.9801198600000000    0.8644973400000000 S
   0.9801198600000000    0.4117169800000000    0.3644973400000000 S
   0.7376267600000000    0.7281245000000000    0.9613652400000000 S
   0.7281245000000000    0.7376267600000000    0.4613652400000000 S
