Sr3 Ti2 O7
1.0
  -1.9646734900000000    1.9646734900000000   10.1646898300000004
   1.9646734900000000   -1.9646734900000000   10.1646898300000004
   1.9646734900000000    1.9646734900000000  -10.1646898300000004
Sr Ti O
3 2 7
direct
   0.3155587800000000    0.3155587800000000    0.0000000000000000 Sr
   0.5000000000000000    0.5000000000000000    0.0000000000000000 Sr
   0.6844412200000000    0.6844412200000000    0.0000000000000000 Sr
   0.0981304200000000    0.0981304200000000    0.0000000000000000 Ti
   0.9018695799999999    0.9018695799999999    0.0000000000000000 Ti
   0.4033775100000000    0.9033775100000000    0.5000000000000000 O
   0.8048289100000000    0.8048289100000000    0.0000000000000000 O
   0.0000000000000000    0.0000000000000000    0.0000000000000000 O
   0.0966224900000000    0.5966224900000000    0.5000000000000000 O
   0.5966224900000000    0.0966224900000000    0.5000000000000000 O
   0.9033775100000000    0.4033775100000000    0.5000000000000000 O
   0.1951710900000000    0.1951710900000000    0.0000000000000000 O
