Tl4 Au8 S6
1.0
   7.4415698199999998    0.0000000000000000    0.0000000000000000
   0.0000000000000000   11.7632695799999993    0.0000000000000000
   0.0000000000000000    0.0000000000000000    4.6645908800000004
Tl Au S
4 8 6
direct
   0.7795385800000000    0.5000000000000000    0.7285375900000000 Tl
   0.2204614200000000    0.5000000000000000    0.7285375900000000 Tl
   0.7204614200000000    0.0000000000000000    0.2714624100000000 Tl
   0.2795385800000000    0.0000000000000000    0.2714624100000000 Tl
   0.2500000000000000    0.7500000000000000    0.0000000000000000 Au
   0.7500000000000000    0.7500000000000000    0.0000000000000000 Au
   0.7500000000000000    0.2500000000000000    0.0000000000000000 Au
   0.0000000000000000    0.1641994400000000    0.5557031800000000 Au
   0.5000000000000000    0.3358005600000000    0.4442968200000000 Au
   0.0000000000000000    0.8358005600000000    0.5557031800000000 Au
   0.2500000000000000    0.2500000000000000    0.0000000000000000 Au
   0.5000000000000000    0.6641994400000000    0.4442968200000000 Au
   0.5000000000000000    0.5000000000000000    0.1736350700000000 S
   0.5000000000000000    0.1820208800000000    0.7543319500000000 S
   0.5000000000000000    0.8179791199999999    0.7543319500000000 S
   0.0000000000000000    0.6820208800000001    0.2456680500000000 S
   0.0000000000000000    0.0000000000000000    0.8263649300000000 S
   0.0000000000000000    0.3179791200000000    0.2456680500000000 S
