Li12 Ga4 Ge4 O20
1.0
   5.4754735099999996    0.0000000000000000    0.0000000000000000
   0.0000000000000000   15.8871070599999999    0.0000000000000000
   0.0000000000000000    0.0000000000000000    4.9520025399999996
Li Ga Ge O
12 4 4 20
direct
   0.3237712500000000    0.4028552800000000    0.4933836600000000 Li
   0.6762287500000000    0.5971447200000000    0.9933836600000000 Li
   0.1762287500000000    0.9028552800000000    0.9933836600000000 Li
   0.8237712500000000    0.0971447200000000    0.4933836600000000 Li
   0.8387474900000000    0.5042208500000001    0.4963117100000000 Li
   0.1612525100000000    0.4957791500000000    0.9963117100000000 Li
   0.6612525100000000    0.0042208500000000    0.9963117100000000 Li
   0.3387474900000000    0.9957791499999999    0.4963117100000000 Li
   0.8299834000000000    0.6972707600000000    0.4928028400000000 Li
   0.1700166000000000    0.3027292400000000    0.9928028400000000 Li
   0.6700166000000000    0.1972707600000000    0.9928028400000000 Li
   0.3299834000000000    0.8027292400000000    0.4928028400000000 Li
   0.3296935600000000    0.2011326400000000    0.4923515700000000 Ga
   0.6703064399999999    0.7988673600000000    0.9923515700000000 Ga
   0.1703064400000000    0.7011326400000000    0.9923515700000000 Ga
   0.8296935600000001    0.2988673600000000    0.4923515700000000 Ga
   0.1606233300000000    0.0964763800000000    0.9986407400000000 Ge
   0.8393766700000000    0.9035236200000000    0.4986407400000000 Ge
   0.3393766700000000    0.5964763800000000    0.4986407400000000 Ge
   0.6606233300000000    0.4035236200000000    0.9986407400000000 Ge
   0.1522095900000000    0.2946623000000000    0.5957091200000000 O
   0.8209449700000000    0.8945512300000000    0.1306156800000000 O
   0.3209449700000000    0.6054487700000000    0.1306156800000000 O
   0.1790550300000000    0.1054487700000000    0.6306156800000000 O
   0.3218757500000000    0.0069967300000000    0.1036508400000000 O
   0.6781242500000000    0.9930032700000000    0.6036508400000000 O
   0.1781242500000000    0.5069967300000000    0.6036508400000000 O
   0.8218757500000000    0.4930032700000000    0.1036508400000000 O
   0.8541600900000000    0.1023064300000000    0.1018530900000000 O
   0.1458399100000000    0.8976935700000001    0.6018530900000000 O
   0.6458399100000000    0.6023064299999999    0.6018530900000000 O
   0.3541600900000000    0.3976935700000000    0.1018530900000000 O
   0.3185932800000000    0.1922424200000000    0.1146797500000000 O
   0.6814067200000000    0.8077575800000000    0.6146797500000000 O
   0.1814067200000000    0.6922424200000000    0.6146797500000000 O
   0.8185932800000000    0.3077575800000000    0.1146797500000000 O
   0.3477904100000000    0.7946623000000000    0.0957091200000000 O
   0.6522095900000000    0.2053377000000000    0.5957091200000000 O
   0.6790550300000000    0.3945512300000000    0.6306156800000000 O
   0.8477904100000000    0.7053377000000000    0.0957091200000000 O
