Ag4 Hg8 P4 O16
1.0
   8.6565979800000008    0.0000000000000000    0.0000000000000000
   0.0000000000000000    9.2377709100000001    0.0000000000000000
   0.0000000000000000    0.0000000000000000    6.1917831699999999
Ag Hg P O
4 8 4 16
direct
   0.5270605200000000    0.1478117400000000    0.0000000000000000 Ag
   0.0270605200000000    0.3521882600000000    0.0000000000000000 Ag
   0.9729394800000000    0.6478117400000000    0.0000000000000000 Ag
   0.4729394800000000    0.8521882600000000    0.0000000000000000 Ag
   0.7538087700000000    0.4684049600000000    0.2120161900000000 Hg
   0.7461912300000000    0.9684049600000000    0.7879838100000000 Hg
   0.2538087700000000    0.0315950400000000    0.7879838100000000 Hg
   0.2461912300000000    0.5315950400000000    0.7879838100000000 Hg
   0.2461912300000000    0.5315950400000000    0.2120161900000000 Hg
   0.2538087700000000    0.0315950400000000    0.2120161900000000 Hg
   0.7461912300000000    0.9684049600000000    0.2120161900000000 Hg
   0.7538087700000000    0.4684049600000000    0.7879838100000000 Hg
   0.4602234400000000    0.2836343800000000    0.5000000000000000 P
   0.5397765600000000    0.7163656200000000    0.5000000000000000 P
   0.0397765600000000    0.7836343800000000    0.5000000000000000 P
   0.9602234400000000    0.2163656200000000    0.5000000000000000 P
   0.0544104400000000    0.2024247700000000    0.2886583400000000 O
   0.1176132900000000    0.6314187600000000    0.5000000000000000 O
   0.8342630300000000    0.0941278800000000    0.5000000000000000 O
   0.1657369700000000    0.9058721199999999    0.5000000000000000 O
   0.4455895600000000    0.7024247700000000    0.7113416600000000 O
   0.3342630300000000    0.4058721200000000    0.5000000000000000 O
   0.9455895600000001    0.7975752300000000    0.2886583400000000 O
   0.8823867100000000    0.3685812400000000    0.5000000000000000 O
   0.9455895600000001    0.7975752300000000    0.7113416600000000 O
   0.6176132900000000    0.8685812400000000    0.5000000000000000 O
   0.5544104399999999    0.2975752300000000    0.2886583400000000 O
   0.0544104400000000    0.2024247700000000    0.7113416600000000 O
   0.3823867100000000    0.1314187600000000    0.5000000000000000 O
   0.6657369700000000    0.5941278800000001    0.5000000000000000 O
   0.5544104399999999    0.2975752300000000    0.7113416600000000 O
   0.4455895600000000    0.7024247700000000    0.2886583400000000 O
