Cd2 Hg4 Se2 O12
1.0
   6.9322157600000001   -0.0193573500000000   -0.0024836900000000
   3.1284755000000000    6.4584618499999999   -0.0517115600000000
   2.7710291400000000    0.8620319200000000    6.9266780700000004
Cd Hg Se O
2 4 2 12
direct
   0.3339950400000000    0.1365432000000000    0.2127396800000000 Cd
   0.6660049600000000    0.8634568000000000    0.7872603200000000 Cd
   0.8453964100000000    0.6431400100000000    0.2054989200000000 Hg
   0.1546035900000000    0.3568599900000000    0.7945010800000000 Hg
   0.6569256900000000    0.3583952200000000    0.7961667300000000 Hg
   0.3430743100000000    0.6416047800000000    0.2038332700000000 Hg
   0.7983211800000000    0.1339571300000000    0.3144538500000000 Se
   0.2016788200000000    0.8660428700000000    0.6855461500000000 Se
   0.6322100800000000    0.2155305100000000    0.1719826800000000 O
   0.4480097100000000    0.1966234700000000    0.8650209200000000 O
   0.9380825500000000    0.9278801100000000    0.8325767500000000 O
   0.7729998300000001    0.9184537500000000    0.4554294400000000 O
   0.2692533900000000    0.6742095000000000    0.5630261400000000 O
   0.1503681500000000    0.4769436400000000    0.2450205100000000 O
   0.2270001700000000    0.0815462500000000    0.5445705600000000 O
   0.5519902900000000    0.8033765300000000    0.1349790800000000 O
   0.3677899200000000    0.7844694900000000    0.8280173199999999 O
   0.8496318500000000    0.5230563600000000    0.7549794900000000 O
   0.7307466100000000    0.3257905000000000    0.4369738600000000 O
   0.0619174500000000    0.0721198900000000    0.1674232500000000 O
