Cs1 Li1 Mo1 O4
1.0
   0.0000000000000000    4.2242317399999996    4.2242317399999996
   4.2242317399999996    0.0000000000000000    4.2242317399999996
   4.2242317399999996    4.2242317399999996    0.0000000000000000
Cs Li Mo O
1 1 1 4
direct
   0.2500000000000000    0.2500000000000000    0.2500000000000000 Cs
   0.5000000000000000    0.5000000000000000    0.5000000000000000 Li
   0.7500000000000000    0.7500000000000000    0.7500000000000000 Mo
   0.6282167500000000    0.6282167500000000    0.1153487600000000 O
   0.6282167500000000    0.6282167500000000    0.6282167500000000 O
   0.1153487600000000    0.6282167500000000    0.6282167500000000 O
   0.6282167500000000    0.1153487600000000    0.6282167500000000 O
