Cs12 Ga4 O12
1.0
   8.0323932199999994    0.0000000000000000    0.0403301200000000
   0.0000000000000000    7.0438684000000000    0.0000000000000000
  -1.3290814700000000    0.0000000000000000   11.1902516300000006
Cs Ga O
12 4 12
direct
   0.6567836500000001    0.8328895800000000    0.5693824300000000 Cs
   0.0413831900000000    0.1236945900000000    0.6550303600000000 Cs
   0.6280625500000000    0.3252309200000000    0.6976220700000000 Cs
   0.3719374500000000    0.8252309200000000    0.8023779300000000 Cs
   0.9586168100000000    0.6236945900000000    0.8449696400000000 Cs
   0.3432163500000000    0.3328895800000000    0.9306175700000000 Cs
   0.6567836500000001    0.6671104200000000    0.0693824300000000 Cs
   0.0413831900000000    0.3763054100000000    0.1550303600000000 Cs
   0.6280625500000000    0.1747690800000000    0.1976220700000000 Cs
   0.3719374500000000    0.6747690800000000    0.3023779300000000 Cs
   0.9586168100000000    0.8763054100000000    0.3449696400000000 Cs
   0.3432163500000000    0.1671104200000000    0.4306175700000000 Cs
   0.1490246700000000    0.5754068500000000    0.5632039900000000 Ga
   0.8509753300000000    0.0754068500000000    0.9367960100000000 Ga
   0.1490246700000000    0.9245931500000000    0.0632039900000000 Ga
   0.8509753300000000    0.4245931500000000    0.4367960100000000 Ga
   0.2372772600000000    0.8123644900000000    0.5373895600000000 O
   0.9111672900000000    0.5611310000000000    0.5850793100000000 O
   0.2784087900000000    0.4435991700000000    0.6813316600000000 O
   0.7215912100000000    0.9435991700000000    0.8186683400000000 O
   0.0888327100000000    0.0611310000000000    0.9149206900000000 O
   0.7627227400000000    0.3123644900000000    0.9626104400000000 O
   0.2372772600000000    0.6876355100000000    0.0373895600000000 O
   0.9111672900000000    0.9388690000000000    0.0850793100000000 O
   0.2784087900000000    0.0564008300000000    0.1813316600000000 O
   0.7215912100000000    0.5564008300000000    0.3186683400000000 O
   0.0888327100000000    0.4388690000000000    0.4149206900000000 O
   0.7627227400000000    0.1876355100000000    0.4626104400000000 O
