Cs4 Sb4 Se8
1.0
   7.5977928400000003    0.0000000000000000   -0.0201994200000000
   0.0000000000000000   10.0508745499999996    0.0000000000000000
  -1.5694698800000000    0.0000000000000000    7.2730818399999997
Cs Sb Se
4 4 8
direct
   0.6569678100000000    0.0599890500000000    0.2837549000000000 Cs
   0.3430321900000000    0.5599890500000000    0.2162451000000000 Cs
   0.3430321900000000    0.9400109500000000    0.7162451000000000 Cs
   0.6569678100000000    0.4400109500000000    0.7837549000000000 Cs
   0.9167633500000000    0.8301994600000000    0.8682378900000000 Sb
   0.0832366500000000    0.1698005400000000    0.1317621100000000 Sb
   0.0832366500000000    0.3301994600000000    0.6317621100000000 Sb
   0.9167633500000000    0.6698005400000000    0.3682378900000000 Sb
   0.1677252000000000    0.9245475000000000    0.2065849100000000 Se
   0.8322748000000000    0.4245475000000000    0.2934150900000000 Se
   0.8322748000000000    0.0754525000000000    0.7934150900000000 Se
   0.1677252000000000    0.5754525000000000    0.7065849100000000 Se
   0.6772864300000000    0.7492711900000000    0.0438945100000000 Se
   0.3227135700000000    0.2492711900000000    0.4561054900000000 Se
   0.3227135700000000    0.2507288100000000    0.9561054900000000 Se
   0.6772864300000000    0.7507288100000000    0.5438945100000000 Se
