Y2 Cu6 Se6
1.0
   3.4375140700000002    1.9846490699999999    6.4990204100000000
  -3.4375140300000000    1.9846491399999999    6.4990204100000000
  -0.0000000400000000   -3.9692992000000000    6.4990204100000000
Y Cu Se
2 6 6
direct
   0.8336168100000000    0.8336168100000000    0.8336168100000000 Y
   0.1663831900000000    0.1663831900000000    0.1663831900000000 Y
   0.2728880600000000    0.9755543300000000    0.6285382300000000 Cu
   0.6285382300000000    0.2728880600000000    0.9755543300000000 Cu
   0.9755543300000000    0.6285382300000000    0.2728880600000000 Cu
   0.0244456700000000    0.3714617700000000    0.7271119400000000 Cu
   0.3714617700000000    0.7271119400000000    0.0244456700000000 Cu
   0.7271119400000000    0.0244456700000000    0.3714617700000000 Cu
   0.0961336700000000    0.7386957400000000    0.4193254900000000 Se
   0.7386957400000000    0.4193254900000000    0.0961336700000000 Se
   0.4193254900000000    0.0961336700000000    0.7386957400000000 Se
   0.5806745100000000    0.9038663300000001    0.2613042600000000 Se
   0.2613042600000000    0.5806745100000000    0.9038663300000001 Se
   0.9038663300000001    0.2613042600000000    0.5806745100000000 Se
