Al1 Sb3 Pb4 O13
1.0
   3.7031739600000000    2.1380289299999999    5.9341207699999998
  -3.7031739600000000    2.1380289299999999    5.9341207699999998
   0.0000000000000000   -4.2760568599999997    5.9341207799999998
Al Sb Pb O
1 3 4 13
direct
   0.4992137700000000    0.4992137700000000    0.4992137700000000 Al
   0.4997207800000000    0.4997207800000000    0.0009674800000000 Sb
   0.4997207800000000    0.0009674800000000    0.4997207800000000 Sb
   0.0009674800000000    0.4997207800000000    0.4997207800000000 Sb
   0.9969521400000000    0.9969521400000000    0.9969521400000000 Pb
   0.9971246800000000    0.9971246800000000    0.5082110500000000 Pb
   0.9971246800000000    0.5082110500000000    0.9971246800000000 Pb
   0.5082110500000000    0.9971246800000000    0.9971246800000000 Pb
   0.4300372000000000    0.4300372000000000    0.8176451200000000 O
   0.8262169500000000    0.8262169500000000    0.4243894300000000 O
   0.4300372000000000    0.8176451200000000    0.4300372000000000 O
   0.8262169500000000    0.4243894300000000    0.8262169500000000 O
   0.4243894300000000    0.8262169500000000    0.8262169500000000 O
   0.8176451200000000    0.4300372000000000    0.4300372000000000 O
   0.5674982100000000    0.5674982100000000    0.1854551200000000 O
   0.1766798900000000    0.1766798900000000    0.5726459300000000 O
   0.5674982100000000    0.1854551200000000    0.5674982100000000 O
   0.1766798900000000    0.5726459300000000    0.1766798900000000 O
   0.5726459300000000    0.1766798900000000    0.1766798900000000 O
   0.1854551200000000    0.5674982100000000    0.5674982100000000 O
   0.1249635500000000    0.1249635500000000    0.1249635500000000 O
