Rb4 Mg4 P4 O16
1.0
   8.8054421999999999    0.0000000000000000    0.0000000000000000
   0.0000000000000000    9.3255584900000006    0.0000000000000000
   0.0000000000000000    0.0000000000000000    5.3989304100000002
Rb Mg P O
4 4 4 16
direct
   0.4965516200000000    0.2180375600000000    0.2297824400000000 Rb
   0.9965516200000000    0.2819624400000000    0.2297824400000000 Rb
   0.0034483800000000    0.7180375600000000    0.7297824400000000 Rb
   0.5034483800000000    0.7819624400000000    0.7297824400000000 Rb
   0.3136136200000000    0.5809758200000000    0.2465671000000000 Mg
   0.8136136200000000    0.9190241800000000    0.2465671000000000 Mg
   0.1863863800000000    0.0809758200000000    0.7465671000000000 Mg
   0.6863863800000000    0.4190241800000000    0.7465671000000000 Mg
   0.7046862600000000    0.5832811600000000    0.2464078000000000 P
   0.2046862600000000    0.9167188400000000    0.2464078000000000 P
   0.7953137400000000    0.0832811600000000    0.7464078000000000 P
   0.2953137400000000    0.4167188400000000    0.7464078000000000 P
   0.7681130500000000    0.5585709800000001    0.9814764600000000 O
   0.2681130500000000    0.9414290199999999    0.9814764600000000 O
   0.5301966299999999    0.5820541299999999    0.2382781200000000 O
   0.0301966300000000    0.9179458700000001    0.2382781200000000 O
   0.7589822400000000    0.7287652400000000    0.3509358600000000 O
   0.2589822400000000    0.7712347600000000    0.3509358600000000 O
   0.2631291400000000    0.0380257500000000    0.4187532200000000 O
   0.7631291400000000    0.4619742500000000    0.4187532200000000 O
   0.7318869500000000    0.0585709800000000    0.4814764600000000 O
   0.2318869500000000    0.4414290200000000    0.4814764600000000 O
   0.9698033700000001    0.0820541300000000    0.7382781200000000 O
   0.4698033700000000    0.4179458700000000    0.7382781200000000 O
   0.7410177600000000    0.2287652400000000    0.8509358600000000 O
   0.2410177600000000    0.2712347600000000    0.8509358600000000 O
   0.2368708600000000    0.5380257500000000    0.9187532200000000 O
   0.7368708600000000    0.9619742500000000    0.9187532200000000 O
