Cr2 Hg2 O8
1.0
   2.8628010000000002   -4.4442943300000000    0.0000000000000000
   2.8628010000000002    4.4442943300000000    0.0000000000000000
   0.0000000000000000    0.0000000000000000    7.1111195699999996
Cr Hg O
2 2 8
direct
   0.6399470500000000    0.3600529500000000    0.7500000000000000 Cr
   0.3600529500000000    0.6399470500000000    0.2500000000000000 Cr
   0.0000000000000000    0.0000000000000000    0.0000000000000000 Hg
   0.0000000000000000    0.0000000000000000    0.5000000000000000 Hg
   0.7118531500000000    0.7736146400000000    0.2500000000000000 O
   0.2881468500000000    0.2263853600000000    0.7500000000000000 O
   0.7736146400000000    0.7118531500000000    0.7500000000000000 O
   0.2263853600000000    0.2881468500000000    0.2500000000000000 O
   0.2554331400000000    0.7445668600000001    0.4379928700000000 O
   0.7445668600000001    0.2554331400000000    0.9379928700000000 O
   0.7445668600000001    0.2554331400000000    0.5620071300000000 O
   0.2554331400000000    0.7445668600000001    0.0620071300000000 O
