Na6 Au2 S4
1.0
   3.7679002300000000    2.1753976800000001    5.4909782299999996
  -3.7679002300000000    2.1753976800000001    5.4909782299999996
   0.0000000000000000   -4.3507963299999997    5.4909782299999996
Na Au S
6 2 4
direct
   0.0343448400000000    0.4656551600000000    0.7500000000000000 Na
   0.4656551600000000    0.7500000000000000    0.0343448400000000 Na
   0.7500000000000000    0.0343448400000000    0.4656551600000000 Na
   0.9656551600000000    0.5343448400000000    0.2500000000000000 Na
   0.5343448400000000    0.2500000000000000    0.9656551600000000 Na
   0.2500000000000000    0.9656551600000000    0.5343448400000000 Na
   0.0000000000000000    0.0000000000000000    0.0000000000000000 Au
   0.5000000000000000    0.5000000000000000    0.5000000000000000 Au
   0.1388727400000000    0.1388727400000000    0.1388727400000000 S
   0.3611272600000000    0.3611272600000000    0.3611272600000000 S
   0.6388727400000001    0.6388727400000001    0.6388727400000001 S
   0.8611272599999999    0.8611272599999999    0.8611272599999999 S
