Li4 Au4 S4
1.0
   0.0000000000000000    4.4395234500000003    5.5920521399999998
   4.4258344999999997    0.0000000000000000    5.5920521399999998
   4.4258344999999997    4.4395234500000003    0.0000000000000000
Li Au S
4 4 4
direct
   0.1491897100000000    0.1491897100000000    0.8508102900000000 Li
   0.8508102900000000    0.8508102900000000    0.1491897100000000 Li
   0.1008102900000000    0.1008102900000000    0.3991897100000000 Li
   0.3991897100000000    0.3991897100000000    0.1008102900000000 Li
   0.6250000000000000    0.6250000000000000    0.6250000000000000 Au
   0.1250000000000000    0.6250000000000000    0.6250000000000000 Au
   0.6250000000000000    0.6250000000000000    0.1250000000000000 Au
   0.6250000000000000    0.1250000000000000    0.6250000000000000 Au
   0.0390478400000000    0.4609521600000000    0.4609521600000000 S
   0.7890478399999999    0.2109521600000000    0.2109521600000000 S
   0.4609521600000000    0.0390478400000000    0.0390478400000000 S
   0.2109521600000000    0.7890478399999999    0.7890478399999999 S
