Ti2 Nb2 P6 O24
1.0
   4.3425075499999997    2.5071474500000002    7.4367562700000001
  -4.3425075499999997    2.5071474500000002    7.4367562700000001
   0.0000000000000000   -5.0142958999999996    7.4367562700000001
Ti Nb P O
2 2 6 24
direct
   0.6431890500000000    0.6431890500000000    0.6431890500000000 Ti
   0.1431890500000000    0.1431890500000000    0.1431890500000000 Ti
   0.3590562000000000    0.3590562000000000    0.3590562000000000 Nb
   0.8590562000000000    0.8590562000000000    0.8590562000000000 Nb
   0.7580927700000000    0.4629991800000000    0.0271410100000000 P
   0.4629991800000000    0.0271410100000000    0.7580927700000000 P
   0.0271410100000000    0.7580927700000000    0.4629991800000000 P
   0.5271410100000000    0.9629991800000000    0.2580927700000000 P
   0.9629991800000000    0.2580927700000000    0.5271410100000000 P
   0.2580927700000000    0.5271410100000000    0.9629991800000000 P
   0.7307580400000000    0.4938286700000000    0.8578949700000000 O
   0.4938286700000000    0.8578949700000000    0.7307580400000000 O
   0.8578949700000000    0.7307580400000000    0.4938286700000000 O
   0.3578949700000000    0.9938286700000000    0.2307580400000000 O
   0.9938286700000000    0.2307580400000000    0.3578949700000000 O
   0.2307580400000000    0.3578949700000000    0.9938286700000000 O
   0.2767150600000000    0.5033396600000000    0.1367118800000000 O
   0.5033396600000000    0.1367118800000000    0.2767150600000000 O
   0.1367118800000000    0.2767150600000000    0.5033396600000000 O
   0.6367118800000000    0.0033396600000000    0.7767150600000000 O
   0.0033396600000000    0.7767150600000000    0.6367118800000000 O
   0.7767150600000000    0.6367118800000000    0.0033396600000000 O
   0.4295921000000000    0.5580358200000000    0.7897058100000000 O
   0.5580358200000000    0.7897058100000000    0.4295921000000000 O
   0.7897058100000000    0.4295921000000000    0.5580358200000000 O
   0.2897058100000000    0.0580358200000000    0.9295921000000000 O
   0.0580358200000000    0.9295921000000000    0.2897058100000000 O
   0.9295921000000000    0.2897058100000000    0.0580358200000000 O
   0.5822459300000000    0.4354302900000000    0.2052605700000000 O
   0.4354302900000000    0.2052605700000000    0.5822459300000000 O
   0.2052605700000000    0.5822459300000000    0.4354302900000000 O
   0.7052605700000000    0.9354302900000000    0.0822459300000000 O
   0.9354302900000000    0.0822459300000000    0.7052605700000000 O
   0.0822459300000000    0.7052605700000000    0.9354302900000000 O
