Cs12 Sb4 O16
1.0
  12.7975668900000006    0.0000000000000000    0.0000000000000000
   0.0000000000000000    9.1531615500000001    0.0000000000000000
   0.0000000000000000    0.0000000000000000    6.8047225200000003
Cs Sb O
12 4 16
direct
   0.8521425900000000    0.0070932100000000    0.7038877300000000 Cs
   0.3521425900000000    0.4929067900000000    0.7961122700000000 Cs
   0.1478574100000000    0.5070932100000000    0.2961122700000000 Cs
   0.6478574100000000    0.9929067900000000    0.2038877300000000 Cs
   0.1478574100000000    0.9929067900000000    0.2961122700000000 Cs
   0.6478574100000000    0.5070932100000000    0.2038877300000000 Cs
   0.8521425900000000    0.4929067900000000    0.7038877300000000 Cs
   0.3521425900000000    0.0070932100000000    0.7961122700000000 Cs
   0.9257073000000000    0.2500000000000000    0.1486608800000000 Cs
   0.4257073000000000    0.2500000000000000    0.3513391200000000 Cs
   0.0742927000000000    0.7500000000000000    0.8513391200000000 Cs
   0.5742927000000000    0.7500000000000000    0.6486608800000000 Cs
   0.8884240700000000    0.7500000000000000    0.2763637800000000 Sb
   0.3884240700000000    0.7500000000000000    0.2236362200000000 Sb
   0.1115759300000000    0.2500000000000000    0.7236362200000001 Sb
   0.6115759300000000    0.2500000000000000    0.7763637799999999 Sb
   0.7664955700000000    0.7500000000000000    0.4382140200000000 O
   0.2664955700000000    0.7500000000000000    0.0617859800000000 O
   0.2335044300000000    0.2500000000000000    0.5617859800000000 O
   0.7335044300000000    0.2500000000000000    0.9382140200000000 O
   0.0080920300000000    0.7500000000000000    0.4440502100000000 O
   0.5080920300000000    0.7500000000000000    0.0559497900000000 O
   0.9919079700000000    0.2500000000000000    0.5559497900000000 O
   0.4919079700000000    0.2500000000000000    0.9440502100000000 O
   0.8884540500000000    0.5786451900000000    0.1178881000000000 O
   0.3884540500000000    0.9213548100000000    0.3821119000000000 O
   0.1115459500000000    0.0786451900000000    0.8821118999999999 O
   0.6115459500000000    0.4213548100000000    0.6178881000000001 O
   0.1115459500000000    0.4213548100000000    0.8821118999999999 O
   0.6115459500000000    0.0786451900000000    0.6178881000000001 O
   0.8884540500000000    0.9213548100000000    0.1178881000000000 O
   0.3884540500000000    0.5786451900000000    0.3821119000000000 O
