Cs4 Bi8 Se14
1.0
  13.1632194499999997    0.0000000000000000    0.0097398300000000
   0.0000000000000000    4.2064700100000003    0.0000000000000000
  -1.1461374900000001    0.0000000000000000   15.3324621699999994
Cs Bi Se
4 8 14
direct
   0.4286489200000000    0.7500000000000000    0.8106883000000000 Cs
   0.5713510800000000    0.2500000000000000    0.1893117000000000 Cs
   0.1697671000000000    0.2500000000000000    0.6222122300000000 Cs
   0.8302329000000001    0.7500000000000000    0.3777877700000000 Cs
   0.0541621800000000    0.7500000000000000    0.8803261700000000 Bi
   0.9458378200000001    0.2500000000000000    0.1196738300000000 Bi
   0.1695156600000000    0.7500000000000000    0.2744020200000000 Bi
   0.8304843400000000    0.2500000000000000    0.7255979800000000 Bi
   0.2726246600000000    0.2500000000000000    0.0489904000000000 Bi
   0.7273753400000000    0.7500000000000000    0.9510096000000000 Bi
   0.3944724200000000    0.2500000000000000    0.4267321600000000 Bi
   0.6055275800000000    0.7500000000000000    0.5732678400000000 Bi
   0.5452714500000000    0.7500000000000000    0.3918187200000000 Se
   0.4547285500000000    0.2500000000000000    0.6081812800000000 Se
   0.4100318500000000    0.7500000000000000    0.0356714000000000 Se
   0.5899681500000000    0.2500000000000000    0.9643286000000000 Se
   0.0153925900000000    0.2500000000000000    0.2974798600000000 Se
   0.9846074100000000    0.7500000000000000    0.7025201400000000 Se
   0.2044374600000000    0.2500000000000000    0.8606313300000000 Se
   0.7955625400000000    0.7500000000000000    0.1393686700000000 Se
   0.2438880700000000    0.7500000000000000    0.4523559500000000 Se
   0.7561119300000000    0.2500000000000000    0.5476440500000000 Se
   0.3126671400000000    0.2500000000000000    0.2390365300000000 Se
   0.6873328600000000    0.7500000000000000    0.7609634700000000 Se
   0.0983169000000000    0.7500000000000000    0.0811526300000000 Se
   0.9016831000000000    0.2500000000000000    0.9188473700000001 Se
