Mg4 Te6 O16
1.0
   6.2820065800000000   -2.6166211499999998   -0.0005885600000000
   6.2820065800000000    2.6166211499999998   -0.0005885600000000
  -1.6843609100000001    0.0000000000000000   11.3972346400000006
Mg Te O
4 6 16
direct
   0.4234321800000000    0.0421339300000000    0.3526728800000000 Mg
   0.9578660700000000    0.5765678200000000    0.1473271200000000 Mg
   0.5765678200000000    0.9578660700000000    0.6473271200000000 Mg
   0.0421339300000000    0.4234321800000000    0.8526728800000000 Mg
   0.8345955900000001    0.1654044100000000    0.2500000000000000 Te
   0.1654044100000000    0.8345955900000001    0.7500000000000000 Te
   0.0552013500000000    0.6752305300000000    0.4457989300000000 Te
   0.3247694700000000    0.9447986500000000    0.0542010700000000 Te
   0.9447986500000000    0.3247694700000000    0.5542010700000000 Te
   0.6752305300000000    0.0552013500000000    0.9457989300000000 Te
   0.7443581000000000    0.7256380000000000    0.4731649100000000 O
   0.2743620000000000    0.2556419000000000    0.0268350900000000 O
   0.2556419000000000    0.2743620000000000    0.5268350900000000 O
   0.7256380000000000    0.7443581000000000    0.9731649100000000 O
   0.7489680900000000    0.0225063600000000    0.3650411900000000 O
   0.9774936400000001    0.2510319100000000    0.1349588100000000 O
   0.2510319100000000    0.9774936400000001    0.6349588100000000 O
   0.0225063600000000    0.7489680900000000    0.8650411900000000 O
   0.9803540800000000    0.8582262500000000    0.1437098600000000 O
   0.1417737500000000    0.0196459200000000    0.3562901400000000 O
   0.0196459200000000    0.1417737500000000    0.8562901400000000 O
   0.8582262500000000    0.9803540800000000    0.6437098600000000 O
   0.1582910700000000    0.4458582000000000    0.3066114200000000 O
   0.5541418000000000    0.8417089300000000    0.1933885800000000 O
   0.8417089300000000    0.5541418000000000    0.6933885800000000 O
   0.4458582000000000    0.1582910700000000    0.8066114200000000 O
