Rb12 V4 S16
1.0
   9.3438772900000000    0.0000000000000000    0.0000000000000000
   0.0000000000000000   10.8666175900000006    0.0000000000000000
   0.0000000000000000    0.0000000000000000    9.3782937000000004
Rb V S
12 4 16
direct
   0.0482407000000000    0.5430147300000000    0.7928207000000000 Rb
   0.4517593000000000    0.4569852700000000    0.2928207000000000 Rb
   0.5482407000000000    0.9569852700000000    0.7071793000000000 Rb
   0.9517593000000000    0.0430147300000000    0.2071793000000000 Rb
   0.9517593000000000    0.4569852700000000    0.2071793000000000 Rb
   0.5482407000000000    0.5430147300000000    0.7071793000000000 Rb
   0.4517593000000000    0.0430147300000000    0.2928207000000000 Rb
   0.0482407000000000    0.9569852700000000    0.7928207000000000 Rb
   0.1444447500000000    0.2500000000000000    0.5866505900000000 Rb
   0.3555552500000000    0.7500000000000000    0.0866505900000000 Rb
   0.6444447500000000    0.2500000000000000    0.9133494100000000 Rb
   0.8555552500000000    0.7500000000000000    0.4133494100000000 Rb
   0.7789690300000000    0.7500000000000000    0.9836140400000000 V
   0.7210309700000000    0.2500000000000000    0.4836140400000000 V
   0.2789690300000000    0.7500000000000000    0.5163859600000000 V
   0.2210309700000000    0.2500000000000000    0.0163859600000000 V
   0.7953647900000000    0.7500000000000000    0.7541818800000000 S
   0.7046352100000000    0.2500000000000000    0.2541818800000000 S
   0.2953647900000000    0.7500000000000000    0.7458181200000000 S
   0.2046352100000000    0.2500000000000000    0.2458181200000000 S
   0.0074865300000000    0.2500000000000000    0.9263441700000000 S
   0.4925134700000000    0.7500000000000000    0.4263441700000000 S
   0.5074865300000000    0.2500000000000000    0.5736558300000000 S
   0.9925134700000000    0.7500000000000000    0.0736558300000000 S
   0.3325925200000000    0.4141215300000000    0.9510891800000000 S
   0.1674074800000000    0.5858784700000000    0.4510891800000000 S
   0.8325925199999999    0.0858784700000000    0.5489108200000000 S
   0.6674074800000001    0.9141215300000000    0.0489108200000000 S
   0.6674074800000001    0.5858784700000000    0.0489108200000000 S
   0.8325925199999999    0.4141215300000000    0.5489108200000000 S
   0.1674074800000000    0.9141215300000000    0.4510891800000000 S
   0.3325925200000000    0.0858784700000000    0.9510891800000000 S
