Ga2 Hg1 Se4
1.0
  -2.8621995199999999    2.8622004200000002    5.3958543499999996
   2.8621995199999999   -2.8622004200000002    5.3958543499999996
   2.8622004200000002    2.8621995199999999   -5.3958543499999996
Ga Hg Se
2 1 4
direct
   0.5000000000000000    0.5000000000000000    0.0000000000000000 Ga
   0.2500000000000000    0.7500000000000000    0.5000000000000000 Ga
   0.0000000000000000    0.0000000000000000    0.0000000000000000 Hg
   0.8613179600000000    0.3969830000000000    0.9758281900000000 Se
   0.4211548100000000    0.8854897700000000    0.0241718100000000 Se
   0.1145102300000000    0.1386820400000000    0.5356650400000000 Se
   0.6030170000000000    0.5788451900000000    0.4643349600000000 Se
