Zn4 Ag4 P4 S16
1.0
  12.3561340699999995    0.0000000000000000    0.0000000000000000
   0.0000000000000000    7.4764784300000002    0.0000000000000000
   0.0000000000000000    0.0000000000000000    5.9977750600000004
Zn Ag P S
4 4 4 16
direct
   0.3396243700000000    0.5121465500000000    0.5029933500000000 Zn
   0.6603756300000000    0.4878534500000000    0.0029933500000000 Zn
   0.8396243700000000    0.9878534500000000    0.5029933500000000 Zn
   0.1603756300000000    0.0121465500000000    0.0029933500000000 Zn
   0.5736724700000000    0.2257953100000000    0.5020774300000000 Ag
   0.9263275300000000    0.7257953100000000    0.0020774300000000 Ag
   0.4263275300000000    0.7742046900000000    0.0020774300000000 Ag
   0.0736724700000000    0.2742046900000000    0.5020774300000000 Ag
   0.5947829100000001    0.7335643700000000    0.5051118100000000 P
   0.9052170899999999    0.2335643700000000    0.0051118100000000 P
   0.0947829100000000    0.7664356300000000    0.5051118100000000 P
   0.4052170900000000    0.2664356300000000    0.0051118100000000 P
   0.1745165800000000    0.9901072700000000    0.6169994900000000 S
   0.3254834200000000    0.4901072700000000    0.1169994900000000 S
   0.1144831600000000    0.7447069300000000    0.1635623400000000 S
   0.6144831600000000    0.7552930700000000    0.1635623400000000 S
   0.1672503800000000    0.5486008600000000    0.6522582600000000 S
   0.6672503800000000    0.9513991400000000    0.6522582600000000 S
   0.4339448100000000    0.7676228200000000    0.5862953200000000 S
   0.8254834200000000    0.0098927300000000    0.1169994900000000 S
   0.9339448100000000    0.7323771800000000    0.5862953200000000 S
   0.3855168400000000    0.2447069300000000    0.6635623400000000 S
   0.5660551900000000    0.2323771800000000    0.0862953200000000 S
   0.8327496200000000    0.4513991400000000    0.1522582600000000 S
   0.3327496200000000    0.0486008600000000    0.1522582600000000 S
   0.8855168400000000    0.2552930700000000    0.6635623400000000 S
   0.0660551900000000    0.2676228200000000    0.0862953200000000 S
   0.6745165800000000    0.5098927300000000    0.6169994900000000 S
