Ba5 Y8 Zn4 O21
1.0
  -6.8228876300000003    6.8228875999999996    2.8301370700000001
   6.8228876300000003   -6.8228875999999996    2.8301370700000001
   6.8228875999999996    6.8228876300000003   -2.8301370700000001
Ba Y Zn O
5 8 4 21
direct
   0.1394555900000000    0.4649916900000000    0.6044472900000000 Ba
   0.8605444100000000    0.5350083100000000    0.3955527100000000 Ba
   0.5350083100000000    0.1394555900000000    0.6744639000000000 Ba
   0.4649916900000000    0.8605444100000000    0.3255361000000000 Ba
   0.0000000000000000    0.0000000000000000    0.0000000000000000 Ba
   0.4114826300000000    0.3572708500000000    0.7687534800000000 Y
   0.5885173700000000    0.6427291500000000    0.2312465200000000 Y
   0.6427291500000000    0.4114826300000000    0.0542117900000000 Y
   0.3572708500000000    0.5885173700000000    0.9457882100000000 Y
   0.2478553900000000    0.1672491400000000    0.4151045300000000 Y
   0.7521446100000000    0.8327508600000000    0.5848954700000000 Y
   0.8327508600000000    0.2478553900000000    0.0806072500000000 Y
   0.1672491400000000    0.7521446100000000    0.9193927500000000 Y
   0.0407142500000000    0.2508270700000000    0.2915423200000000 Zn
   0.9592857500000000    0.7491729300000000    0.7084576800000000 Zn
   0.7491729300000000    0.0407142500000000    0.7898871800000000 Zn
   0.2508270700000000    0.9592857500000000    0.2101128200000000 Zn
   0.4260824000000000    0.2947664500000000    0.2251224900000000 O
   0.5739176000000000    0.7052335500000000    0.7748775100000000 O
   0.0696449600000000    0.2009599100000000    0.7748775100000000 O
   0.2009599100000000    0.4260824000000000    0.1313149500000000 O
   0.9303550400000000    0.7990400900000000    0.2251224900000000 O
   0.7990400900000000    0.5739176000000000    0.8686850500000000 O
   0.2947664500000000    0.0696449600000000    0.8686850500000000 O
   0.7052335500000000    0.9303550400000000    0.1313149500000000 O
   0.3919947100000000    0.5039559300000001    0.4054990100000000 O
   0.6080052900000000    0.4960440700000000    0.5945009900000000 O
   0.0984569200000000    0.9864957100000000    0.5945009900000000 O
   0.9864957100000000    0.3919947100000000    0.8880387800000000 O
   0.9015430800000001    0.0135042900000000    0.4054990100000000 O
   0.0135042900000000    0.6080052900000000    0.1119612200000000 O
   0.5039559300000001    0.0984569200000000    0.1119612200000000 O
   0.4960440700000000    0.9015430800000001    0.8880387800000000 O
   0.5000000000000000    0.5000000000000000    0.0000000000000000 O
   0.3704953900000000    0.0362640100000000    0.4067604000000000 O
   0.6295046100000000    0.9637359900000000    0.5932396000000000 O
   0.9637359900000000    0.3704953900000000    0.3342313800000000 O
   0.0362640100000000    0.6295046100000000    0.6657686200000000 O
