Ba4 P4 S12
1.0
   6.6792848100000004    0.0000000000000000   -0.0123560400000000
   0.0000000000000000    7.6165792600000000    0.0000000000000000
  -6.4601310999999999    0.0000000000000000    9.9209027100000000
Ba P S
4 4 12
direct
   0.7059576200000000    0.9039703600000000    0.2479207400000000 Ba
   0.2940423800000000    0.4039703600000000    0.2520792600000000 Ba
   0.2940423800000000    0.0960296400000000    0.7520792600000000 Ba
   0.7059576200000000    0.5960296400000000    0.7479207400000000 Ba
   0.3907787200000000    0.8860132200000000    0.4381298200000000 P
   0.6092212800000000    0.3860132200000000    0.0618701800000000 P
   0.6092212800000000    0.1139867800000000    0.5618701800000000 P
   0.3907787200000000    0.6139867800000000    0.9381298200000000 P
   0.1838024500000000    0.5231335900000000    0.7468481100000000 S
   0.8161975500000000    0.0231335900000000    0.7531518900000000 S
   0.8161975500000000    0.4768664100000000    0.2531518900000000 S
   0.1838024500000000    0.9768664100000000    0.2468481100000000 S
   0.2133753100000000    0.6995374200000000    0.0222618900000000 S
   0.7866246900000000    0.1995374200000000    0.4777381100000000 S
   0.7866246900000000    0.3004625800000000    0.9777381100000000 S
   0.2133753100000000    0.8004625800000000    0.5222618900000000 S
   0.6349759800000000    0.7938329500000000    0.9611366099999999 S
   0.3650240200000000    0.2938329500000000    0.5388633900000001 S
   0.3650240200000000    0.2061670500000000    0.0388633900000000 S
   0.6349759800000000    0.7061670500000000    0.4611366100000000 S
