Ba4 Cd2 Ge4 O14
1.0
   8.6732768999999994    0.0000000000000000    0.0000000000000000
   0.0000000000000000    8.6732768999999994    0.0000000000000000
   0.0000000000000000    0.0000000000000000    5.5560188600000000
Ba Cd Ge O
4 2 4 14
direct
   0.1651499400000000    0.3348500600000000    0.5064977600000000 Ba
   0.8348500599999999    0.6651499400000001    0.5064977600000000 Ba
   0.6651499400000001    0.1651499400000000    0.4935022400000000 Ba
   0.3348500600000000    0.8348500599999999    0.4935022400000000 Ba
   0.0000000000000000    0.0000000000000000    0.0000000000000000 Cd
   0.5000000000000000    0.5000000000000000    0.0000000000000000 Cd
   0.6382817600000000    0.8617182400000000    0.9479366900000000 Ge
   0.3617182400000000    0.1382817600000000    0.9479366900000000 Ge
   0.1382817600000000    0.6382817600000000    0.0520633100000000 Ge
   0.8617182400000000    0.3617182400000000    0.0520633100000000 Ge
   0.0000000000000000    0.5000000000000000    0.1731515400000000 O
   0.5000000000000000    0.0000000000000000    0.8268484600000000 O
   0.6391240300000000    0.8608759700000000    0.2637858900000000 O
   0.3608759700000000    0.1391240300000000    0.2637858900000000 O
   0.1391240300000000    0.6391240300000000    0.7362141100000000 O
   0.8608759700000000    0.3608759700000000    0.7362141100000000 O
   0.0772280500000000    0.8062241700000000    0.2139928900000000 O
   0.9227719500000000    0.1937758300000000    0.2139928900000000 O
   0.1937758300000000    0.0772280500000000    0.7860071100000000 O
   0.4227719500000000    0.3062241700000000    0.7860071100000000 O
   0.8062241700000000    0.9227719500000000    0.7860071100000000 O
   0.5772280500000000    0.6937758300000000    0.7860071100000000 O
   0.3062241700000000    0.5772280500000000    0.2139928900000000 O
   0.6937758300000000    0.4227719500000000    0.2139928900000000 O
