Ag4 C2 O6
1.0
   3.1673629999999999    0.0000000000000000    0.0000000000000000
   0.0000000000000000    9.5877250000000007    0.0000000000000000
  -0.2602360000000000    0.0000000000000000    4.7673300000000003
Ag C O
4 2 6
direct
   0.7665400000000000    0.4284430000000000    0.7964840000000000 Ag
   0.2334600000000000    0.9284430000000000    0.2035160000000000 Ag
   0.2334600000000000    0.5715570000000000    0.2035160000000000 Ag
   0.7665400000000000    0.0715570000000000    0.7964840000000000 Ag
   0.2056780000000000    0.2500000000000000    0.2832460000000000 C
   0.7943220000000000    0.7500000000000000    0.7167540000000000 C
   0.7053850000000000    0.8667080000000000    0.5919990000000001 O
   0.2946150000000000    0.3667080000000000    0.4080010000000000 O
   0.0257400000000000    0.2500000000000000    0.0314370000000000 O
   0.9742600000000000    0.7500000000000000    0.9685630000000000 O
   0.7053850000000000    0.6332920000000000    0.5919990000000001 O
   0.2946150000000000    0.1332920000000000    0.4080010000000000 O
