Na8 As8 Se16
1.0
  11.5710584900000004    0.0000000000000000    0.0059204800000000
   0.0000000000000000    5.8782395599999999    0.0000000000000000
  -0.0152623400000000    0.0000000000000000   11.7071373600000008
Na As Se
8 8 16
direct
   0.7621571600000000    0.0139095900000000    0.7534442500000000 Na
   0.7621571600000000    0.9860904100000000    0.2534442500000000 Na
   0.5199575400000001    0.4997749400000000    0.2567597300000000 Na
   0.5199575400000001    0.5002250600000000    0.7567597300000000 Na
   0.0202905000000000    0.5184374300000000    0.2388550500000000 Na
   0.0202905000000000    0.4815625700000000    0.7388550500000000 Na
   0.2613316800000000    0.4732021200000000    0.5016703900000000 Na
   0.2613316800000000    0.5267978800000001    0.0016703900000000 Na
   0.7582803600000000    0.4587094800000000    0.0332488900000000 As
   0.7582803600000000    0.5412905200000000    0.5332488900000000 As
   0.9999069100000000    0.0801616800000000    0.0060433700000000 As
   0.9999069100000000    0.9198383200000000    0.5060433700000000 As
   0.2576444500000000    0.0676566800000000    0.2284272900000000 As
   0.2576444500000000    0.9323433200000000    0.7284272899999999 As
   0.5004443400000000    0.0215750400000000    0.0423908800000000 As
   0.5004443400000000    0.9784249600000000    0.5423908800000000 As
   0.5041701800000000    0.0021564500000000    0.7440315800000000 Se
   0.5041701800000000    0.9978435500000000    0.2440315800000000 Se
   0.5362321100000000    0.4237390700000000    0.0062922700000000 Se
   0.5362321100000000    0.5762609300000000    0.5062922700000000 Se
   0.7709053100000000    0.4849236100000000    0.2340148900000000 Se
   0.7709053100000000    0.5150763900000001    0.7340148900000000 Se
   0.0352351900000000    0.0188601600000000    0.2094279400000000 Se
   0.0352351900000000    0.9811398400000000    0.7094279400000000 Se
   0.2839261000000000    0.0252343900000000    0.0187832300000000 Se
   0.2839261000000000    0.9747656099999999    0.5187832300000000 Se
   0.2697170000000000    0.4657215700000000    0.2511764500000000 Se
   0.2697170000000000    0.5342784300000000    0.7511764500000000 Se
   0.7829611100000000    0.0423127700000000    0.0031527600000000 Se
   0.7829611100000000    0.9576872300000000    0.5031527600000000 Se
   0.0043530700000000    0.5195115700000000    0.4886510300000000 Se
   0.0043530700000000    0.4804884300000000    0.9886510300000000 Se
