Li2 Sb6 O16
1.0
   5.6460521500000000    0.0000000000000000   -0.0086337200000000
   0.0000000000000000    4.7300511700000003    0.0000000000000000
  -1.1618003900000000    0.0000000000000000   10.2901489399999999
Li Sb O
2 6 16
direct
   0.0000000000000000    0.0000000000000000    0.0000000000000000 Li
   0.0000000000000000    0.5000000000000000    0.5000000000000000 Li
   0.5000000000000000    0.0000000000000000    0.5000000000000000 Sb
   0.5000000000000000    0.5000000000000000    0.0000000000000000 Sb
   0.2367716900000000    0.4782862300000000    0.2510513300000000 Sb
   0.7632283100000000    0.9782862300000000    0.2489486700000000 Sb
   0.7632283100000000    0.5217137700000000    0.7489486700000000 Sb
   0.2367716900000000    0.0217137700000000    0.7510513300000000 Sb
   0.2353709400000000    0.8279231600000000    0.5816333600000000 O
   0.7646290600000000    0.3279231600000000    0.9183666400000000 O
   0.7646290600000000    0.1720768400000000    0.4183666400000000 O
   0.2353709400000000    0.6720768400000000    0.0816333600000000 O
   0.4794233400000000    0.7182026700000000    0.8261609700000000 O
   0.5205766600000000    0.2182026700000000    0.6738390300000000 O
   0.5205766600000000    0.2817973300000000    0.1738390300000000 O
   0.4794233400000000    0.7817973300000000    0.3261609700000000 O
   0.2790316900000000    0.2064611200000000    0.9212164800000000 O
   0.7209683099999999    0.7064611200000001    0.5787835200000000 O
   0.7209683099999999    0.7935388799999999    0.0787835200000000 O
   0.2790316900000000    0.2935388800000000    0.4212164800000000 O
   0.9875378200000000    0.6907116100000000    0.3255873900000000 O
   0.0124621800000000    0.1907116100000000    0.1744126100000000 O
   0.0124621800000000    0.3092883900000000    0.6744126100000000 O
   0.9875378200000000    0.8092883900000000    0.8255873900000000 O
