Ba4 Sn4 S12
1.0
   8.4239270299999998    0.0000000000000000    0.0000000000000000
   0.0000000000000000    3.9331580499999999    0.0000000000000000
   0.0000000000000000    0.0000000000000000   14.5697709199999998
Ba Sn S
4 4 12
direct
   0.0810308100000000    0.7500000000000000    0.1742965200000000 Ba
   0.4189691900000000    0.2500000000000000    0.6742965200000000 Ba
   0.9189691900000000    0.2500000000000000    0.8257034800000000 Ba
   0.5810308100000000    0.7500000000000000    0.3257034800000000 Ba
   0.1696202400000000    0.2500000000000000    0.4424390300000000 Sn
   0.8303797600000000    0.7500000000000000    0.5575609700000000 Sn
   0.6696202400000000    0.2500000000000000    0.0575609700000000 Sn
   0.3303797600000000    0.7500000000000000    0.9424390300000000 Sn
   0.1563462400000000    0.2500000000000000    0.0018917500000000 S
   0.3436537600000000    0.7500000000000000    0.5018917500000000 S
   0.5284017800000000    0.2500000000000000    0.8985031999999999 S
   0.9715982200000000    0.7500000000000000    0.3985032000000000 S
   0.0284017800000000    0.2500000000000000    0.6014968000000001 S
   0.7936909500000000    0.2500000000000000    0.2104346000000000 S
   0.7063090500000000    0.7500000000000000    0.7104346000000000 S
   0.2936909500000000    0.2500000000000000    0.2895654000000000 S
   0.2063090500000000    0.7500000000000000    0.7895654000000000 S
   0.8436537600000000    0.7500000000000000    0.9981082500000000 S
   0.6563462400000000    0.2500000000000000    0.4981082500000000 S
   0.4715982200000000    0.7500000000000000    0.1014968000000000 S
