Rb8 Ti4 O12
1.0
   3.0327994000000000   -5.9682181300000003    0.0000000000000000
   3.0327994000000000    5.9682181300000003    0.0000000000000000
   0.0000000000000000    0.0000000000000000   13.3090411999999993
Rb Ti O
8 4 12
direct
   0.3691007500000000    0.6308992500000000    0.0748368800000000 Rb
   0.8691007500000000    0.1308992500000000    0.4251631200000000 Rb
   0.1308992500000000    0.8691007500000000    0.5748368800000000 Rb
   0.6308992500000000    0.3691007500000000    0.9251631200000000 Rb
   0.4429196600000000    0.5570803400000000    0.6370957200000000 Rb
   0.5570803400000000    0.4429196600000000    0.3629042800000000 Rb
   0.0570803400000000    0.9429196600000000    0.1370957200000000 Rb
   0.9429196600000000    0.0570803400000000    0.8629042800000000 Rb
   0.7541323700000000    0.2458676300000000    0.6679662400000000 Ti
   0.7458676300000000    0.2541323700000000    0.1679662400000000 Ti
   0.2458676300000000    0.7541323700000000    0.3320337600000000 Ti
   0.2541323700000000    0.7458676300000000    0.8320337600000000 Ti
   0.9696870100000000    0.5303129900000000    0.7500000000000000 O
   0.5303129900000000    0.9696870100000000    0.2500000000000000 O
   0.0303129900000000    0.4696870100000000    0.2500000000000000 O
   0.4696870100000000    0.0303129900000000    0.7500000000000000 O
   0.4018868200000000    0.5981131800000000    0.8634291500000000 O
   0.5981131800000000    0.4018868200000000    0.1365708500000000 O
   0.0981131800000000    0.9018868200000000    0.3634291500000000 O
   0.6658630500000000    0.3341369500000000    0.5572287200000000 O
   0.1658630500000000    0.8341369500000000    0.9427712800000000 O
   0.8341369500000000    0.1658630500000000    0.0572287200000000 O
   0.3341369500000000    0.6658630500000000    0.4427712800000000 O
   0.9018868200000000    0.0981131800000000    0.6365708500000000 O
