Ba2 Zn2 S2 O2
1.0
   1.9607763899999999   -6.3688208299999998    0.0000000000000000
   1.9607763899999999    6.3688208299999998    0.0000000000000000
   0.0000000000000000    0.0000000000000000    6.0578445500000004
Ba Zn S O
2 2 2 2
direct
   0.8907453100000000    0.1092546900000000    0.7500000000000000 Ba
   0.1092546900000000    0.8907453100000000    0.2500000000000000 Ba
   0.4051385000000000    0.5948615000000000    0.2500000000000000 Zn
   0.5948615000000000    0.4051385000000000    0.7500000000000000 Zn
   0.8095335400000000    0.1904664600000000    0.2500000000000000 S
   0.1904664600000000    0.8095335400000000    0.7500000000000000 S
   0.5000000000000000    0.5000000000000000    0.5000000000000000 O
   0.5000000000000000    0.5000000000000000    0.0000000000000000 O
