Ag4 S2 O8
1.0
   0.0000000000000000    5.2642620000000004    6.2382070000000001
   2.7920950000000002    0.0000000000000000    6.2382070000000001
   2.7920950000000002    5.2642620000000004    0.0000000000000000
Ag S O
4 2 8
direct
   0.3041370000000000    0.6958630000000000    0.3041370000000000 Ag
   0.6958630000000000    0.3041370000000000    0.6958630000000000 Ag
   0.9458630000000000    0.5541370000000000    0.9458630000000000 Ag
   0.5541370000000000    0.9458630000000000    0.5541370000000000 Ag
   0.0000000000000000    0.0000000000000000    0.0000000000000000 S
   0.2500000000000000    0.2500000000000000    0.2500000000000000 S
   0.9996360000000000    0.8622590000000000    0.8336750000000001 O
   0.3044310000000000    0.8336750000000001    0.8622590000000000 O
   0.8622590000000000    0.9996360000000000    0.3044310000000000 O
   0.8336750000000001    0.3044310000000000    0.9996360000000000 O
   0.2503640000000000    0.3877410000000000    0.4163250000000000 O
   0.9455690000000000    0.4163250000000000    0.3877410000000000 O
   0.4163250000000000    0.9455690000000000    0.2503640000000000 O
   0.3877410000000000    0.2503640000000000    0.9455690000000000 O
