Cs4 Ag8 As4 S12
1.0
   9.9138759000000007    0.0000000000000000    0.0013650400000000
   0.0000000000000000    8.1979315199999991    0.0000000000000000
  -2.5372674200000001    0.0000000000000000    8.7339720799999991
Cs Ag As S
4 8 4 12
direct
   0.9187828800000000    0.0676247000000000    0.2512295700000000 Cs
   0.0812171200000000    0.5676247000000000    0.2487704300000000 Cs
   0.0812171200000000    0.9323753000000000    0.7487704300000000 Cs
   0.9187828800000000    0.4323753000000000    0.7512295700000000 Cs
   0.5510945600000000    0.2407286000000000    0.9321303300000000 Ag
   0.4489054400000000    0.7407286000000000    0.5678696700000000 Ag
   0.4489054400000000    0.7592714000000000    0.0678696700000000 Ag
   0.5510945600000000    0.2592714000000000    0.4321303300000000 Ag
   0.3243157200000000    0.0187633400000000    0.2137621600000000 Ag
   0.6756842800000000    0.5187633400000000    0.2862378400000000 Ag
   0.6756842800000000    0.9812366600000000    0.7862378400000000 Ag
   0.3243157200000000    0.4812366600000000    0.7137621600000000 Ag
   0.6532018100000000    0.8676887900000000    0.4470977300000000 As
   0.3467981900000000    0.3676887900000000    0.0529022700000000 As
   0.3467981900000000    0.1323112100000000    0.5529022700000000 As
   0.6532018100000000    0.6323112100000000    0.9470977300000000 As
   0.5695859500000000    0.9897701700000000    0.2100861500000000 S
   0.4304140500000000    0.4897701700000000    0.2899138500000000 S
   0.4304140500000000    0.0102298300000000    0.7899138500000000 S
   0.5695859500000000    0.5102298300000000    0.7100861500000000 S
   0.1607719800000000    0.2193729200000000    0.0619306900000000 S
   0.8392280200000000    0.7193729200000000    0.4380693100000000 S
   0.8392280200000000    0.7806270800000000    0.9380693100000000 S
   0.1607719800000000    0.2806270800000000    0.5619306900000000 S
   0.7543086900000000    0.1000974300000000    0.5680623200000000 S
   0.2456913100000000    0.6000974300000000    0.9319376800000000 S
   0.2456913100000000    0.8999025700000000    0.4319376800000000 S
   0.7543086900000000    0.3999025700000000    0.0680623200000000 S
