Na4 Zn4 Si4 O14
1.0
  13.5845184700000008    0.0000000000000000    0.0000000000000000
   0.0000000000000000    4.5732884199999999    2.5208364400000001
   0.0000000000000000   -4.5732884199999999    2.5208364400000001
Na Zn Si O
4 4 4 14
direct
   0.2500000000000000    0.9440607700000000    0.0166289600000000 Na
   0.7500000000000000    0.0166289600000000    0.9440607700000000 Na
   0.5000000000000000    0.9945419400000000    0.9945419400000000 Na
   0.0000000000000000    0.9945419400000000    0.9945419400000000 Na
   0.4215903600000000    0.2256809500000000    0.6575688400000000 Zn
   0.5784096399999999    0.6575688400000000    0.2256809500000000 Zn
   0.0784096400000000    0.2256809500000000    0.6575688400000000 Zn
   0.9215903600000001    0.6575688400000000    0.2256809500000000 Zn
   0.3602620800000000    0.5703843500000000    0.3313912300000000 Si
   0.6397379200000000    0.3313912300000000    0.5703843500000000 Si
   0.1397379200000000    0.5703843500000000    0.3313912300000000 Si
   0.8602620800000000    0.3313912300000000    0.5703843500000000 Si
   0.3717513100000000    0.2739869600000000    0.3553506600000000 O
   0.6282486900000001    0.3553506600000000    0.2739869600000000 O
   0.1282486900000000    0.2739869600000000    0.3553506600000000 O
   0.8717513099999999    0.3553506600000000    0.2739869600000000 O
   0.4389970400000000    0.5476242200000000    0.0777781900000000 O
   0.5610029600000001    0.0777781900000000    0.5476242200000000 O
   0.0610029600000000    0.5476242200000000    0.0777781900000000 O
   0.9389970399999999    0.0777781900000000    0.5476242200000000 O
   0.3735390600000000    0.8827057200000000    0.6576091400000000 O
   0.6264609400000000    0.6576091400000000    0.8827057200000000 O
   0.1264609400000000    0.8827057200000000    0.6576091400000000 O
   0.8735390600000000    0.6576091400000000    0.8827057200000000 O
   0.7500000000000000    0.1834509200000000    0.5588169800000000 O
   0.2500000000000000    0.5588169800000000    0.1834509200000000 O
