Ba2 Na1 Re1 O6
1.0
   0.0000000000000000    4.1360897100000003    4.1360897100000003
   4.1360897100000003    0.0000000000000000    4.1360897100000003
   4.1360897100000003    4.1360897100000003    0.0000000000000000
Ba Na Re O
2 1 1 6
direct
   0.7500000000000000    0.7500000000000000    0.7500000000000000 Ba
   0.2500000000000000    0.2500000000000000    0.2500000000000000 Ba
   0.0000000000000000    0.0000000000000000    0.0000000000000000 Na
   0.5000000000000000    0.5000000000000000    0.5000000000000000 Re
   0.7285533600000000    0.7285533600000000    0.2714466400000000 O
   0.7285533600000000    0.2714466400000000    0.7285533600000000 O
   0.2714466400000000    0.7285533600000000    0.2714466400000000 O
   0.7285533600000000    0.2714466400000000    0.2714466400000000 O
   0.2714466400000000    0.2714466400000000    0.7285533600000000 O
   0.2714466400000000    0.7285533600000000    0.7285533600000000 O
