Mg4 N8 O24
1.0
   7.5539785600000000    0.0000000000000000    0.0000000000000000
   0.0000000000000000    7.5539785600000000    0.0000000000000000
   0.0000000000000000    0.0000000000000000    7.5539785600000000
Mg N O
4 8 24
direct
   0.5000000000000000    0.5000000000000000    0.5000000000000000 Mg
   0.5000000000000000    0.0000000000000000    0.0000000000000000 Mg
   0.0000000000000000    0.5000000000000000    0.0000000000000000 Mg
   0.0000000000000000    0.0000000000000000    0.5000000000000000 Mg
   0.6773710600000000    0.1773710600000000    0.3226289400000000 N
   0.6773710600000000    0.3226289400000000    0.8226289400000000 N
   0.8226289400000000    0.8226289400000000    0.8226289400000000 N
   0.8226289400000000    0.6773710600000000    0.3226289400000000 N
   0.1773710600000000    0.1773710600000000    0.1773710600000000 N
   0.1773710600000000    0.3226289400000000    0.6773710600000000 N
   0.3226289400000000    0.6773710600000000    0.1773710600000000 N
   0.3226289400000000    0.8226289400000000    0.6773710600000000 N
   0.5605681200000000    0.2043018000000000    0.8236632100000000 O
   0.5605681200000000    0.2956982000000000    0.3236632100000000 O
   0.6763367900000000    0.4394318800000000    0.7043018000000000 O
   0.6763367900000000    0.0605681200000000    0.2043018000000000 O
   0.7043018000000000    0.6763367900000000    0.4394318800000000 O
   0.7043018000000000    0.8236632100000000    0.9394318800000000 O
   0.7956982000000000    0.3236632100000000    0.9394318800000000 O
   0.7956982000000000    0.1763367900000000    0.4394318800000000 O
   0.8236632100000000    0.9394318800000000    0.7043018000000000 O
   0.8236632100000000    0.5605681200000000    0.2043018000000000 O
   0.9394318800000000    0.7043018000000000    0.8236632100000000 O
   0.9394318800000000    0.7956982000000000    0.3236632100000000 O
   0.0605681200000000    0.2043018000000000    0.6763367900000000 O
   0.0605681200000000    0.2956982000000000    0.1763367900000000 O
   0.1763367900000000    0.4394318800000000    0.7956982000000000 O
   0.1763367900000000    0.0605681200000000    0.2956982000000000 O
   0.2043018000000000    0.6763367900000000    0.0605681200000000 O
   0.2043018000000000    0.8236632100000000    0.5605681200000000 O
   0.2956982000000000    0.1763367900000000    0.0605681200000000 O
   0.2956982000000000    0.3236632100000000    0.5605681200000000 O
   0.3236632100000000    0.5605681200000000    0.2956982000000000 O
   0.3236632100000000    0.9394318800000000    0.7956982000000000 O
   0.4394318800000000    0.7043018000000000    0.6763367900000000 O
   0.4394318800000000    0.7956982000000000    0.1763367900000000 O
