Cd1 As2 O6
1.0
   4.8799955700000002   -0.0000000000000000    0.0000000000000000
  -2.4399972900000000    4.2261996399999999    0.0000000000000000
   0.0000000000000000    0.0000000000000000    4.8890093400000003
Cd As O
1 2 6
direct
   0.0000000000000000    0.0000000000000000    0.0000000000000000 Cd
   0.6666670000000000    0.3333330000000000    0.5000000000000000 As
   0.3333330000000000    0.6666670000000000    0.5000000000000000 As
   0.6244131000000001    0.6244131000000001    0.7117907200000000 O
   0.3755869000000000    0.0000000000000000    0.7117907200000000 O
   1.0000000000000000    0.3755869000000000    0.7117907200000000 O
   0.6244131000000001    1.0000000000000000    0.2882092800000000 O
   0.0000000000000000    0.6244131000000001    0.2882092800000000 O
   0.3755869000000000    0.3755869000000000    0.2882092800000000 O
