Na4 Tl2 P2 C2 O14
1.0
   5.2190313399999999    0.0000000000000000   -0.0490159600000000
   0.0000000000000000    6.8356395000000001    0.0000000000000000
  -0.1017373400000000    0.0000000000000000    9.1483993199999993
Na Tl P C O
4 2 2 2 14
direct
   0.7659801800000000    0.4997515500000000    0.2125363100000000 Na
   0.7659801800000000    0.0002484500000000    0.2125363100000000 Na
   0.2340198200000000    0.5002484500000000    0.7874636900000000 Na
   0.2340198200000000    0.9997515500000000    0.7874636900000000 Na
   0.2269937900000000    0.2500000000000000    0.3729981800000000 Tl
   0.7730062100000000    0.7500000000000000    0.6270018200000000 Tl
   0.2750634600000000    0.7500000000000000    0.4165505200000000 P
   0.7249365400000000    0.2500000000000000    0.5834494800000000 P
   0.2648732800000000    0.2500000000000000    0.0762438800000000 C
   0.7351267200000000    0.7500000000000000    0.9237561200000000 C
   0.6960974300000000    0.7500000000000000    0.0591169500000000 O
   0.0385199000000000    0.2500000000000000    0.1331994000000000 O
   0.4625833400000000    0.2500000000000000    0.1713485600000000 O
   0.1645067700000000    0.9300152699999999    0.3357839800000000 O
   0.1645067700000000    0.5699847300000001    0.3357839800000000 O
   0.7976406700000001    0.2500000000000000    0.4192342200000000 O
   0.5767104300000000    0.7500000000000000    0.4110253300000000 O
   0.4232895700000000    0.2500000000000000    0.5889746700000000 O
   0.2023593300000000    0.7500000000000000    0.5807657800000000 O
   0.8354932300000000    0.4300152700000000    0.6642160200000000 O
   0.8354932300000000    0.0699847300000000    0.6642160200000000 O
   0.5374166600000000    0.7500000000000000    0.8286514400000000 O
   0.9614800999999999    0.7500000000000000    0.8668006000000000 O
   0.3039025700000000    0.2500000000000000    0.9408830500000001 O
