Na4 Ca2 P4 O14
1.0
   5.3714343900000001   -0.0134552300000000   -0.0023309500000000
   0.1167741500000000    7.0694154800000000    0.0666355000000000
   0.1223181300000000    3.1691677500000002    8.2582526200000004
Na Ca P O
4 2 4 14
direct
   0.2389448600000000    0.8685452100000000    0.5567847400000000 Na
   0.7281923000000000    0.2024848000000000    0.0104139700000000 Na
   0.7610551400000000    0.1314547900000000    0.4432152600000000 Na
   0.2718077000000000    0.7975152000000000    0.9895860300000000 Na
   0.2370100000000000    0.2494443200000000    0.7158327200000000 Ca
   0.7629899999999999    0.7505556799999999    0.2841672800000000 Ca
   0.2449496300000000    0.1186844400000000    0.1717474900000000 P
   0.7550503700000000    0.8813155600000000    0.8282525100000000 P
   0.2878669000000000    0.4274136500000000    0.3114902400000000 P
   0.7121331000000000    0.5725863500000000    0.6885097600000000 P
   0.5510922000000000    0.0021261100000000    0.7116824500000000 O
   0.7118747200000000    0.8682968000000000    0.0030088400000000 O
   0.1523109100000000    0.6320614700000000    0.2496931200000000 O
   0.7268736000000000    0.6450056100000000    0.8446719100000000 O
   0.0201205300000000    0.9433274200000000    0.7677693700000000 O
   0.4347911200000000    0.5541666100000000    0.6609685700000000 O
   0.8393676500000000    0.7362872400000000    0.5449351700000000 O
   0.5652088800000000    0.4458333900000000    0.3390314300000000 O
   0.8476890900000000    0.3679385300000000    0.7503068800000000 O
   0.9798794700000000    0.0566725800000000    0.2322306300000000 O
   0.2731264000000000    0.3549943900000000    0.1553280900000000 O
   0.2881252800000000    0.1317032000000000    0.9969911600000000 O
   0.4489078000000000    0.9978738900000000    0.2883175500000000 O
   0.1606323500000000    0.2637127600000000    0.4550648300000000 O
