Rb2 Y2 Mo4 O16
1.0
   5.3074710800000000   -5.1876857799999998    0.0230438600000000
   5.3074710800000000    5.1876857799999998    0.0230438600000000
  -4.9852952600000000    0.0000000000000000    5.7512685399999999
Rb Y Mo O
2 2 4 16
direct
   0.8031674800000000    0.1968325200000000    0.7500000000000000 Rb
   0.1968325200000000    0.8031674800000000    0.2500000000000000 Rb
   0.2299146200000000    0.7700853800000000    0.7500000000000000 Y
   0.7700853800000000    0.2299146200000000    0.2500000000000000 Y
   0.3036458200000000    0.3052155300000000    0.7640395600000000 Mo
   0.6963541800000000    0.6947844700000000    0.2359604400000000 Mo
   0.6947844700000000    0.6963541800000000    0.7359604400000000 Mo
   0.3052155300000000    0.3036458200000000    0.2640395600000000 Mo
   0.3853482700000000    0.2353607600000000    0.5596597900000000 O
   0.6146517300000000    0.7646392400000001    0.4403402100000000 O
   0.7646392400000001    0.6146517300000000    0.9403402100000000 O
   0.2353607600000000    0.3853482700000000    0.0596597900000000 O
   0.6136642200000000    0.9330706000000000    0.8755766699999999 O
   0.3863357800000000    0.0669294000000000    0.1244233300000000 O
   0.0669294000000000    0.3863357800000000    0.6244233300000001 O
   0.9330706000000000    0.6136642200000000    0.3755766700000000 O
   0.4140880500000000    0.6324198000000000    0.9701788600000000 O
   0.5859119500000000    0.3675802000000000    0.0298211400000000 O
   0.3675802000000000    0.5859119500000000    0.5298211400000000 O
   0.6324198000000000    0.4140880500000000    0.4701788600000000 O
   0.2050152700000000    0.0472087200000000    0.6936056800000000 O
   0.7949847300000000    0.9527912800000000    0.3063943200000000 O
   0.9527912800000000    0.7949847300000000    0.8063943200000000 O
   0.0472087200000000    0.2050152700000000    0.1936056800000000 O
