Na2 O1
1.0
   0.0000000000000000    2.7359377899999999    2.7359377899999999
   2.7359377899999999    0.0000000000000000    2.7359377899999999
   2.7359377899999999    2.7359377899999999    0.0000000000000000
Na O
2 1
direct
   0.7500000000000000    0.7500000000000000    0.7500000000000000 Na
   0.2500000000000000    0.2500000000000000    0.2500000000000000 Na
   0.0000000000000000    0.0000000000000000    0.0000000000000000 O
