Rb12 Ti4 O14
1.0
   6.8258848499999996    0.0000000000000000   -0.0147082800000000
   0.0000000000000000    9.6377922500000004    0.0000000000000000
  -6.4327793399999997    0.0000000000000000    9.7666313000000002
Rb Ti O
12 4 14
direct
   0.5934564700000000    0.7924744400000000    0.7187537600000000 Rb
   0.9489353900000000    0.6532490800000000    0.0707107900000000 Rb
   0.2049755900000000    0.5260973000000000    0.4533821700000000 Rb
   0.7950244100000000    0.0260973000000000    0.0466178300000000 Rb
   0.4065435300000000    0.2924744400000000    0.7812462400000000 Rb
   0.0510646100000000    0.1532490800000000    0.4292892100000000 Rb
   0.9489353900000000    0.8467509200000000    0.5707107900000000 Rb
   0.5934564700000000    0.7075255600000000    0.2187537600000000 Rb
   0.2049755900000000    0.9739027000000000    0.9533821700000000 Rb
   0.7950244100000000    0.4739027000000000    0.5466178300000000 Rb
   0.0510646100000000    0.3467509200000000    0.9292892100000000 Rb
   0.4065435300000000    0.2075255600000000    0.2812462400000000 Rb
   0.3128157800000000    0.8577427800000000    0.3682051700000000 Ti
   0.6871842200000000    0.3577427800000000    0.1317948300000000 Ti
   0.3128157800000000    0.6422572200000000    0.8682051700000000 Ti
   0.6871842200000000    0.1422572200000000    0.6317948300000000 Ti
   0.5000000000000000    0.0000000000000000    0.5000000000000000 O
   0.7571461000000000    0.0951584200000000    0.8030543300000000 O
   0.4976002100000000    0.2970846600000000    0.5717626200000000 O
   0.9566854700000000    0.3274667100000000    0.1338465000000000 O
   0.0433145300000000    0.8274667100000000    0.3661535000000000 O
   0.5023997900000000    0.7970846600000000    0.9282373800000000 O
   0.2428539000000000    0.5951584200000000    0.6969456700000000 O
   0.5000000000000000    0.5000000000000000    0.0000000000000000 O
   0.7571461000000000    0.4048415800000000    0.3030543300000000 O
   0.4976002100000000    0.2029153400000000    0.0717626200000000 O
   0.9566854700000000    0.1725332900000000    0.6338465000000000 O
   0.0433145300000000    0.6725332900000000    0.8661535000000000 O
   0.5023997900000000    0.7029153400000000    0.4282373800000000 O
   0.2428539000000000    0.9048415800000000    0.1969456700000000 O
