Ba2 Si8 O18
1.0
   6.5152859899999997    0.0000000000000000    0.0000000000000000
  -3.2576429999999998    5.6424033600000003    0.0000000000000000
   0.0000000000000000    0.0000000000000000    9.4247045800000002
Ba Si O
2 8 18
direct
   0.6666670000000000    0.3333330000000000    0.5000000000000000 Ba
   0.6666670000000000    0.3333330000000000    0.0000000000000000 Ba
   0.0888341300000000    0.7873643400000000    0.7500000000000000 Si
   0.2126356600000000    0.3014697800000000    0.7500000000000000 Si
   0.6985302200000000    0.9111658700000000    0.7500000000000000 Si
   0.6985302200000000    0.7873643400000000    0.2500000000000000 Si
   0.2126356600000000    0.9111658700000000    0.2500000000000000 Si
   0.0888341300000000    0.3014697800000000    0.2500000000000000 Si
   0.3333330000000000    0.6666670000000000    0.5000000000000000 Si
   0.3333330000000000    0.6666670000000000    0.0000000000000000 Si
   0.5561197800000000    0.8953405600000000    0.6065147500000000 O
   0.1046594400000000    0.4438802200000000    0.3934852500000000 O
   0.1046594400000000    0.6607792100000000    0.6065147500000000 O
   0.3392207900000000    0.4438802200000000    0.6065147500000000 O
   0.1046594400000000    0.6607792100000000    0.8934852500000000 O
   0.3392207900000000    0.4438802200000000    0.8934852500000000 O
   0.5561197800000000    0.8953405600000000    0.8934852500000000 O
   0.3392207900000000    0.8953405600000000    0.1065147500000000 O
   0.5561197800000000    0.6607792100000000    0.1065147500000000 O
   0.5561197800000000    0.6607792100000000    0.3934852500000000 O
   0.9226586500000000    0.7337385800000000    0.2500000000000000 O
   0.8110799300000000    0.0773413500000000    0.2500000000000000 O
   0.2662614200000000    0.1889200700000000    0.2500000000000000 O
   0.2662614200000000    0.0773413500000000    0.7500000000000000 O
   0.8110799300000000    0.7337385800000000    0.7500000000000000 O
   0.9226586500000000    0.1889200700000000    0.7500000000000000 O
   0.1046594400000000    0.4438802200000000    0.1065147500000000 O
   0.3392207900000000    0.8953405600000000    0.3934852500000000 O
