Rb4 Ta2 Cu2 S8
1.0
   0.0000000000000000    6.7241090500000000   11.8032934500000000
   2.7862178100000001    0.0000000000000000   11.8032934500000000
   2.7862178100000001    6.7241090500000000    0.0000000000000000
Rb Ta Cu S
4 2 2 8
direct
   0.3214828700000000    0.3214828700000000    0.6785171300000000 Rb
   0.6785171300000000    0.6785171300000000    0.3214828700000000 Rb
   0.9285171300000000    0.9285171300000000    0.5714828700000000 Rb
   0.5714828700000000    0.5714828700000000    0.9285171300000000 Rb
   0.5000000000000000    0.5000000000000000    0.5000000000000000 Ta
   0.7500000000000000    0.7500000000000000    0.7500000000000000 Ta
   0.0000000000000000    0.0000000000000000    0.0000000000000000 Cu
   0.2500000000000000    0.2500000000000000    0.2500000000000000 Cu
   0.2973305500000000    0.5931333900000000    0.8982422400000000 S
   0.2112938200000000    0.8982422400000000    0.5931333900000000 S
   0.8982422400000000    0.2112938200000000    0.2973305500000000 S
   0.5931333900000000    0.2973305500000000    0.2112938200000000 S
   0.6568666100000000    0.9526694500000000    0.0387061800000000 S
   0.3517577600000000    0.0387061800000000    0.9526694500000000 S
   0.0387061800000000    0.3517577600000000    0.6568666100000000 S
   0.9526694500000000    0.6568666100000000    0.3517577600000000 S
