Rb2 Al2 Sb2 O7
1.0
   5.6864154700000000    0.0000000000000000    0.0000000000000000
  -2.8432082300000001    4.9245807299999997    0.0000000000000000
   0.0000000000000000    0.0000000000000000    8.3904673600000006
Rb Al Sb O
2 2 2 7
direct
   0.6666670000000000    0.3333330000000000    0.4072271500000000 Rb
   0.3333330000000000    0.6666670000000000    0.5927728500000000 Rb
   0.0000000000000000    0.0000000000000000    0.7951023300000000 Al
   0.0000000000000000    0.0000000000000000    0.2048976700000000 Al
   0.3333330000000000    0.6666670000000000    0.1517979700000000 Sb
   0.6666670000000000    0.3333330000000000    0.8482020300000001 Sb
   0.3360463300000000    0.1680231600000000    0.7175844300000001 O
   0.1680231600000000    0.8319768400000001    0.2824155700000000 O
   0.8319768400000001    0.1680231600000000    0.7175844300000001 O
   0.8319768400000001    0.6639536700000001    0.7175844300000001 O
   0.6639536700000001    0.8319768400000001    0.2824155700000000 O
   0.0000000000000000    0.0000000000000000    0.0000000000000000 O
   0.1680231600000000    0.3360463300000000    0.2824155700000000 O
