Cs2 Au2 Se2
1.0
   3.5509362400000000   -4.2839420099999996    0.0000000000000000
   3.5509362400000000    4.2839420099999996    0.0000000000000000
   0.0000000000000000    0.0000000000000000    6.8464001000000003
Cs Au Se
2 2 2
direct
   0.6309373100000000    0.3690626900000000    0.7500000000000000 Cs
   0.3690626900000000    0.6309373100000000    0.2500000000000000 Cs
   0.0000000000000000    0.0000000000000000    0.5000000000000000 Au
   0.0000000000000000    0.0000000000000000    0.0000000000000000 Au
   0.1995761800000000    0.8004238200000000    0.7500000000000000 Se
   0.8004238200000000    0.1995761800000000    0.2500000000000000 Se
