Na6 In4 As6 O24
1.0
   6.3064895500000002   -6.6482455700000003   -0.0162134200000000
   6.3064895500000002    6.6482455700000003   -0.0162134200000000
  -2.7984396299999998    0.0000000000000000    6.3090159799999999
Na In As O
6 4 6 24
direct
   0.5000000000000000    0.5000000000000000    0.5000000000000000 Na
   0.7207422000000000    0.2792578000000000    0.7500000000000000 Na
   0.9755167100000000    0.0244832900000000    0.7500000000000000 Na
   0.0244832900000000    0.9755167100000000    0.2500000000000000 Na
   0.2792578000000000    0.7207422000000000    0.2500000000000000 Na
   0.5000000000000000    0.5000000000000000    0.0000000000000000 Na
   0.0639593300000000    0.3759230900000000    0.6418355400000000 In
   0.3759230900000000    0.0639593300000000    0.1418355400000000 In
   0.9360406700000000    0.6240769100000000    0.3581644600000000 In
   0.6240769100000000    0.9360406700000000    0.8581644600000000 In
   0.6590105900000000    0.8681938400000000    0.3688098500000000 As
   0.2812067700000000    0.7187932299999999    0.7500000000000000 As
   0.8681938400000000    0.6590105900000000    0.8688098500000000 As
   0.7187932299999999    0.2812067700000000    0.2500000000000000 As
   0.3409894100000000    0.1318061600000000    0.6311901500000000 As
   0.1318061600000000    0.3409894100000000    0.1311901500000000 As
   0.1560657400000000    0.1515591700000000    0.1124721600000000 O
   0.3275611000000000    0.9953077000000000    0.3952810200000000 O
   0.8484408300000000    0.8439342600000000    0.3875278400000000 O
   0.0046923000000000    0.6724389000000000    0.1047189800000000 O
   0.1644340400000000    0.7481227900000000    0.5268897700000000 O
   0.5427012800000000    0.7055084800000000    0.3152424200000000 O
   0.0438893900000000    0.4053664000000000    0.3267362400000000 O
   0.9953077000000000    0.3275611000000000    0.8952810200000000 O
   0.5946336000000000    0.9561106100000000    0.1732637600000000 O
   0.7314470500000000    0.4639912600000000    0.2293966100000000 O
   0.9561106100000000    0.5946336000000000    0.6732637600000000 O
   0.5360087400000000    0.2685529500000000    0.2706033900000000 O
   0.8439342600000000    0.8484408300000000    0.8875278400000000 O
   0.4053664000000000    0.0438893900000000    0.8267362400000000 O
   0.4572987200000000    0.2944915200000000    0.6847575800000000 O
   0.4639912600000000    0.7314470500000000    0.7293966100000000 O
   0.7481227900000000    0.1644340400000000    0.0268897700000000 O
   0.2518772100000000    0.8355659600000001    0.9731102300000000 O
   0.6724389000000000    0.0046923000000000    0.6047189800000000 O
   0.7055084800000000    0.5427012800000000    0.8152424200000000 O
   0.2685529500000000    0.5360087400000000    0.7706033900000000 O
   0.1515591700000000    0.1560657400000000    0.6124721600000000 O
   0.8355659600000001    0.2518772100000000    0.4731102300000000 O
   0.2944915200000000    0.4572987200000000    0.1847575800000000 O
