Li4 Cd2 Ge2 O8
1.0
   6.6487355600000004    0.0000000000000000    0.0000000000000000
   0.0000000000000000    5.5006466800000000    0.0000000000000000
   0.0000000000000000    0.0000000000000000    5.1701135999999996
Li Cd Ge O
4 2 2 8
direct
   0.7496967500000000    0.6695901600000000    0.6290917200000000 Li
   0.2503032500000000    0.6695901600000000    0.6290917200000000 Li
   0.7503032500000000    0.3304098400000000    0.1290917200000000 Li
   0.2496967500000000    0.3304098400000000    0.1290917200000000 Li
   0.5000000000000000    0.8215276800000000    0.1318209100000000 Cd
   0.0000000000000000    0.1784723200000000    0.6318209100000000 Cd
   0.0000000000000000    0.8158642000000000    0.1228694800000000 Ge
   0.5000000000000000    0.1841358000000000    0.6228694800000000 Ge
   0.5000000000000000    0.8655731500000000    0.7043500700000001 O
   0.0000000000000000    0.1344268500000000    0.2043500700000000 O
   0.7844609800000000    0.6633327500000000    0.2524489300000000 O
   0.2155390200000000    0.6633327500000000    0.2524489300000000 O
   0.7155390200000000    0.3366672500000000    0.7524489300000000 O
   0.2844609800000000    0.3366672500000000    0.7524489300000000 O
   0.0000000000000000    0.7969839399999999    0.7767502300000000 O
   0.5000000000000000    0.2030160600000000    0.2767502300000000 O
