Cd8 Te8 O24
1.0
   7.8260142200000002    0.0000000000000000    0.0494803800000000
   0.0000000000000000   11.1755237399999992    0.0000000000000000
  -2.9725568400000002    0.0000000000000000    6.7306955500000001
Cd Te O
8 8 24
direct
   0.7311141400000000    0.0098447000000000    0.6908669300000000 Cd
   0.2688858600000000    0.5098447000000000    0.8091330700000000 Cd
   0.2688858600000000    0.9901553000000000    0.3091330700000000 Cd
   0.7311141400000000    0.4901553000000000    0.1908669300000000 Cd
   0.9994001900000000    0.2316335400000000    0.0308352000000000 Cd
   0.0005998100000000    0.7316335400000000    0.4691648000000000 Cd
   0.0005998100000000    0.7683664600000000    0.9691648000000000 Cd
   0.9994001900000000    0.2683664600000000    0.5308352000000000 Cd
   0.4988050700000000    0.2517360800000000    0.8711654800000000 Te
   0.5011949300000000    0.7517360800000000    0.6288345200000000 Te
   0.5011949300000000    0.7482639200000000    0.1288345200000000 Te
   0.4988050700000000    0.2482639200000000    0.3711654800000000 Te
   0.1697141100000000    0.0006343100000000    0.7546985400000000 Te
   0.8302858900000000    0.5006343100000000    0.7453014600000000 Te
   0.8302858900000000    0.9993656900000000    0.2453014600000000 Te
   0.1697141100000000    0.4993656900000000    0.2546985400000000 Te
   0.7970761300000000    0.0808600700000000    0.0064231700000000 O
   0.2029238700000000    0.5808600700000000    0.4935768300000000 O
   0.2029238700000000    0.9191399300000000    0.9935768300000000 O
   0.7970761300000000    0.4191399300000000    0.5064231700000000 O
   0.4909794900000000    0.3679836100000000    0.0661735900000000 O
   0.5090205100000000    0.8679836100000000    0.4338264100000000 O
   0.5090205100000000    0.6320163900000000    0.9338264100000000 O
   0.4909794900000000    0.1320163900000000    0.5661735900000000 O
   0.3039094000000000    0.1651926900000000    0.1659514400000000 O
   0.6960906000000000    0.6651926900000000    0.3340485600000000 O
   0.6960906000000000    0.8348073100000000    0.8340485600000000 O
   0.3039094000000000    0.3348073100000000    0.6659514400000000 O
   0.0051650300000000    0.3704340700000000    0.2646233400000000 O
   0.9948349700000000    0.8704340699999999    0.2353766600000000 O
   0.9948349700000000    0.6295659300000001    0.7353766600000000 O
   0.0051650300000000    0.1295659300000000    0.7646233400000000 O
   0.0509675400000000    0.4104707600000000    0.8912720300000000 O
   0.9490324600000000    0.9104707600000000    0.6087279700000000 O
   0.9490324600000000    0.5895292400000000    0.1087279700000000 O
   0.0509675400000000    0.0895292400000000    0.3912720300000000 O
   0.7053614000000000    0.3257560000000000    0.8448030500000000 O
   0.2946386000000000    0.8257560000000000    0.6551969500000000 O
   0.2946386000000000    0.6742440000000000    0.1551969500000000 O
   0.7053614000000000    0.1742440000000000    0.3448030500000000 O
