Ba9 Sb6 O18
1.0
   6.1637549900000002    0.0038738100000000   -0.0046901000000000
  -3.0471596700000001    9.2856231299999994   -0.0343778200000000
  -0.0960471300000000   -3.3737400700000002   11.6084999000000000
Ba Sb O
9 6 18
direct
   0.6096301800000000    0.2081799100000000    0.0581226300000000 Ba
   0.2220055800000000    0.3980289500000000    0.7038224700000000 Ba
   0.3903698200000000    0.7918200900000000    0.9418773700000000 Ba
   0.7779944200000000    0.6019710500000000    0.2961775300000000 Ba
   0.5160854000000000    0.0334512100000000    0.7007309800000000 Ba
   0.4839146000000000    0.9665487900000000    0.2992690200000000 Ba
   0.8506793700000000    0.7253179600000000    0.7137588900000000 Ba
   0.1493206300000000    0.2746820400000000    0.2862411100000000 Ba
   0.0000000000000000    0.0000000000000000    0.5000000000000000 Ba
   0.7649431900000000    0.5074718000000000    0.9220005500000000 Sb
   0.2350568100000000    0.4925282000000000    0.0779994500000000 Sb
   0.0490584200000000    0.1025491700000000    0.8804277400000000 Sb
   0.9509415800000000    0.8974508300000000    0.1195722600000000 Sb
   0.6855412600000000    0.3379478400000000    0.5085030900000000 Sb
   0.3144587400000000    0.6620521600000000    0.4914969100000000 Sb
   0.4376776600000000    0.1616176100000000    0.5231404300000000 O
   0.5623223400000000    0.8383823900000000    0.4768595700000000 O
   0.6039876700000000    0.3227033600000000    0.3490527700000000 O
   0.3960123300000000    0.6772966400000000    0.6509472300000000 O
   0.9371220600000000    0.2523568000000000    0.4863212200000000 O
   0.0628779400000000    0.7476432000000000    0.5136787800000000 O
   0.6204880800000000    0.2912143800000000    0.8506064700000000 O
   0.3795119200000000    0.7087856200000000    0.1493935300000000 O
   0.5652368000000000    0.5832484400000000    0.8449697900000001 O
   0.4347632000000000    0.4167515600000000    0.1550302100000000 O
   0.0119575200000000    0.5663851600000001    0.8235447299999999 O
   0.7900194699999999    0.0464412300000000    0.1544130700000000 O
   0.2099805300000000    0.9535587700000000    0.8455869300000000 O
   0.2649624300000000    0.0375211300000000    0.1365374500000000 O
   0.7350375700000000    0.9624788700000000    0.8634625500000001 O
   0.9755722500000000    0.8857493100000000    0.2792161700000000 O
   0.0244277500000000    0.1142506900000000    0.7207838300000000 O
   0.9880424799999999    0.4336148400000000    0.1764552700000000 O
