Ba6 Na2 Sb2 O12
1.0
   5.1275175700000002    2.9603735499999999    3.9804757799999999
  -5.1275175700000002    2.9603735499999999    3.9804757799999999
   0.0000000000000000   -5.9207480900000000    3.9804757700000000
Ba Na Sb O
6 2 2 12
direct
   0.6010338800000000    0.8989661200000000    0.2500000000000000 Ba
   0.2500000000000000    0.6010338800000000    0.8989661200000000 Ba
   0.8989661200000000    0.2500000000000000    0.6010338800000000 Ba
   0.1010338800000000    0.7500000000000000    0.3989661200000000 Ba
   0.3989661200000000    0.1010338800000000    0.7500000000000000 Ba
   0.7500000000000000    0.3989661200000000    0.1010338800000000 Ba
   0.2500000000000000    0.2500000000000000    0.2500000000000000 Na
   0.7500000000000000    0.7500000000000000    0.7500000000000000 Na
   0.0000000000000000    0.0000000000000000    0.0000000000000000 Sb
   0.5000000000000000    0.5000000000000000    0.5000000000000000 Sb
   0.0824945100000000    0.2682719700000000    0.9487127900000000 O
   0.9487127900000000    0.0824945100000000    0.2682719700000000 O
   0.2682719700000000    0.9487127900000000    0.0824945100000000 O
   0.5824945100000000    0.4487127900000000    0.7682719700000000 O
   0.7682719700000000    0.5824945100000000    0.4487127900000000 O
   0.4487127900000000    0.7682719700000000    0.5824945100000000 O
   0.9175054900000000    0.7317280300000000    0.0512872100000000 O
   0.0512872100000000    0.9175054900000000    0.7317280300000000 O
   0.7317280300000000    0.0512872100000000    0.9175054900000000 O
   0.4175054900000000    0.5512872100000000    0.2317280300000000 O
   0.2317280300000000    0.4175054900000000    0.5512872100000000 O
   0.5512872100000000    0.2317280300000000    0.4175054900000000 O
