Na6 V2 S2 O6
1.0
   4.2451047500000003    2.4509129100000000    4.0042307700000004
  -4.2451047500000003    2.4509129100000000    4.0042307700000004
   0.0000000000000000   -4.9018248599999996    4.0042307900000003
Na V S O
6 2 2 6
direct
   0.7097875300000001    0.4014947600000000    0.0878980000000000 Na
   0.5878980000000000    0.9014947600000000    0.2097875300000000 Na
   0.2097875300000000    0.5878980000000000    0.9014947600000000 Na
   0.4014947600000000    0.0878980000000000    0.7097875300000001 Na
   0.0878980000000000    0.7097875300000001    0.4014947600000000 Na
   0.9014947600000000    0.2097875300000000    0.5878980000000000 Na
   0.6814183500000000    0.6814183500000000    0.6814183500000000 V
   0.1814183500000000    0.1814183500000000    0.1814183500000000 V
   0.4966410800000000    0.4966410800000000    0.4966410800000000 S
   0.9966410800000000    0.9966410800000000    0.9966410800000000 S
   0.5348139200000001    0.7242254900000000    0.9179098600000000 O
   0.7242254900000000    0.9179098600000000    0.5348139200000001 O
   0.9179098600000000    0.5348139200000001    0.7242254900000000 O
   0.2242254900000000    0.0348139200000000    0.4179098600000000 O
   0.4179098600000000    0.2242254900000000    0.0348139200000000 O
   0.0348139200000000    0.4179098600000000    0.2242254900000000 O
