Ba3 Cu6 Ge3 Se12
1.0
   6.4723945299999999    0.0000000000000000    0.0000000000000000
  -3.2361972699999999    5.6052575700000000    0.0000000000000000
   0.0000000000000000    0.0000000000000000   16.1761614199999997
Ba Cu Ge Se
3 6 3 12
direct
   0.4513013600000000    0.0000000000000000    0.3333330000000000 Ba
   0.5486986400000000    0.5486986400000000    0.0000000000000000 Ba
   1.0000000000000000    0.4513013600000000    0.6666670000000000 Ba
   0.0754065000000000    0.4286421900000000    0.4217845500000000 Cu
   0.3532356900000000    0.9245935000000000    0.0884515500000000 Cu
   0.5713578100000000    0.6467643100000000    0.7551185500000001 Cu
   0.9245935000000000    0.3532356900000000    0.9115484500000000 Cu
   0.4286421900000000    0.0754065000000000    0.5782154500000000 Cu
   0.6467643100000000    0.5713578100000000    0.2448814500000000 Cu
   1.0000000000000000    0.2875152200000000    0.1666670000000000 Ge
   0.2875152200000000    0.0000000000000000    0.8333330000000000 Ge
   0.7124847800000000    0.7124847800000000    0.5000000000000000 Ge
   0.5324128299999999    0.0384139700000000    0.9492711000000000 Se
   0.5060011300000000    0.4675871700000000    0.6159371000000000 Se
   0.9615860300000000    0.4939988700000000    0.2826041000000000 Se
   0.8933657699999999    0.6620157900000000    0.8365410900000000 Se
   0.2313499800000000    0.3379842100000000    0.8301249100000000 Se
   0.1066342300000000    0.7686500200000000    0.4967919100000000 Se
   0.7686500200000000    0.1066342300000000    0.5032080900000000 Se
   0.4675871700000000    0.5060011300000000    0.3840629000000000 Se
   0.3379842100000000    0.2313499800000000    0.1698750900000000 Se
   0.0384139700000000    0.5324128299999999    0.0507289000000000 Se
   0.4939988700000000    0.9615860300000000    0.7173959000000000 Se
   0.6620157900000000    0.8933657699999999    0.1634589100000000 Se
