Rb4 Li4 Si2 O8
1.0
   5.4646715700000001    0.0038358000000000    0.0228447200000000
   0.4272144100000000    5.6260102700000001    0.0049742200000000
   2.2445554799999998    0.8056586800000000    8.2987306200000006
Rb Li Si O
4 4 2 8
direct
   0.4753027900000000    0.8488855199999999    0.7356155500000000 Rb
   0.5246972100000000    0.1511144800000000    0.2643844500000000 Rb
   0.7911910400000000    0.7256453700000000    0.0208271900000000 Rb
   0.2088089600000000    0.2743546300000000    0.9791728100000000 Rb
   0.9289837700000000    0.1866983300000000    0.4382731300000000 Li
   0.0710162300000000    0.8133016700000000    0.5617268700000000 Li
   0.6974019900000000    0.5939899300000000    0.4191214100000000 Li
   0.3025980100000000    0.4060100700000000    0.5808785900000000 Li
   0.1476196000000000    0.6877894800000000    0.2773729800000000 Si
   0.8523804000000000    0.3122105200000000    0.7226270200000000 Si
   0.9981191600000000    0.5594142700000000    0.7218259000000000 O
   0.0018808400000000    0.4405857300000000    0.2781741000000000 O
   0.9177720500000000    0.8681582400000000    0.3798189800000000 O
   0.0822279500000000    0.1318417600000000    0.6201810200000000 O
   0.2724182100000000    0.7970847900000000    0.0928202500000000 O
   0.7275817900000000    0.2029152100000000    0.9071797500000000 O
   0.3614539400000000    0.6422691699999999    0.3861500300000000 O
   0.6385460600000000    0.3577308300000000    0.6138499700000000 O
