Cs2 Sn2 Se6
1.0
   7.0914770000000003    0.0000000000000000    0.0000000000000000
  -2.1476410000000001    7.1782820000000003    0.0000000000000000
  -3.4024969999999999   -2.4209670000000001    6.8303019999999997
Cs Sn Se
2 2 6
direct
   0.2234460000000000    0.1932590000000000    0.8472790000000000 Cs
   0.7765540000000000    0.8067410000000000    0.1527210000000000 Cs
   0.2211090000000000    0.5091599999999999    0.4278260000000000 Sn
   0.7788910000000000    0.4908400000000000    0.5721740000000000 Sn
   0.6607750000000000    0.7808490000000000    0.5668310000000000 Se
   0.1904690000000000    0.6123790000000000    0.1262410000000000 Se
   0.3392250000000000    0.2191510000000000    0.4331690000000000 Se
   0.2298770000000000    0.6983990000000000    0.7310640000000000 Se
   0.7701230000000000    0.3016010000000000    0.2689360000000000 Se
   0.8095310000000000    0.3876210000000000    0.8737590000000000 Se
