La8 Si4 O20
1.0
   9.2624309500000006    0.0000000000000000    0.0166182700000000
   0.0000000000000000    7.5324147999999997    0.0000000000000000
  -2.2522756700000000    0.0000000000000000    6.5967720700000001
La Si O
8 4 20
direct
   0.4877834400000000    0.8748096800000000    0.2665212100000000 La
   0.5122165600000000    0.3748096800000000    0.2334787900000000 La
   0.5122165600000000    0.1251903200000000    0.7334787900000000 La
   0.4877834400000000    0.6251903200000000    0.7665212100000000 La
   0.8891724600000001    0.3435605500000000    0.0940783900000000 La
   0.1108275400000000    0.8435605500000000    0.4059216100000000 La
   0.1108275400000000    0.6564394500000000    0.9059216100000000 La
   0.8891724600000001    0.1564394500000000    0.5940783900000000 La
   0.7989056000000000    0.9237602200000000    0.0425257100000000 Si
   0.2010944000000000    0.4237602200000000    0.4574742900000000 Si
   0.2010944000000000    0.0762397800000000    0.9574742900000000 Si
   0.7989056000000000    0.5762397800000000    0.5425257100000000 Si
   0.6121180800000000    0.1260640000000000    0.4529818800000000 O
   0.3878819200000000    0.6260640000000000    0.0470181200000000 O
   0.3878819200000000    0.8739360000000000    0.5470181200000001 O
   0.6121180800000000    0.3739360000000000    0.9529818799999999 O
   0.9101032500000000    0.7560865500000000    0.0537058500000000 O
   0.0898967500000000    0.2560865500000000    0.4462941500000000 O
   0.0898967500000000    0.2439134500000000    0.9462941499999999 O
   0.9101032500000000    0.7439134500000000    0.5537058500000001 O
   0.6185109200000000    0.8678264500000000    0.9935453900000000 O
   0.3814890800000000    0.3678264500000000    0.5064546100000000 O
   0.3814890800000000    0.1321735500000000    0.0064546100000000 O
   0.6185109200000000    0.6321735500000000    0.4935453900000000 O
   0.7911893600000000    0.4253127200000000    0.3661558200000000 O
   0.2088106400000000    0.9253127200000000    0.1338441800000000 O
   0.2088106400000000    0.5746872800000000    0.6338441800000000 O
   0.7911893600000000    0.0746872800000000    0.8661558200000000 O
   0.8666445200000000    0.4615926100000000    0.7538256400000000 O
   0.1333554800000000    0.9615926100000000    0.7461743600000000 O
   0.1333554800000000    0.5384073900000000    0.2461743600000000 O
   0.8666445200000000    0.0384073900000000    0.2538256400000000 O
