Mg4 P8 O24
1.0
   5.8989166900000001   -4.1345335399999996   -0.0152667800000000
   5.8989166900000001    4.1345335399999996   -0.0152667800000000
  -4.8475139799999996    0.0000000000000000    8.7634573899999992
Mg P O
4 8 24
direct
   0.0533593400000000    0.9466406600000000    0.2500000000000000 Mg
   0.9466406600000000    0.0533593400000000    0.7500000000000000 Mg
   0.0000000000000000    0.5000000000000000    0.0000000000000000 Mg
   0.5000000000000000    0.0000000000000000    0.5000000000000000 Mg
   0.7315290600000000    0.2534298900000000    0.0237832300000000 P
   0.7465701100000000    0.2684709400000000    0.4762167700000000 P
   0.2684709400000000    0.7465701100000000    0.9762167700000000 P
   0.2534298900000000    0.7315290600000000    0.5237832300000000 P
   0.2916617900000000    0.3130254700000000    0.3040558100000000 P
   0.6869745300000000    0.7083382100000000    0.1959441900000000 P
   0.7083382100000000    0.6869745300000000    0.6959441900000000 P
   0.3130254700000000    0.2916617900000000    0.8040558100000000 P
   0.8546522800000000    0.0903833600000000    0.0975249100000000 O
   0.9096166400000000    0.1453477200000000    0.4024750900000000 O
   0.1453477200000000    0.9096166400000000    0.9024750900000000 O
   0.0903833600000000    0.8546522800000000    0.5975249100000000 O
   0.8086348700000000    0.2908587400000000    0.9178513100000000 O
   0.7091412600000000    0.1913651300000000    0.5821486900000000 O
   0.1913651300000000    0.7091412600000000    0.0821486900000000 O
   0.2908587400000000    0.8086348700000000    0.4178513100000000 O
   0.5031544300000000    0.2097467800000000    0.9351601200000000 O
   0.7902532200000000    0.4968455700000000    0.5648398800000000 O
   0.4968455700000000    0.7902532200000000    0.0648398800000000 O
   0.2097467800000000    0.5031544300000000    0.4351601200000000 O
   0.1843549600000000    0.3471188700000000    0.1530493800000000 O
   0.6528811300000000    0.8156450400000000    0.3469506200000000 O
   0.8156450400000000    0.6528811300000000    0.8469506200000000 O
   0.3471188700000000    0.1843549600000000    0.6530493800000000 O
   0.2807802100000000    0.1213873500000000    0.3260462600000000 O
   0.8786126500000000    0.7192197900000000    0.1739537400000000 O
   0.7192197900000000    0.8786126500000000    0.6739537400000000 O
   0.1213873500000000    0.2807802100000000    0.8260462600000000 O
   0.5303555300000000    0.3152545700000000    0.3475219100000000 O
   0.6847454300000000    0.4696444700000000    0.1524780900000000 O
   0.4696444700000000    0.6847454300000000    0.6524780900000000 O
   0.3152545700000000    0.5303555300000000    0.8475219100000000 O
