Sc8 Se12
1.0
   0.0000000000000000    5.3451945900000002   11.3412209300000004
   3.7953471599999999    0.0000000000000000   11.3412209300000004
   3.7953471599999999    5.3451945900000002    0.0000000000000000
Sc Se
8 12
direct
   0.3329130000000000    0.3329130000000000    0.1670870000000000 Sc
   0.1670870000000000    0.1670870000000000    0.3329130000000000 Sc
   0.9170870000000000    0.9170870000000000    0.0829130000000000 Sc
   0.0829130000000000    0.0829130000000000    0.9170870000000000 Sc
   0.9994790300000000    0.9994790300000000    0.5005209700000000 Sc
   0.5005209700000000    0.5005209700000000    0.9994790300000000 Sc
   0.2505209700000000    0.2505209700000000    0.7494790300000000 Sc
   0.7494790300000000    0.7494790300000000    0.2505209700000000 Sc
   0.0002945100000000    0.4997054900000000    0.4997054900000000 Se
   0.4997054900000000    0.0002945100000000    0.0002945100000000 Se
   0.2497054900000000    0.7502945100000000    0.7502945100000000 Se
   0.7502945100000000    0.2497054900000000    0.2497054900000000 Se
   0.6655539600000000    0.1694349900000000    0.8353413900000000 Se
   0.8353413900000000    0.3296696600000000    0.6655539600000000 Se
   0.3296696600000000    0.8353413900000000    0.1694349900000000 Se
   0.1694349900000000    0.6655539600000000    0.3296696600000000 Se
   0.5844460400000000    0.0805650100000000    0.4146586100000000 Se
   0.4146586100000000    0.9203303400000000    0.5844460400000000 Se
   0.9203303400000000    0.4146586100000000    0.0805650100000000 Se
   0.0805650100000000    0.5844460400000000    0.9203303400000000 Se
