Cu6 P2 S8
1.0
   7.1734003099999999    0.0000000000000000    0.0000000000000000
   0.0000000000000000    6.2355750299999997    0.0000000000000000
   0.0000000000000000    0.0000000000000000    5.9814508799999997
Cu P S
6 2 8
direct
   0.7464614500000000    0.8230339700000000    0.0096946000000000 Cu
   0.7535385500000000    0.1769660300000000    0.5096946000000000 Cu
   0.2464614500000000    0.1769660300000000    0.5096946000000000 Cu
   0.2535385500000000    0.8230339700000000    0.0096946000000000 Cu
   0.0000000000000000    0.3494281600000000    0.0002605800000000 Cu
   0.5000000000000000    0.6505718400000000    0.5002605800000000 Cu
   0.0000000000000000    0.6748098000000000    0.4996570800000000 P
   0.5000000000000000    0.3251902000000000    0.9996570800000000 P
   0.5000000000000000    0.3199577000000000    0.3460449400000000 S
   0.0000000000000000    0.6800423000000000    0.8460449400000000 S
   0.5000000000000000    0.6356939300000000    0.8785824900000000 S
   0.0000000000000000    0.3643060700000000    0.3785824900000000 S
   0.7627987800000000    0.8331844200000000    0.3846733500000000 S
   0.7372012200000000    0.1668155800000000    0.8846733500000000 S
   0.2627987800000000    0.1668155800000000    0.8846733500000000 S
   0.2372012200000000    0.8331844200000000    0.3846733500000000 S
