Li5 Sb1 O5
1.0
   4.8446194299999998   -2.0156962300000001   -0.0003299400000000
   4.8446194299999998    2.0156962300000001   -0.0003299400000000
  -1.8844046999999999    0.0000000000000000    5.4973534800000001
Li Sb O
5 1 5
direct
   0.7112687700000000    0.7112687700000000    0.3427129400000000 Li
   0.0000000000000000    0.0000000000000000    0.5000000000000000 Li
   0.3115103600000000    0.3115103600000000    0.1402141000000000 Li
   0.6884896400000000    0.6884896400000000    0.8597859000000000 Li
   0.2887312300000000    0.2887312300000000    0.6572870600000000 Li
   0.0000000000000000    0.0000000000000000    0.0000000000000000 Sb
   0.8549786100000000    0.8549786100000000    0.1742183100000000 O
   0.5000000000000000    0.5000000000000000    0.0000000000000000 O
   0.1577760400000000    0.1577760400000000    0.3186203300000000 O
   0.8422239600000000    0.8422239600000000    0.6813796700000000 O
   0.1450213900000000    0.1450213900000000    0.8257816900000000 O
