Rb4 Be4 P4 O16
1.0
   8.5845391699999993    0.0000000000000000    0.0000000000000000
   0.0000000000000000    8.6254877499999996    0.0000000000000000
   0.0000000000000000    0.0000000000000000    5.0042171499999997
Rb Be P O
4 4 4 16
direct
   0.9971693900000000    0.2942145900000000    0.5081747500000000 Rb
   0.0028306100000000    0.7057854099999999    0.0081747500000000 Rb
   0.4971693900000000    0.2057854100000000    0.5081747500000000 Rb
   0.5028306100000000    0.7942145900000001    0.0081747500000000 Rb
   0.3215376900000000    0.4099962300000000    0.0007152700000000 Be
   0.6784623100000000    0.5900037700000000    0.5007152700000000 Be
   0.8215376900000000    0.0900037700000000    0.0007152700000000 Be
   0.1784623100000000    0.9099962300000000    0.5007152700000000 Be
   0.1864751600000000    0.0824744300000000    0.9994356800000000 P
   0.8135248400000000    0.9175255700000000    0.4994356800000000 P
   0.6864751600000000    0.4175255700000000    0.9994356800000000 P
   0.3135248400000000    0.5824744300000000    0.4994356800000000 P
   0.2591845600000000    0.4576152400000000    0.2967582600000000 O
   0.7408154400000000    0.5423847600000000    0.7967582600000001 O
   0.7591845600000000    0.0423847600000000    0.2967582600000000 O
   0.2408154400000000    0.9576152400000000    0.7967582600000001 O
   0.0089957600000000    0.0979510100000000    0.9960792400000000 O
   0.9910042400000000    0.9020489900000001    0.4960792400000000 O
   0.5089957600000000    0.4020489900000000    0.9960792400000000 O
   0.4910042400000000    0.5979510099999999    0.4960792400000000 O
   0.2439735200000000    0.0355013700000000    0.2812305500000000 O
   0.7560264799999999    0.9644986300000000    0.7812305500000000 O
   0.7439735200000001    0.4644986300000000    0.2812305500000000 O
   0.2560264800000000    0.5355013700000000    0.7812305500000000 O
   0.2409501700000000    0.7386758500000000    0.4191062500000000 O
   0.7590498300000000    0.2613241500000000    0.9191062500000000 O
   0.7409501700000000    0.7613241500000000    0.4191062500000000 O
   0.2590498300000000    0.2386758500000000    0.9191062500000000 O
