In4 Ge4 O14
1.0
   0.0000000000000000    4.9071364500000003    4.9071364500000003
   4.9071364500000003    0.0000000000000000    4.9071364500000003
   4.9071364500000003    4.9071364500000003    0.0000000000000000
In Ge O
4 4 14
direct
   0.6250000000000000    0.6250000000000000    0.1250000000000000 In
   0.6250000000000000    0.1250000000000000    0.6250000000000000 In
   0.6250000000000000    0.6250000000000000    0.6250000000000000 In
   0.1250000000000000    0.6250000000000000    0.6250000000000000 In
   0.1250000000000000    0.6250000000000000    0.1250000000000000 Ge
   0.6250000000000000    0.1250000000000000    0.1250000000000000 Ge
   0.1250000000000000    0.1250000000000000    0.6250000000000000 Ge
   0.1250000000000000    0.1250000000000000    0.1250000000000000 Ge
   0.0443791200000000    0.4556208800000000    0.0443791200000000 O
   0.2056208800000000    0.7943791200000000    0.7943791200000000 O
   0.4556208800000000    0.0443791200000000    0.0443791200000000 O
   0.4556208800000000    0.0443791200000000    0.4556208800000000 O
   0.4556208800000000    0.4556208800000000    0.0443791200000000 O
   0.2056208800000000    0.7943791200000000    0.2056208800000000 O
   0.5000000000000000    0.5000000000000000    0.5000000000000000 O
   0.0443791200000000    0.4556208800000000    0.4556208800000000 O
   0.2056208800000000    0.2056208800000000    0.7943791200000000 O
   0.7943791200000000    0.2056208800000000    0.2056208800000000 O
   0.7500000000000000    0.7500000000000000    0.7500000000000000 O
   0.7943791200000000    0.7943791200000000    0.2056208800000000 O
   0.7943791200000000    0.2056208800000000    0.7943791200000000 O
   0.0443791200000000    0.0443791200000000    0.4556208800000000 O
