Ba2 Cu4 Sn2 Se8
1.0
  11.0224229800000000    0.0000000000000000    0.0000000000000000
   0.0000000000000000    5.5938942699999998    3.3515441199999998
   0.0000000000000000   -5.5938942699999998    3.3515441199999998
Ba Cu Sn Se
2 4 2 8
direct
   0.5000000000000000    0.6322762300000000    0.6322762300000000 Ba
   0.0000000000000000    0.6322762300000000    0.6322762300000000 Ba
   0.1298429000000000    0.0101253300000000    0.4492268400000000 Cu
   0.3701571000000000    0.0101253300000000    0.4492268400000000 Cu
   0.6298429000000000    0.4492268400000000    0.0101253300000000 Cu
   0.8701571000000000    0.4492268400000000    0.0101253300000000 Cu
   0.2500000000000000    0.3774563300000000    0.0787704600000000 Sn
   0.7500000000000000    0.0787704600000000    0.3774563300000000 Sn
   0.7500000000000000    0.4436703700000000    0.3197634500000000 Se
   0.2500000000000000    0.9637798300000000    0.7426599500000000 Se
   0.2500000000000000    0.3197634500000000    0.4436703700000000 Se
   0.7500000000000000    0.7426599500000000    0.9637798300000000 Se
   0.9315900100000000    0.1322226000000000    0.6427283000000000 Se
   0.0684099900000000    0.6427283000000000    0.1322226000000000 Se
   0.5684099900000000    0.1322226000000000    0.6427283000000000 Se
   0.4315900100000000    0.6427283000000000    0.1322226000000000 Se
