Rb2 Sc2 O4
1.0
   3.2228291200000001   -0.0000000000000000    0.0000000000000000
  -1.6114140600000000    2.7910513899999998    0.0000000000000000
   0.0000000000000000    0.0000000000000000   12.6625841599999998
Rb Sc O
2 2 4
direct
   0.6666670000000000    0.3333330000000000    0.2500000000000000 Rb
   0.3333330000000000    0.6666670000000000    0.7500000000000000 Rb
   0.0000000000000000    0.0000000000000000    0.5000000000000000 Sc
   0.0000000000000000    0.0000000000000000    0.0000000000000000 Sc
   0.6666670000000000    0.3333330000000000    0.9156730500000000 O
   0.3333330000000000    0.6666670000000000    0.4156730500000000 O
   0.6666670000000000    0.3333330000000000    0.5843269500000000 O
   0.3333330000000000    0.6666670000000000    0.0843269500000000 O
