Ga4 S4
1.0
   3.5624572799999998   -0.0000000000000000    0.0000000000000000
  -1.7812281400000001    3.0851787000000002    0.0000000000000000
   0.0000000000000000    0.0000000000000000   15.8037696000000008
Ga S
4 4
direct
   0.6666670000000000    0.3333330000000000    0.6730033000000000 Ga
   0.3333330000000000    0.6666670000000000    0.1730033000000000 Ga
   0.3333330000000000    0.6666670000000000    0.3269967000000000 Ga
   0.6666670000000000    0.3333330000000000    0.8269967000000000 Ga
   0.6666670000000000    0.3333330000000000    0.1041627700000000 S
   0.3333330000000000    0.6666670000000000    0.6041627700000000 S
   0.3333330000000000    0.6666670000000000    0.8958372300000000 S
   0.6666670000000000    0.3333330000000000    0.3958372300000000 S
