Bi4 S4 O2
1.0
   3.9329661900000001    0.0000000000000000    0.0000000000000000
   0.0000000000000000    3.9329661900000001    0.0000000000000000
   0.0000000000000000    0.0000000000000000   13.8562012600000006
Bi S O
4 4 2
direct
   0.0000000000000000    0.5000000000000000    0.8683907800000000 Bi
   0.5000000000000000    0.0000000000000000    0.1316092200000000 Bi
   0.5000000000000000    0.0000000000000000    0.5910871100000000 Bi
   0.0000000000000000    0.5000000000000000    0.4089128900000000 Bi
   0.5000000000000000    0.0000000000000000    0.8951079900000000 S
   0.0000000000000000    0.5000000000000000    0.1048920100000000 S
   0.0000000000000000    0.5000000000000000    0.6866128400000000 S
   0.5000000000000000    0.0000000000000000    0.3133871600000000 S
   0.0000000000000000    0.0000000000000000    0.5000000000000000 O
   0.5000000000000000    0.5000000000000000    0.5000000000000000 O
