Tl4 Cu4 P4 Se12
1.0
   7.4440156999999996    0.0000000000000000   -0.0453021900000000
   0.0000000000000000    9.1367387799999999    0.0000000000000000
  -7.3183154699999999    0.0000000000000000    8.4752423100000005
Tl Cu P Se
4 4 4 12
direct
   0.7149906800000000    0.9652316600000000    0.2513012000000000 Tl
   0.2850093200000000    0.0347683400000000    0.7486988000000000 Tl
   0.7149906800000000    0.5347683400000000    0.7513012000000000 Tl
   0.2850093200000000    0.4652316600000000    0.2486988000000000 Tl
   0.0839719500000000    0.1596043300000000    0.2714604200000000 Cu
   0.0839719500000000    0.3403956700000000    0.7714604200000000 Cu
   0.9160280500000000    0.6596043300000000    0.2285395800000000 Cu
   0.9160280500000000    0.8403956700000000    0.7285395800000000 Cu
   0.9282579900000000    0.1046187400000000    0.9313272200000000 P
   0.0717420100000000    0.8953812600000000    0.0686727800000000 P
   0.9282579900000000    0.3953812600000000    0.4313272200000000 P
   0.0717420100000000    0.6046187400000000    0.5686727800000000 P
   0.7652984400000000    0.2298368100000000    0.0099788900000000 Se
   0.6668755700000000    0.0297192800000000    0.6845401600000000 Se
   0.3331244300000000    0.5297192800000000    0.8154598400000000 Se
   0.7492369200000000    0.7223651800000001    0.4924463100000000 Se
   0.2507630800000000    0.2223651800000000    0.0075536900000000 Se
   0.3331244300000000    0.9702807200000000    0.3154598400000000 Se
   0.2347015600000000    0.7701631900000000    0.9900211100000000 Se
   0.2347015600000000    0.7298368100000000    0.4900211100000000 Se
   0.2507630800000000    0.2776348200000000    0.5075536899999999 Se
   0.7492369200000000    0.7776348199999999    0.9924463100000001 Se
   0.7652984400000000    0.2701631900000000    0.5099788900000000 Se
   0.6668755700000000    0.4702807200000000    0.1845401600000000 Se
