Li12 Zr4 O14
1.0
   5.2331366099999999   -3.0029317999999998    0.0093596800000000
   5.2331366099999999    3.0029317999999998    0.0093596800000000
  -1.8150138800000000    0.0000000000000000   10.0796159299999992
Li Zr O
12 4 14
direct
   0.7046905600000000    0.4160722300000000    0.0836633200000000 Li
   0.5839277700000000    0.2953094400000000    0.4163366800000000 Li
   0.2953094400000000    0.5839277700000000    0.9163366800000000 Li
   0.0324478400000000    0.8354465200000000    0.3978958100000000 Li
   0.4236664900000000    0.1623785600000000    0.6043843800000001 Li
   0.8376214400000001    0.5763335100000000    0.8956156199999999 Li
   0.5763335100000000    0.8376214400000001    0.3956156200000000 Li
   0.1623785600000000    0.4236664900000000    0.1043843800000000 Li
   0.8354465200000000    0.0324478400000000    0.8978958100000000 Li
   0.9675521600000000    0.1645534800000000    0.6021041900000000 Li
   0.1645534800000000    0.9675521600000000    0.1021041900000000 Li
   0.4160722300000000    0.7046905600000000    0.5836633200000000 Li
   0.0607640500000000    0.3066214000000000    0.3648413400000000 Zr
   0.6933786000000000    0.9392359500000000    0.1351586600000000 Zr
   0.9392359500000000    0.6933786000000000    0.6351586600000000 Zr
   0.3066214000000000    0.0607640500000000    0.8648413400000000 Zr
   0.6390521600000000    0.8676303600000000    0.7567992500000000 O
   0.1323696400000000    0.3609478400000000    0.7432007500000000 O
   0.3609478400000000    0.1323696400000000    0.2432007500000000 O
   0.8676303600000000    0.6390521600000000    0.2567992500000000 O
   0.1532049800000000    0.8467950200000000    0.7500000000000000 O
   0.8467950200000000    0.1532049800000000    0.2500000000000000 O
   0.5010154700000000    0.7636014800000001    0.0020343900000000 O
   0.2363985200000000    0.4989845300000000    0.4979656100000000 O
   0.4989845300000000    0.2363985200000000    0.9979656099999999 O
   0.7636014800000001    0.5010154700000000    0.5020343900000001 O
   0.7549449200000000    0.0021701600000000    0.5207315300000001 O
   0.9978298400000000    0.2450550800000000    0.9792684699999999 O
   0.2450550800000000    0.9978298400000000    0.4792684700000000 O
   0.0021701600000000    0.7549449200000000    0.0207315300000000 O
