Mg9 As6 O24
1.0
  -3.4131799599999999    3.4131801400000001    9.4309046100000007
   3.4131799599999999   -3.4131801400000001    9.4309046100000007
   3.4131801400000001    3.4131799599999999   -9.4309046100000007
Mg As O
9 6 24
direct
   0.1283997300000000    0.6306228400000000    0.0074529000000000 Mg
   0.7500000000000000    0.2500000000000000    0.5000000000000000 Mg
   0.2281093900000000    0.2281093900000000    0.0000000000000000 Mg
   0.8790531700000001    0.8716002700000000    0.5022221100000001 Mg
   0.6231699400000000    0.1209468300000000    0.9925471000000000 Mg
   0.4785879600000000    0.9785879600000000    0.5000000000000000 Mg
   0.7718906100000000    0.7718906100000000    0.0000000000000000 Mg
   0.0214120400000000    0.5214120400000000    0.5000000000000000 Mg
   0.3693771600000000    0.3768300600000000    0.4977778900000000 Mg
   0.0000000000000000    0.0000000000000000    0.0000000000000000 As
   0.6277827100000000    0.5315706400000000    0.4077655400000000 As
   0.1238051000000000    0.2200171700000000    0.5922344600000000 As
   0.4684293600000000    0.8761949000000000    0.0962120700000000 As
   0.2500000000000000    0.7500000000000000    0.5000000000000000 As
   0.7799828300000000    0.3722172900000000    0.9037879300000000 As
   0.1637547200000000    0.9038709300000000    0.1590663700000000 O
   0.4398718900000000    0.6776190900000000    0.3293616000000000 O
   0.8076011300000000    0.6179742400000000    0.7320164500000000 O
   0.9244163300000000    0.1923988700000000    0.8103731100000000 O
   0.1446511000000000    0.4520826400000000    0.7145519800000000 O
   0.0809588300000000    0.3115214700000000    0.7842148900000000 O
   0.5273065800000000    0.2967439400000000    0.2157851100000000 O
   0.7375316600000000    0.4301001200000000    0.2854480200000000 O
   0.3820257600000000    0.1140432100000000    0.1896268900000000 O
   0.9953116600000000    0.8362452800000000    0.7401162100000001 O
   0.5698998800000000    0.8553489000000000    0.3074315400000000 O
   0.8859567900000000    0.0755836700000000    0.2679835500000000 O
   0.3482574900000000    0.1105102900000000    0.6706384000000000 O
   0.7032560600000000    0.9190411700000000    0.2305616400000000 O
   0.1464081300000000    0.9187147900000000    0.6514668600000000 O
   0.7448045599999999    0.0046883400000000    0.8409336300000000 O
   0.5050597300000000    0.8535918700000000    0.7723066600000000 O
   0.3223809100000000    0.6517425100000001    0.7622528000000000 O
   0.8894897100000000    0.5601281100000000    0.2377472000000000 O
   0.0812852100000000    0.7327520700000000    0.2276933400000000 O
   0.2672479300000000    0.4949402700000000    0.3485331400000000 O
   0.6884785300000000    0.4726934200000000    0.7694383600000000 O
   0.5479173600000000    0.2624683400000000    0.6925684600000001 O
   0.0961290700000000    0.2551954400000000    0.2598837900000000 O
