Rb2 Na4 Au2 O4
1.0
   5.5646626699999997    0.0000000000000000    0.0000000000000000
   0.0000000000000000    9.9431461900000002    0.0000000000000000
   0.0000000000000000    0.0000000000000000    3.9981101600000000
Rb Na Au O
2 4 2 4
direct
   0.5000000000000000    0.0000000000000000    0.5000000000000000 Rb
   0.0000000000000000    0.5000000000000000    0.0000000000000000 Rb
   0.0639996500000000    0.2261269800000000    0.5000000000000000 Na
   0.5639996500000000    0.2738730200000000    0.0000000000000000 Na
   0.9360003500000000    0.7738730200000000    0.5000000000000000 Na
   0.4360003500000000    0.7261269800000000    0.0000000000000000 Na
   0.0000000000000000    0.0000000000000000    0.0000000000000000 Au
   0.5000000000000000    0.5000000000000000    0.5000000000000000 Au
   0.7240910600000000    0.3431062200000000    0.5000000000000000 O
   0.2759089400000000    0.6568937800000000    0.5000000000000000 O
   0.7759089400000000    0.8431062200000000    0.0000000000000000 O
   0.2240910600000000    0.1568937800000000    0.0000000000000000 O
