Na12 B4 O12
1.0
   5.6312678399999996    0.0000000000000000    0.0130693900000000
   0.0000000000000000    7.3328489699999997    0.0000000000000000
  -5.2430011299999997    0.0000000000000000    7.9381738300000002
Na B O
12 4 12
direct
   0.9526519900000000    0.6503295800000000    0.5710004000000000 Na
   0.0473480100000000    0.1503295800000000    0.9289996000000000 Na
   0.0473480100000000    0.3496704200000000    0.4289996000000000 Na
   0.9526519900000000    0.8496704200000000    0.0710004000000000 Na
   0.7918390100000000    0.0274602100000000    0.5440144500000000 Na
   0.2081609900000000    0.5274602100000000    0.9559855500000000 Na
   0.2081609900000000    0.9725397900000000    0.4559855500000000 Na
   0.7918390100000000    0.4725397900000000    0.0440144500000000 Na
   0.4003197900000000    0.2797242300000000    0.2750218600000000 Na
   0.5996802100000000    0.7797242300000000    0.2249781400000000 Na
   0.5996802100000000    0.7202757700000000    0.7249781400000000 Na
   0.4003197900000000    0.2202757700000000    0.7750218600000000 Na
   0.2791475500000000    0.8390291600000001    0.8469519100000000 B
   0.2791475500000000    0.6609708399999999    0.3469519100000000 B
   0.7208524500000000    0.1609708400000000    0.1530480900000000 B
   0.7208524500000000    0.3390291600000000    0.6530480900000000 B
   0.7500405100000000    0.0835264600000000    0.2955014800000000 O
   0.5173407500000000    0.7326353300000000    0.9548431100000000 O
   0.5173407500000000    0.7673646700000000    0.4548431100000000 O
   0.4826592500000000    0.2326353300000000    0.5451568900000000 O
   0.9435422300000000    0.3512258800000000    0.6286924900000000 O
   0.0564577700000000    0.8512258800000000    0.8713075100000000 O
   0.0564577700000000    0.6487741200000000    0.3713075100000000 O
   0.9435422300000000    0.1487741200000000    0.1286924900000000 O
   0.2499594900000000    0.5835264600000000    0.2044985200000000 O
   0.2499594900000000    0.9164735400000000    0.7044985200000000 O
   0.7500405100000000    0.4164735400000000    0.7955014800000000 O
   0.4826592500000000    0.2673646700000000    0.0451568900000000 O
