Cs2 In2 Te6 O16
1.0
   5.8309943500000001   -0.0454034500000000   -0.0036573000000000
   2.6445128000000002    7.3226402500000001    0.0458060200000000
   0.0871783900000000    2.2766703000000001   10.9570256799999992
Cs In Te O
2 2 6 16
direct
   0.1549725200000000    0.1173923300000000    0.8357024500000000 Cs
   0.8450274800000001    0.8826076700000000    0.1642975500000000 Cs
   0.5000000000000000    0.5000000000000000    0.0000000000000000 In
   0.0000000000000000    0.5000000000000000    0.5000000000000000 In
   0.7751901200000000    0.9894272300000000    0.5804268600000000 Te
   0.2248098800000000    0.0105727700000000    0.4195731400000000 Te
   0.9370903700000000    0.6614280800000000    0.8505648300000000 Te
   0.0629096300000000    0.3385719200000000    0.1494351700000000 Te
   0.4813465500000000    0.5401501700000000    0.6567498600000000 Te
   0.5186534500000000    0.4598498300000000    0.3432501400000000 Te
   0.7973910500000000    0.7435696800000000    0.5737128300000000 O
   0.2026089500000000    0.2564303200000000    0.4262871700000000 O
   0.7571444300000000    0.9161168200000001    0.7680818900000000 O
   0.2428555700000000    0.0838831800000000    0.2319181100000000 O
   0.1130305600000000    0.9566395000000000    0.6057948100000000 O
   0.8869694400000000    0.0433605000000000    0.3942051900000000 O
   0.7439815900000000    0.6655766000000000    0.9873437400000000 O
   0.2560184100000000    0.3344234000000000    0.0126562600000000 O
   0.1774365800000000    0.7313942600000000    0.9204546100000000 O
   0.8225634200000000    0.2686057400000000    0.0795453900000000 O
   0.6190773700000000    0.4478417700000000    0.8196829000000000 O
   0.3809226300000000    0.5521582300000000    0.1803171000000000 O
   0.7420872200000000    0.3719182000000000    0.5884505799999999 O
   0.2579127800000000    0.6280818000000000    0.4115494200000000 O
   0.2616632300000000    0.4065903800000000    0.6604622000000000 O
   0.7383367700000000    0.5934096200000000    0.3395378000000000 O
