Rb8 Be8 O12
1.0
  10.6023968499999999    0.0000000000000000    0.0000000000000000
   0.0000000000000000    5.3526973699999996    0.0000000000000000
   0.0000000000000000    0.0000000000000000    7.6860588999999999
Rb Be O
8 8 12
direct
   0.0865179100000000    0.2500000000000000    0.8728985900000000 Rb
   0.1123204500000000    0.7500000000000000    0.5112657800000000 Rb
   0.3876795500000000    0.2500000000000000    0.0112657800000000 Rb
   0.4134820900000000    0.7500000000000000    0.3728985900000000 Rb
   0.5865179100000000    0.2500000000000000    0.6271014100000000 Rb
   0.6123204500000000    0.7500000000000000    0.9887342200000000 Rb
   0.8876795500000000    0.2500000000000000    0.4887342200000000 Rb
   0.9134820900000000    0.7500000000000000    0.1271014100000000 Rb
   0.1635859900000000    0.2500000000000000    0.2812770900000000 Be
   0.2082079900000000    0.7500000000000000    0.1107524700000000 Be
   0.2917920100000000    0.2500000000000000    0.6107524700000000 Be
   0.3364140100000000    0.7500000000000000    0.7812770900000000 Be
   0.6635859900000000    0.2500000000000000    0.2187229100000000 Be
   0.7082079900000000    0.7500000000000000    0.3892475300000000 Be
   0.7917920100000000    0.2500000000000000    0.8892475300000000 Be
   0.8364140100000000    0.7500000000000000    0.7187229100000000 Be
   0.1791730900000000    0.2500000000000000    0.4824820900000000 O
   0.1533892300000000    0.9989936400000000    0.1812050200000000 O
   0.1533892300000000    0.5010063600000000    0.1812050200000000 O
   0.3466107700000000    0.0010063600000000    0.6812050200000000 O
   0.3466107700000000    0.4989936400000000    0.6812050200000000 O
   0.3208269100000000    0.7500000000000000    0.9824820900000000 O
   0.6791730900000000    0.2500000000000000    0.0175179100000000 O
   0.6533892300000000    0.9989936400000000    0.3187949800000000 O
   0.6533892300000000    0.5010063600000000    0.3187949800000000 O
   0.8466107700000000    0.4989936400000000    0.8187949800000000 O
   0.8466107700000000    0.0010063600000000    0.8187949800000000 O
   0.8208269100000000    0.7500000000000000    0.5175179100000000 O
