Ag4 W4 O14
1.0
   6.0760779200000004    0.0433494700000000    0.0247118500000000
   1.6300890500000000    6.6940330299999999   -0.0168480500000000
   0.3854010300000000    2.0884341300000000    7.3486212799999997
Ag W O
4 4 14
direct
   0.2269626400000000    0.6964096500000000    0.9531997300000000 Ag
   0.6802551200000000    0.7343881799999999    0.7441562300000000 Ag
   0.3197448800000000    0.2656118200000000    0.2558437700000000 Ag
   0.7730373600000000    0.3035903500000000    0.0468002700000000 Ag
   0.2782520800000000    0.2685906800000000    0.7750029000000001 W
   0.7217479200000000    0.7314093200000000    0.2249971000000000 W
   0.2704654400000000    0.7052151600000000    0.4460653600000000 W
   0.7295345600000001    0.2947848400000000    0.5539346400000000 W
   0.2024307500000000    0.6076227400000001    0.6881578300000000 O
   0.6040239800000000    0.6452311800000000    0.4976904000000000 O
   0.1718160600000000    0.2950239600000000    0.9919737800000000 O
   0.5832779000000000    0.2993940500000000    0.7983550300000000 O
   0.3959760200000000    0.3547688200000000    0.5023096000000000 O
   0.7975692500000000    0.3923772600000000    0.3118421700000000 O
   0.9891620000000000    0.3186717900000000    0.6582979000000000 O
   0.3477032000000000    0.9981694100000000    0.8055618300000000 O
   0.8281839400000000    0.7049760400000000    0.0080262200000000 O
   0.0108380000000000    0.6813282100000000    0.3417021000000000 O
   0.7834876300000000    0.0312922200000000    0.5785851300000000 O
   0.6522968000000000    0.0018305900000000    0.1944381700000000 O
   0.4167221000000000    0.7006059500000000    0.2016449700000000 O
   0.2165123700000000    0.9687077800000000    0.4214148700000000 O
