Li8 S4 O16
1.0
   8.4825927300000004    0.0000000000000000   -0.0019572000000000
   0.0000000000000000    4.9559599800000003    0.0000000000000000
  -2.5148854500000000    0.0000000000000000    7.8738409799999998
Li S O
8 4 16
direct
   0.8714973100000000    0.0743430400000000    0.0643828300000000 Li
   0.1285026900000000    0.5743430400000000    0.4356171700000000 Li
   0.1285026900000000    0.9256569600000000    0.9356171700000000 Li
   0.8714973100000000    0.4256569600000000    0.5643828300000000 Li
   0.6209010100000000    0.0691565200000000    0.3035893500000000 Li
   0.3790989900000000    0.5691565200000001    0.1964106500000000 Li
   0.3790989900000000    0.9308434799999999    0.6964106500000000 Li
   0.6209010100000000    0.4308434800000000    0.8035893500000000 Li
   0.7485132900000000    0.5625552100000000    0.1899810700000000 S
   0.2514867100000000    0.4374447900000000    0.8100189300000000 S
   0.7485132900000000    0.9374447900000000    0.6899810700000000 S
   0.2514867100000000    0.0625552100000000    0.3100189300000000 S
   0.6006709600000000    0.4471051300000000    0.2259828000000000 O
   0.3993290400000000    0.5528948700000000    0.7740172000000000 O
   0.3993290400000000    0.9471051300000000    0.2740172000000000 O
   0.2732830100000000    0.3578449600000000    0.3375623400000000 O
   0.7267169900000000    0.6421550400000000    0.6624376600000000 O
   0.2732830100000000    0.1421550400000000    0.8375623400000000 O
   0.7713196500000000    0.0662096300000000    0.5366420000000000 O
   0.7267169900000000    0.8578449600000000    0.1624376600000000 O
   0.2286803500000000    0.5662096300000000    0.9633580000000000 O
   0.2286803500000000    0.9337903700000000    0.4633580000000000 O
   0.8948771400000000    0.9967615600000000    0.8381169100000000 O
   0.7713196500000000    0.4337903700000000    0.0366420000000000 O
   0.8948771400000000    0.5032384400000000    0.3381169100000000 O
   0.1051228600000000    0.0032384400000000    0.1618830900000000 O
   0.1051228600000000    0.4967615600000000    0.6618830900000000 O
   0.6006709600000000    0.0528948700000000    0.7259828000000000 O
