Sr2 Al4 Se8
1.0
   3.0961537500000000   -5.4207684000000000    0.0000000000000000
   3.0961537500000000    5.4207684000000000    0.0000000000000000
   0.0000000000000000    0.0000000000000000   10.8762707299999999
Sr Al Se
2 4 8
direct
   0.5000000000000000    0.5000000000000000    0.2500000000000000 Sr
   0.5000000000000000    0.5000000000000000    0.7500000000000000 Sr
   0.2415496100000000    0.7608243700000000    0.0000000000000000 Al
   0.7584503900000000    0.2391756300000000    0.0000000000000000 Al
   0.7608243700000000    0.2415496100000000    0.5000000000000000 Al
   0.2391756300000000    0.7584503900000000    0.5000000000000000 Al
   0.0000000000000000    0.5000000000000000    0.3301666800000000 Se
   0.0000000000000000    0.5000000000000000    0.6698333200000000 Se
   0.5000000000000000    0.0000000000000000    0.8301666800000000 Se
   0.6543468400000000    0.8157854300000000    0.5000000000000000 Se
   0.3456531600000000    0.1842145700000000    0.5000000000000000 Se
   0.8157854300000000    0.6543468400000000    0.0000000000000000 Se
   0.1842145700000000    0.3456531600000000    0.0000000000000000 Se
   0.5000000000000000    0.0000000000000000    0.1698333200000000 Se
