Li1 Si1 B1 O4
1.0
  -2.2043704499999999    2.2043704499999999    3.4183062899999999
   2.2043704499999999   -2.2043704499999999    3.4183062899999999
   2.2043704499999999    2.2043704499999999   -3.4183062899999999
Li Si B O
1 1 1 4
direct
   0.5000000000000000    0.5000000000000000    0.0000000000000000 Li
   0.0000000000000000    0.0000000000000000    0.0000000000000000 Si
   0.2500000000000000    0.7500000000000000    0.5000000000000000 B
   0.1444427800000000    0.0278955700000000    0.4288571900000000 O
   0.5990373800000000    0.7155855900000000    0.5711428100000000 O
   0.9721044300000000    0.4009626200000000    0.1165482100000000 O
   0.2844144100000000    0.8555572200000000    0.8834517900000000 O
