Ag6 P2 Se8
1.0
   7.8628741000000000    0.0000000000000000    0.0000000000000000
   0.0000000000000000    7.2179859000000004    0.0000000000000000
   0.0000000000000000    0.0000000000000000    6.5567762900000002
Ag P Se
6 2 8
direct
   0.2903416700000000    0.7820015200000000    0.0307416500000000 Ag
   0.2096583300000000    0.2179984800000000    0.5307416500000000 Ag
   0.7903416700000000    0.2179984800000000    0.5307416500000000 Ag
   0.7096583300000000    0.7820015200000000    0.0307416500000000 Ag
   0.0000000000000000    0.3390721100000000    0.9207825700000000 Ag
   0.5000000000000000    0.6609278900000000    0.4207825700000000 Ag
   0.5000000000000000    0.3001279600000000    0.0037925600000000 P
   0.0000000000000000    0.6998720400000000    0.5037925599999999 P
   0.7278139900000000    0.1359940700000000    0.9076810000000000 Se
   0.7721860100000000    0.8640059300000000    0.4076810000000000 Se
   0.0000000000000000    0.4291487200000000    0.3411550000000000 Se
   0.5000000000000000    0.5708512800000000    0.8411550000000000 Se
   0.2278139900000000    0.8640059300000000    0.4076810000000000 Se
   0.2721860100000000    0.1359940700000000    0.9076810000000000 Se
   0.5000000000000000    0.3103663700000000    0.3435175600000000 Se
   0.0000000000000000    0.6896336300000000    0.8435175600000000 Se
