Zn2 Sb4 O12
1.0
   4.6708376800000000    0.0000000000000000    0.0000000000000000
   0.0000000000000000    4.6708376800000000    0.0000000000000000
   0.0000000000000000    0.0000000000000000    9.2865958699999993
Zn Sb O
2 4 12
direct
   0.0000000000000000    0.0000000000000000    0.0000000000000000 Zn
   0.5000000000000000    0.5000000000000000    0.5000000000000000 Zn
   0.5000000000000000    0.5000000000000000    0.8324193200000000 Sb
   0.0000000000000000    0.0000000000000000    0.3324193200000000 Sb
   0.5000000000000000    0.5000000000000000    0.1675806800000000 Sb
   0.0000000000000000    0.0000000000000000    0.6675806800000000 Sb
   0.6968125200000000    0.6968125200000000    0.6700210400000000 O
   0.3031874800000000    0.3031874800000000    0.6700210400000000 O
   0.6968125200000000    0.6968125200000000    0.3299789600000000 O
   0.1968125200000000    0.8031874800000000    0.1700210400000000 O
   0.8031874800000000    0.1968125200000000    0.1700210400000000 O
   0.8031874800000000    0.1968125200000000    0.8299789600000000 O
   0.3079021400000000    0.3079021400000000    0.0000000000000000 O
   0.1920978600000000    0.8079021400000000    0.5000000000000000 O
   0.8079021400000000    0.1920978600000000    0.5000000000000000 O
   0.6920978600000000    0.6920978600000000    0.0000000000000000 O
   0.3031874800000000    0.3031874800000000    0.3299789600000000 O
   0.1968125200000000    0.8031874800000000    0.8299789600000000 O
