Sr2 Ga4 Se8
1.0
   3.1191317199999999   -5.3960615199999999    0.0000000000000000
   3.1191317199999999    5.3960615199999999    0.0000000000000000
   0.0000000000000000    0.0000000000000000   10.8483763700000004
Sr Ga Se
2 4 8
direct
   0.5000000000000000    0.5000000000000000    0.7500000000000000 Sr
   0.5000000000000000    0.5000000000000000    0.2500000000000000 Sr
   0.7630632800000000    0.2399507200000000    0.5000000000000000 Ga
   0.2369367200000000    0.7600492800000000    0.5000000000000000 Ga
   0.7600492800000000    0.2369367200000000    0.0000000000000000 Ga
   0.2399507200000000    0.7630632800000000    0.0000000000000000 Ga
   0.3464099500000000    0.1884752800000000    0.5000000000000000 Se
   0.6535900500000000    0.8115247200000000    0.5000000000000000 Se
   0.8115247200000000    0.6535900500000000    0.0000000000000000 Se
   0.1884752800000000    0.3464099500000000    0.0000000000000000 Se
   0.5000000000000000    0.0000000000000000    0.8283190200000000 Se
   0.0000000000000000    0.5000000000000000    0.6716809800000000 Se
   0.5000000000000000    0.0000000000000000    0.1716809800000000 Se
   0.0000000000000000    0.5000000000000000    0.3283190200000000 Se
