Rb2 Li2 Cr2 O8
1.0
   5.3650957699999999    0.0000000100000000    0.0000000000000000
  -2.6825483600000002    4.6463095499999998    0.0000000000000000
   0.0000000000000000    0.0000000000000000    9.1782131099999997
Rb Li Cr O
2 2 2 8
direct
   0.0000000000000000    0.0000000000000000    0.4942559100000000 Rb
   0.0000000000000000    0.0000000000000000    0.9942559100000000 Rb
   0.6666670000000000    0.3333330000000000    0.6813091600000000 Li
   0.3333330000000000    0.6666670000000000    0.1813091600000000 Li
   0.3333330000000000    0.6666670000000000    0.7915445100000000 Cr
   0.6666670000000000    0.3333330000000000    0.2915445100000000 Cr
   0.6208032100000000    0.9628327700000000    0.7341826100000000 O
   0.0371672300000000    0.6579704400000000    0.7341826100000000 O
   0.3420295600000000    0.3791967900000000    0.7341826100000000 O
   0.9628327700000000    0.6208032100000000    0.2341826100000000 O
   0.6666670000000000    0.3333330000000000    0.4717445900000000 O
   0.3333330000000000    0.6666670000000000    0.9717445900000000 O
   0.3791967900000000    0.3420295600000000    0.2341826100000000 O
   0.6579704400000000    0.0371672300000000    0.2341826100000000 O
