La2 Cu2 W4 O16
1.0
   7.2047857700000000    0.0030889700000000    0.0044978900000000
  -0.1916877900000000    7.4178513500000003    0.0212848700000000
  -3.2724499200000001   -3.2240060800000001    6.0353869099999997
La Cu W O
2 2 4 16
direct
   0.1810208100000000    0.2835720300000000    0.4569301200000000 La
   0.8189791900000000    0.7164279700000000    0.5430698800000000 La
   0.7741699300000000    0.3298555400000000    0.0438757200000000 Cu
   0.2258300700000000    0.6701444600000001    0.9561242800000000 Cu
   0.7292711200000001    0.7037239400000000    0.9636577700000000 W
   0.3552729500000000    0.8999987600000000    0.7150748900000000 W
   0.2707288800000000    0.2962760600000000    0.0363422300000000 W
   0.6447270500000000    0.1000012400000000    0.2849251100000000 W
   0.5400047800000000    0.4699599300000000    0.7362219400000000 O
   0.4599952200000000    0.5300400700000000    0.2637780600000000 O
   0.0504790500000000    0.3092492100000000    0.0934660100000000 O
   0.9495209500000000    0.6907507899999999    0.9065339900000000 O
   0.1978299700000000    0.3637808600000000    0.8149439900000000 O
   0.8021700300000000    0.6362191400000000    0.1850560100000000 O
   0.8229159800000000    0.3543367200000000    0.4445853900000000 O
   0.1770840200000000    0.6456632800000000    0.5554146100000000 O
   0.6141640600000000    0.8324207800000000    0.7448963000000000 O
   0.3858359400000000    0.1675792200000000    0.2551037000000000 O
   0.4772646200000000    0.8256398600000000    0.0039873700000000 O
   0.5227353800000000    0.1743601400000000    0.9960126300000000 O
   0.1449481400000000    0.9943266100000000    0.8058972200000000 O
   0.8550518600000000    0.0056733900000000    0.1941027800000000 O
   0.2961027500000000    0.9931853300000000    0.5231966800000000 O
   0.7038972500000000    0.0068146700000000    0.4768033200000000 O
