Cd2 S2 O8
1.0
   2.6693240600000001   -4.1343216199999997    0.0000000000000000
   2.6693240600000001    4.1343216199999997    0.0000000000000000
   0.0000000000000000    0.0000000000000000    7.1666398899999999
Cd S O
2 2 8
direct
   0.0000000000000000    0.0000000000000000    0.0000000000000000 Cd
   0.0000000000000000    0.0000000000000000    0.5000000000000000 Cd
   0.6425043300000000    0.3574956700000000    0.7500000000000000 S
   0.3574956700000000    0.6425043300000000    0.2500000000000000 S
   0.2366281400000000    0.3064725900000000    0.2500000000000000 O
   0.7633718600000000    0.6935274100000000    0.7500000000000000 O
   0.3064725900000000    0.2366281400000000    0.7500000000000000 O
   0.6935274100000000    0.7633718600000000    0.2500000000000000 O
   0.2625981400000000    0.7374018600000000    0.4228414300000000 O
   0.7374018600000000    0.2625981400000000    0.9228414300000000 O
   0.7374018600000000    0.2625981400000000    0.5771585700000000 O
   0.2625981400000000    0.7374018600000000    0.0771585700000000 O
