Ba2 Ca4 Si6 O18
1.0
   6.6765314299999998   -0.0033283300000000    0.0037364700000000
   1.4400536700000000    6.5923393099999998   -0.0007440400000000
   3.2952143100000000   -0.4322005900000000    9.0084472499999997
Ba Ca Si O
2 4 6 18
direct
   0.1699483600000000    0.9509829000000000    0.1505848500000000 Ba
   0.8300516400000000    0.0490171000000000    0.8494151500000000 Ba
   0.2774557100000000    0.7185612100000000    0.4877677000000000 Ca
   0.7225442900000000    0.2814387900000000    0.5122323000000000 Ca
   0.2241313800000000    0.4389824800000000    0.8272710900000000 Ca
   0.7758686200000000    0.5610175200000000    0.1727289100000000 Ca
   0.2931462600000000    0.4419107100000000    0.1935769400000000 Si
   0.7068537400000000    0.5580892900000000    0.8064230600000000 Si
   0.2285880900000000    0.2358095200000000    0.4812639000000000 Si
   0.7714119100000000    0.7641904800000000    0.5187361000000000 Si
   0.6240523800000000    0.0947130700000000    0.2244235800000000 Si
   0.3759476200000000    0.9052869300000000    0.7755764200000000 Si
   0.4832406400000000    0.2269669100000000    0.1224702700000000 O
   0.5167593600000000    0.7730330900000000    0.8775297300000000 O
   0.1540140800000000    0.5114229000000000    0.0865826000000000 O
   0.8459859199999999    0.4885771000000000    0.9134174000000000 O
   0.4042246300000000    0.6139190600000000    0.2319202900000000 O
   0.5957753700000000    0.3860809400000000    0.7680797100000000 O
   0.1361499900000000    0.3631620400000000    0.3538328500000000 O
   0.8638500099999999    0.6368379600000000    0.6461671500000000 O
   0.0325473300000000    0.1435280500000000    0.5874895400000000 O
   0.9674526700000000    0.8564719500000000    0.4125104600000000 O
   0.3375580900000000    0.3740044600000000    0.5562707600000000 O
   0.6624419100000000    0.6259955400000000    0.4437292400000000 O
   0.2333331500000000    0.7661726700000000    0.7347468000000000 O
   0.7666668500000000    0.2338273300000000    0.2652532000000000 O
   0.2235114300000000    0.1040429100000000    0.8753780500000000 O
   0.7764885700000000    0.8959570900000000    0.1246219500000000 O
   0.5767659200000000    0.9575527000000000    0.6271342700000000 O
   0.4232340800000000    0.0424473000000000    0.3728657300000000 O
