Al4 Cd2 S8
1.0
   0.0000000000000000    5.1246366600000002    5.1246366600000002
   5.1246366600000002    0.0000000000000000    5.1246366600000002
   5.1246366600000002    5.1246366600000002    0.0000000000000000
Al Cd S
4 2 8
direct
   0.1250000000000000    0.1250000000000000    0.1250000000000000 Al
   0.6250000000000000    0.1250000000000000    0.1250000000000000 Al
   0.1250000000000000    0.6250000000000000    0.1250000000000000 Al
   0.1250000000000000    0.1250000000000000    0.6250000000000000 Al
   0.7500000000000000    0.7500000000000000    0.7500000000000000 Cd
   0.5000000000000000    0.5000000000000000    0.5000000000000000 Cd
   0.3607878900000000    0.3607878900000000    0.9176363300000000 S
   0.8892121100000000    0.3323636700000000    0.8892121100000000 S
   0.3607878900000000    0.9176363300000000    0.3607878900000000 S
   0.8892121100000000    0.8892121100000000    0.3323636700000000 S
   0.3323636700000000    0.8892121100000000    0.8892121100000000 S
   0.8892121100000000    0.8892121100000000    0.8892121100000000 S
   0.9176363300000000    0.3607878900000000    0.3607878900000000 S
   0.3607878900000000    0.3607878900000000    0.3607878900000000 S
