Cs2 Cd2 Au2 S4
1.0
   3.2600699700000000   -6.8863304100000002    0.0000000000000000
   3.2600699700000000    6.8863304100000002    0.0000000000000000
   0.0000000000000000    0.0000000000000000    6.0615226900000003
Cs Cd Au S
2 2 2 4
direct
   0.2500000000000000    0.7500000000000000    0.2326120700000000 Cs
   0.7500000000000000    0.2500000000000000    0.7673879300000001 Cs
   0.7500000000000000    0.7500000000000000    0.5000000000000000 Cd
   0.2500000000000000    0.2500000000000000    0.5000000000000000 Cd
   0.0000000000000000    0.0000000000000000    0.0000000000000000 Au
   0.5000000000000000    0.5000000000000000    0.0000000000000000 Au
   0.1101404400000000    0.8898595600000000    0.7141077300000001 S
   0.3898595600000000    0.6101404400000000    0.7141077300000001 S
   0.6101404400000000    0.3898595600000000    0.2858922700000000 S
   0.8898595600000000    0.1101404400000000    0.2858922700000000 S
