La4 Mo6 O24
1.0
   3.7671992400000001   -5.9475285500000004    0.0140652300000000
   3.7671992400000001    5.9475285500000004    0.0140652300000000
  -3.7175985400000000    0.0000000000000000   11.3877473699999996
La Mo O
4 6 24
direct
   0.4508281800000000    0.2042443200000000    0.4101686300000000 La
   0.7957556800000000    0.5491718200000000    0.0898313700000000 La
   0.2042443200000000    0.4508281800000000    0.9101686300000000 La
   0.5491718200000000    0.7957556800000000    0.5898313700000000 La
   0.9639670400000000    0.6926181400000000    0.4254300200000000 Mo
   0.3073818600000000    0.0360329600000000    0.0745699800000000 Mo
   0.6250944700000000    0.3749055300000000    0.7500000000000000 Mo
   0.0360329600000000    0.3073818600000000    0.5745699800000000 Mo
   0.3749055300000000    0.6250944700000000    0.2500000000000000 Mo
   0.6926181400000000    0.9639670400000000    0.9254300200000000 Mo
   0.4717684300000000    0.0679409500000000    0.2133874800000000 O
   0.8251322500000000    0.4180601200000000    0.8826859300000000 O
   0.1662169300000000    0.7015744900000001    0.5420402500000000 O
   0.9320590500000000    0.5282315700000000    0.2866125200000000 O
   0.2984255100000000    0.8337830700000000    0.9579597500000000 O
   0.5819398800000000    0.1748677500000000    0.6173140700000000 O
   0.6281162100000000    0.7019815400000000    0.2166537800000000 O
   0.9574292200000000    0.0742360800000000    0.9032236200000000 O
   0.3017666100000000    0.3885364500000000    0.5420335500000000 O
   0.2980184600000000    0.3718837900000000    0.2833462200000000 O
   0.6114635500000000    0.6982333900000000    0.9579664500000000 O
   0.9257639200000000    0.0425707800000000    0.5967763800000000 O
   0.1748677500000000    0.5819398800000000    0.1173140700000000 O
   0.5282315700000000    0.9320590500000000    0.7866125200000000 O
   0.8337830700000000    0.2984255100000000    0.4579597500000000 O
   0.7015744900000001    0.1662169300000000    0.0420402500000000 O
   0.0679409500000000    0.4717684300000000    0.7133874800000000 O
   0.4180601200000000    0.8251322500000000    0.3826859300000000 O
   0.0425707800000000    0.9257639200000000    0.0967763800000000 O
   0.3718837900000000    0.2980184600000000    0.7833462200000000 O
   0.6982333900000000    0.6114635500000000    0.4579664500000000 O
   0.3885364500000000    0.3017666100000000    0.0420335500000000 O
   0.7019815400000000    0.6281162100000000    0.7166537800000000 O
   0.0742360800000000    0.9574292200000000    0.4032236200000000 O
