La8 S8 O4
1.0
   8.5871814200000003    0.0000000000000000    0.0539935700000000
   0.0000000000000000    7.2480945600000002    0.0000000000000000
  -1.0130079100000000    0.0000000000000000    7.0241778100000003
La S O
8 8 4
direct
   0.1389766800000000    0.5568156800000000    0.7524711100000000 La
   0.1389766800000000    0.9431843200000000    0.2524711100000000 La
   0.4151234900000000    0.1270578100000000    0.6923261500000000 La
   0.4151234900000000    0.3729421900000000    0.1923261500000000 La
   0.5848765100000000    0.6270578100000000    0.8076738500000000 La
   0.5848765100000000    0.8729421900000000    0.3076738500000000 La
   0.8610233200000000    0.0568156800000000    0.7475288900000000 La
   0.8610233200000000    0.4431843200000000    0.2475288900000000 La
   0.0791340700000000    0.2278654800000000    0.5251588300000000 S
   0.0791340700000000    0.2721345200000000    0.0251588300000000 S
   0.3298956000000000    0.8439568400000000    0.9508144900000000 S
   0.3298956000000000    0.6560431600000000    0.4508144900000000 S
   0.6701044000000000    0.3439568400000000    0.5491855100000000 S
   0.6701044000000000    0.1560431600000000    0.0491855100000000 S
   0.9208659300000001    0.7278654800000000    0.9748411700000000 S
   0.9208659300000001    0.7721345200000000    0.4748411700000000 S
   0.3828744300000000    0.4114036700000000    0.8495340900000000 O
   0.3828744300000000    0.0885963300000000    0.3495340900000000 O
   0.6171255700000000    0.9114036700000000    0.6504659100000000 O
   0.6171255700000000    0.5885963300000000    0.1504659100000000 O
