Ca4 Sb2 O1
1.0
  -2.3223748500000001    2.3223748500000001    8.0598811000000001
   2.3223748500000001   -2.3223748500000001    8.0598811000000001
   2.3223748500000001    2.3223748500000001   -8.0598811000000001
Ca Sb O
4 2 1
direct
   0.6647095800000000    0.6647095800000000    0.0000000000000000 Ca
   0.3352904200000000    0.3352904200000000    0.0000000000000000 Ca
   0.0000000000000000    0.5000000000000000    0.5000000000000000 Ca
   0.5000000000000000    0.0000000000000000    0.5000000000000000 Ca
   0.8605044300000000    0.8605044300000000    0.0000000000000000 Sb
   0.1394955700000000    0.1394955700000000    0.0000000000000000 Sb
   0.5000000000000000    0.5000000000000000    0.0000000000000000 O
