La2 Sb6 O18
1.0
   3.2833530700000000   -4.4470306600000002    0.0000000000000000
   3.2833530700000000    4.4470306600000002    0.0000000000000000
   0.0000000000000000    0.0000000000000000   11.8043935599999994
La Sb O
2 6 18
direct
   0.7561439599999999    0.2438560400000000    0.7500000000000000 La
   0.2438560400000000    0.7561439599999999    0.2500000000000000 La
   0.1225706400000000    0.8774293600000000    0.9083239300000000 Sb
   0.8774293600000000    0.1225706400000000    0.4083239300000000 Sb
   0.8774293600000000    0.1225706400000000    0.0916760700000000 Sb
   0.1225706400000000    0.8774293600000000    0.5916760700000000 Sb
   0.5000000000000000    0.5000000000000000    0.0000000000000000 Sb
   0.5000000000000000    0.5000000000000000    0.5000000000000000 Sb
   0.9449861000000001    0.0550139000000000    0.2500000000000000 O
   0.0550139000000000    0.9449861000000001    0.7500000000000000 O
   0.1042216600000000    0.8957783400000000    0.0749707300000000 O
   0.8957783400000000    0.1042216600000000    0.5749707300000000 O
   0.8957783400000000    0.1042216600000000    0.9250292700000000 O
   0.1042216600000000    0.8957783400000000    0.4250292700000000 O
   0.3381135700000000    0.6618864300000000    0.8816932100000000 O
   0.6618864300000000    0.3381135700000000    0.3816932100000000 O
   0.4202838100000000    0.1907444900000000    0.5993785900000000 O
   0.5797161900000000    0.8092555100000000    0.0993785900000000 O
   0.1907444900000000    0.4202838100000000    0.4006214100000000 O
   0.8092555100000000    0.5797161900000000    0.9006214100000000 O
   0.5797161900000000    0.8092555100000000    0.4006214100000000 O
   0.4202838100000000    0.1907444900000000    0.9006214100000000 O
   0.8092555100000000    0.5797161900000000    0.5993785900000000 O
   0.1907444900000000    0.4202838100000000    0.0993785900000000 O
   0.3381135700000000    0.6618864300000000    0.6183067900000000 O
   0.6618864300000000    0.3381135700000000    0.1183067900000000 O
