Na12 Si4 Se14
1.0
   4.6314748999999997   -5.3738677900000003    0.0073919600000000
   4.6314748999999997    5.3738677900000003    0.0073919600000000
  -3.9312665600000001    0.0000000000000000   15.1295712200000008
Na Si Se
12 4 14
direct
   0.4170920800000000    0.5829079200000000    0.7500000000000000 Na
   0.5829079200000000    0.4170920800000000    0.2500000000000000 Na
   0.5000000000000000    0.5000000000000000    0.0000000000000000 Na
   0.5000000000000000    0.5000000000000000    0.5000000000000000 Na
   0.7329407300000000    0.0239239600000000    0.9257239800000000 Na
   0.9760760400000000    0.2670592700000000    0.5742760200000000 Na
   0.2670592700000000    0.9760760400000000    0.0742760200000000 Na
   0.0239239600000000    0.7329407300000000    0.4257239800000000 Na
   0.4924018600000000    0.0516681100000000    0.6413166600000000 Na
   0.9483318900000000    0.5075981400000000    0.8586833400000000 Na
   0.5075981400000000    0.9483318900000000    0.3586833400000000 Na
   0.0516681100000000    0.4924018600000000    0.1413166600000000 Na
   0.2375967800000000    0.0767049800000000    0.8608382700000000 Si
   0.9232950200000000    0.7624032200000000    0.6391617300000000 Si
   0.0767049800000000    0.2375967800000000    0.3608382700000000 Si
   0.7624032200000000    0.9232950200000000    0.1391617300000000 Si
   0.9626400700000000    0.0373599300000000    0.7500000000000000 Se
   0.0373599300000000    0.9626400700000000    0.2500000000000000 Se
   0.3084613600000000    0.7955301600000000    0.8958950800000000 Se
   0.2044698400000000    0.6915386400000000    0.6041049200000000 Se
   0.6915386400000000    0.2044698400000000    0.1041049200000000 Se
   0.7955301600000000    0.3084613600000000    0.3958950800000000 Se
   0.1277334400000000    0.2605226000000000    0.9696054600000000 Se
   0.7394774000000000    0.8722665600000000    0.5303945400000000 Se
   0.8722665600000000    0.7394774000000000    0.0303945400000000 Se
   0.2605226000000000    0.1277334400000000    0.4696054600000000 Se
   0.4964356200000000    0.2469848300000000    0.8213102100000000 Se
   0.7530151700000000    0.5035643800000000    0.6786897900000000 Se
   0.5035643800000000    0.7530151700000000    0.1786897900000000 Se
   0.2469848300000000    0.4964356200000000    0.3213102100000000 Se
