Sr4 Sn4 O12
1.0
   5.7499228000000002    0.0000000000000000    0.0000000000000000
   0.0000000000000000    8.0941990599999993    0.0000000000000000
   0.0000000000000000    0.0000000000000000    5.7187996800000001
Sr Sn O
4 4 12
direct
   0.5332251600000000    0.2500000000000000    0.5074140499999999 Sr
   0.0332251600000000    0.2500000000000000    0.9925859500000001 Sr
   0.9667748400000000    0.7500000000000000    0.0074140500000000 Sr
   0.4667748400000000    0.7500000000000000    0.4925859500000000 Sr
   0.5000000000000000    0.0000000000000000    0.0000000000000000 Sn
   0.0000000000000000    0.5000000000000000    0.5000000000000000 Sn
   0.0000000000000000    0.0000000000000000    0.5000000000000000 Sn
   0.5000000000000000    0.5000000000000000    0.0000000000000000 Sn
   0.2860105500000000    0.4606439500000000    0.7132613300000000 O
   0.7860105500000000    0.0393560500000000    0.7867386700000000 O
   0.2139894500000000    0.5393560500000000    0.2132613300000000 O
   0.7139894500000000    0.9606439500000000    0.2867386700000000 O
   0.7139894500000000    0.5393560500000000    0.2867386700000000 O
   0.2139894500000000    0.9606439500000000    0.2132613300000000 O
   0.7860105500000000    0.4606439500000000    0.7867386700000000 O
   0.2860105500000000    0.0393560500000000    0.7132613300000000 O
   0.4818533400000000    0.2500000000000000    0.0743734700000000 O
   0.9818533400000000    0.2500000000000000    0.4256265300000000 O
   0.0181466600000000    0.7500000000000000    0.5743734700000001 O
   0.5181466600000000    0.7500000000000000    0.9256265299999999 O
