Na6 V2 S6 O2
1.0
   4.7862431799999996   -5.8785890199999997    0.0000000000000000
   4.7862431799999996    5.8785890199999997    0.0000000000000000
   0.0000000000000000    0.0000000000000000    5.8441340000000004
Na V S O
6 2 6 2
direct
   0.8792921200000000    0.1207078800000000    0.4623565500000000 Na
   0.8275756000000000    0.5850136300000000    0.4851802800000000 Na
   0.4149863700000000    0.1724244000000000    0.4851802800000000 Na
   0.5850136300000000    0.8275756000000000    0.9851802800000000 Na
   0.1207078800000000    0.8792921200000000    0.9623565500000000 Na
   0.1724244000000000    0.4149863700000000    0.9851802800000000 Na
   0.2964790200000000    0.7035209800000000    0.3853536800000000 V
   0.7035209800000000    0.2964790200000000    0.8853536800000000 V
   0.5678454400000000    0.8152226900000000    0.5013566400000000 S
   0.8835301200000000    0.1164698800000000    0.9805312900000001 S
   0.1847773100000000    0.4321545600000000    0.5013566400000000 S
   0.8152226900000000    0.5678454400000000    0.0013566400000000 S
   0.4321545600000000    0.1847773100000000    0.0013566400000000 S
   0.1164698800000000    0.8835301200000000    0.4805312900000000 S
   0.6978325900000000    0.3021674100000000    0.5972456500000000 O
   0.3021674100000000    0.6978325900000000    0.0972456500000000 O
