Zn1 Ga1 P1 Se1
1.0
   1.9422801000000001    1.1213761000000000    6.4044631900000004
  -1.9422801000000001    1.1213761000000000    6.4044631900000004
   0.0000000000000000   -2.2427522000000000    6.4044631900000004
Zn Ga P Se
1 1 1 1
direct
   0.9952582600000000    0.9952582600000000    0.9952582600000000 Zn
   0.5041880800000000    0.5041880800000000    0.5041880800000000 Ga
   0.8747127000000000    0.8747127000000000    0.8747127000000000 P
   0.3758419600000000    0.3758419600000000    0.3758419600000000 Se
