Sb4 O10
1.0
   6.3604586200000002   -2.4119417900000002   -0.0094667100000000
   6.3604586200000002    2.4119417900000002   -0.0094667100000000
  -1.2884313700000001    0.0000000000000000    5.3158040399999997
Sb O
4 10
direct
   0.6219520500000000    0.1021506300000000    0.7198289600000000 Sb
   0.8978493700000000    0.3780479500000000    0.7801710400000000 Sb
   0.3780479500000000    0.8978493700000000    0.2801710400000000 Sb
   0.1021506300000000    0.6219520500000000    0.2198289600000000 Sb
   0.5748431500000000    0.4251568500000000    0.7500000000000000 O
   0.4251568500000000    0.5748431500000000    0.2500000000000000 O
   0.1900524900000000    0.0117917600000000    0.9462594200000000 O
   0.9882082400000000    0.8099475100000000    0.5537405800000000 O
   0.7828694000000000    0.6224755900000000    0.1240211700000000 O
   0.3775244100000000    0.2171306000000000    0.3759788300000000 O
   0.2171306000000000    0.3775244100000000    0.8759788300000000 O
   0.6224755900000000    0.7828694000000000    0.6240211700000000 O
   0.0117917600000000    0.1900524900000000    0.4462594200000000 O
   0.8099475100000000    0.9882082400000000    0.0537405800000000 O
