Li2 Ga2 W4 O16
1.0
   9.2738525299999992    0.0000000000000000    0.0203793400000000
   0.0000000000000000    5.6420411000000001    0.0000000000000000
  -0.0776279100000000    0.0000000000000000    4.9200306800000000
Li Ga W O
2 2 4 16
direct
   0.5000000000000000    0.6578072400000000    0.7500000000000000 Li
   0.5000000000000000    0.3421927600000000    0.2500000000000000 Li
   0.0000000000000000    0.6649551299999999    0.7500000000000000 Ga
   0.0000000000000000    0.3350448700000000    0.2500000000000000 Ga
   0.7497984600000001    0.8224340700000000    0.2424316900000000 W
   0.2502015400000000    0.8224340700000000    0.2575683100000000 W
   0.7497984600000001    0.1775659300000000    0.7424316900000000 W
   0.2502015400000000    0.1775659300000000    0.7575683100000000 W
   0.8862632700000000    0.6185401600000000    0.4094874000000000 O
   0.8692065900000000    0.8815381700000000    0.9229614400000000 O
   0.1307934100000000    0.8815381700000000    0.5770385600000000 O
   0.1307934100000000    0.1184618300000000    0.0770385600000000 O
   0.8692065900000000    0.1184618300000000    0.4229614400000000 O
   0.6504644100000000    0.8976828100000001    0.5613084000000000 O
   0.6276938600000000    0.3783238700000000    0.6030521900000000 O
   0.1137367300000000    0.6185401600000000    0.0905126000000000 O
   0.1137367300000000    0.3814598400000000    0.5905126000000001 O
   0.8862632700000000    0.3814598400000000    0.9094873999999999 O
   0.3723061400000000    0.3783238700000000    0.8969478100000000 O
   0.3495355900000000    0.1023171900000000    0.4386916000000000 O
   0.3723061400000000    0.6216761300000000    0.3969478100000000 O
   0.6276938600000000    0.6216761300000000    0.1030521900000000 O
   0.6504644100000000    0.1023171900000000    0.0613084000000000 O
   0.3495355900000000    0.8976828100000001    0.9386916000000000 O
