Hg2 W2 O8
1.0
   5.7269127099999997   -3.0039868500000000   -0.0084956500000000
   5.7269127099999997    3.0039868500000000   -0.0084956500000000
  -2.1032199600000001    0.0000000000000000    4.7357461599999997
Hg W O
2 2 8
direct
   0.5000000000000000    0.0000000000000000    0.0000000000000000 Hg
   0.0000000000000000    0.5000000000000000    0.5000000000000000 Hg
   0.1843126600000000    0.8156873400000000    0.2500000000000000 W
   0.8156873400000000    0.1843126600000000    0.7500000000000000 W
   0.7507946400000000    0.4831966200000000    0.9746241000000000 O
   0.5168033800000000    0.2492053600000000    0.5253759000000000 O
   0.2492053600000000    0.5168033800000000    0.0253759000000000 O
   0.4831966200000000    0.7507946400000000    0.4746241000000000 O
   0.1880087300000000    0.0026397200000000    0.0278523600000000 O
   0.9973602800000000    0.8119912700000000    0.4721476400000000 O
   0.8119912700000000    0.9973602800000000    0.9721476400000000 O
   0.0026397200000000    0.1880087300000000    0.5278523600000000 O
