Ta1 V1 Cu6 Se8
1.0
   7.8884265999999998    0.0000000000000000    0.0000000000000000
   0.0000000000000000    7.8884265999999998    0.0000000000000000
   0.0000000000000000    0.0000000000000000    5.5885020100000000
Ta V Cu Se
1 1 6 8
direct
   0.0000000000000000    0.0000000000000000    0.0000000000000000 Ta
   0.5000000000000000    0.5000000000000000    0.0000000000000000 V
   0.2521433300000000    0.7478566700000000    0.0000000000000000 Cu
   0.7478566700000000    0.2521433300000000    0.0000000000000000 Cu
   0.2521433300000000    0.2521433300000000    0.0000000000000000 Cu
   0.7478566700000000    0.7478566700000000    0.0000000000000000 Cu
   0.0000000000000000    0.0000000000000000    0.5000000000000000 Cu
   0.5000000000000000    0.5000000000000000    0.5000000000000000 Cu
   0.5000000000000000    0.2584536400000000    0.7571900700000000 Se
   0.0000000000000000    0.7460081500000000    0.7473704000000000 Se
   0.5000000000000000    0.7415463600000000    0.7571900700000000 Se
   0.0000000000000000    0.2539918500000000    0.7473704000000000 Se
   0.7460081500000000    0.0000000000000000    0.2526296000000000 Se
   0.2584536400000000    0.5000000000000000    0.2428099300000000 Se
   0.2539918500000000    0.0000000000000000    0.2526296000000000 Se
   0.7415463600000000    0.5000000000000000    0.2428099300000000 Se
