Sr4 P2 O1
1.0
  -2.3869109399999999    2.3869109399999999    7.9132823999999999
   2.3869109399999999   -2.3869109399999999    7.9132823999999999
   2.3869109399999999    2.3869109399999999   -7.9132823999999999
Sr P O
4 2 1
direct
   0.6751556000000000    0.6751556000000000    0.0000000000000000 Sr
   0.3248444000000000    0.3248444000000000    0.0000000000000000 Sr
   0.5000000000000000    0.0000000000000000    0.5000000000000000 Sr
   0.0000000000000000    0.5000000000000000    0.5000000000000000 Sr
   0.8650901500000000    0.8650901500000000    0.0000000000000000 P
   0.1349098500000000    0.1349098500000000    0.0000000000000000 P
   0.5000000000000000    0.5000000000000000    0.0000000000000000 O
