Sr4 Nb2 In2 O12
1.0
   5.7458661800000002    0.0000000000000000    0.0014276300000000
   0.0000000000000000    5.8303240599999997    0.0000000000000000
  -5.7540124300000004    0.0000000000000000    8.1566112400000002
Sr Nb In O
4 2 2 12
direct
   0.2400102500000000    0.0391988800000000    0.7490936100000000 Sr
   0.7599897500000000    0.5391988800000000    0.7509063900000000 Sr
   0.2400102500000000    0.4608011200000000    0.2490936100000000 Sr
   0.7599897500000000    0.9608011200000000    0.2509063900000000 Sr
   0.5000000000000000    0.5000000000000000    0.0000000000000000 Nb
   0.5000000000000000    0.0000000000000000    0.5000000000000000 Nb
   0.0000000000000000    0.5000000000000000    0.5000000000000000 In
   0.0000000000000000    0.0000000000000000    0.0000000000000000 In
   0.6585835100000000    0.5235091300000000    0.2395998900000000 O
   0.3414164900000000    0.0235091300000000    0.2604001100000000 O
   0.3414164900000000    0.4764908700000000    0.7604001100000000 O
   0.6585835100000000    0.9764908700000000    0.7395998900000000 O
   0.8201282600000001    0.7988187000000000    0.5407869700000000 O
   0.1798717400000000    0.2988187000000000    0.9592130300000000 O
   0.1798717400000000    0.2011813000000000    0.4592130300000000 O
   0.8201282600000001    0.7011813000000000    0.0407869700000000 O
   0.7442670700000000    0.2214087700000000    0.0449653400000000 O
   0.2557329300000000    0.7214087700000000    0.4550346600000000 O
   0.2557329300000000    0.7785912300000000    0.9550346600000000 O
   0.7442670700000000    0.2785912300000000    0.5449653400000000 O
