Tl6 As2 O8
1.0
   8.6015158100000004   -0.0000003000000000    0.0000000000000000
  -4.3007576399999996    7.4491317800000001    0.0000000000000000
   0.0000000000000000    0.0000000000000000    5.1954127200000002
Tl As O
6 2 8
direct
   0.0863234500000000    0.3572092500000000    0.5051377400000000 Tl
   0.6427907500000000    0.7291142000000000    0.5051377400000000 Tl
   0.7291142000000000    0.0863234500000000    0.0051377400000000 Tl
   0.9136765500000000    0.6427907500000000    0.0051377400000000 Tl
   0.3572092500000000    0.2708858000000000    0.0051377400000000 Tl
   0.2708858000000000    0.9136765500000000    0.5051377400000000 Tl
   0.6666670000000000    0.3333330000000000    0.4837450600000000 As
   0.3333330000000000    0.6666670000000000    0.9837450599999999 As
   0.1201818900000000    0.5147205300000000    0.0834512300000000 O
   0.6054613500000000    0.1201818900000000    0.5834512300000000 O
   0.5147205300000000    0.3945386500000000    0.5834512300000000 O
   0.4852794700000000    0.6054613500000000    0.0834512300000000 O
   0.6666670000000000    0.3333330000000000    0.1485880500000000 O
   0.8798181100000000    0.4852794700000000    0.5834512300000000 O
   0.3333330000000000    0.6666670000000000    0.6485880500000000 O
   0.3945386500000000    0.8798181100000000    0.0834512300000000 O
