Cs8 Se4 O16
1.0
   8.3438128099999993    0.0000000000000000    0.0000000000000000
   0.0000000000000000    6.3984454499999996    0.0000000000000000
   0.0000000000000000    0.0000000000000000   11.2320834400000003
Cs Se O
8 4 16
direct
   0.1726010600000000    0.7500000000000000    0.9106206700000000 Cs
   0.9902750400000000    0.7500000000000000    0.2970726100000000 Cs
   0.0097249600000000    0.2500000000000000    0.7029273900000000 Cs
   0.5097249600000000    0.2500000000000000    0.7970726100000000 Cs
   0.4902750400000000    0.7500000000000000    0.2029273900000000 Cs
   0.8273989400000000    0.2500000000000000    0.0893793300000000 Cs
   0.6726010600000000    0.7500000000000000    0.5893793300000000 Cs
   0.3273989400000000    0.2500000000000000    0.4106206700000000 Cs
   0.2668824100000000    0.2500000000000000    0.0805387200000000 Se
   0.7331175900000000    0.7500000000000000    0.9194612800000000 Se
   0.2331175900000000    0.7500000000000000    0.5805387200000000 Se
   0.7668824100000000    0.2500000000000000    0.4194612800000000 Se
   0.5336195000000000    0.7500000000000000    0.9163508600000000 O
   0.6970128600000000    0.4632368100000000    0.3508863900000000 O
   0.1970128600000000    0.0367631900000000    0.1491136100000000 O
   0.6990299900000000    0.2500000000000000    0.5598121300000000 O
   0.0336195000000000    0.7500000000000000    0.5836491400000000 O
   0.8029871400000000    0.5367631899999999    0.8508863900000000 O
   0.8029871400000000    0.9632368100000001    0.8508863900000000 O
   0.3029871400000000    0.9632368100000001    0.6491136100000000 O
   0.3009700100000000    0.7500000000000000    0.4401878700000000 O
   0.1970128600000000    0.4632368100000000    0.1491136100000000 O
   0.6970128600000000    0.0367631900000000    0.3508863900000000 O
   0.1990299900000000    0.2500000000000000    0.9401878700000000 O
   0.9663805000000000    0.2500000000000000    0.4163508600000000 O
   0.8009700100000000    0.7500000000000000    0.0598121300000000 O
   0.3029871400000000    0.5367631899999999    0.6491136100000000 O
   0.4663805000000000    0.2500000000000000    0.0836491400000000 O
