Ba3 V2 O8
1.0
   2.8844165199999998    1.6653186200000001    7.1192569900000002
  -2.8844165199999998    1.6653186200000001    7.1192569900000002
   0.0000000000000000   -3.3306372400000002    7.1192569900000002
Ba V O
3 2 8
direct
   0.7947382200000001    0.7947382200000001    0.7947382200000001 Ba
   0.2052617800000000    0.2052617800000000    0.2052617800000000 Ba
   0.0000000000000000    0.0000000000000000    0.0000000000000000 Ba
   0.4074759600000000    0.4074759600000000    0.4074759600000000 V
   0.5925240400000000    0.5925240400000000    0.5925240400000000 V
   0.3272443800000000    0.3272443800000000    0.3272443800000000 O
   0.6727556200000000    0.6727556200000000    0.6727556200000000 O
   0.2719004500000000    0.7608112299999999    0.2719004500000000 O
   0.7608112299999999    0.2719004500000000    0.2719004500000000 O
   0.2719004500000000    0.2719004500000000    0.7608112299999999 O
   0.7280995500000000    0.2391887700000000    0.7280995500000000 O
   0.7280995500000000    0.7280995500000000    0.2391887700000000 O
   0.2391887700000000    0.7280995500000000    0.7280995500000000 O
