Cs4 Ge2 Se6
1.0
   7.1316921500000001   -3.6751052400000002    0.0432285800000000
   7.1316921500000001    3.6751052400000002    0.0432285800000000
  -5.9299965200000004    0.0000000000000000    8.4602520699999992
Cs Ge Se
4 2 6
direct
   0.5840935100000000    0.5840935100000000    0.8637464000000000 Cs
   0.4159064900000000    0.4159064900000000    0.1362536000000000 Cs
   0.8045708800000000    0.8045708800000000    0.6805128600000000 Cs
   0.1954291200000000    0.1954291200000000    0.3194871400000000 Cs
   0.1170930900000000    0.1170930900000000    0.6827113200000000 Ge
   0.8829069100000000    0.8829069100000000    0.3172886800000000 Ge
   0.1103383900000000    0.1103383900000000    0.9011823400000000 Se
   0.8896616100000000    0.8896616100000000    0.0988176600000000 Se
   0.2956362900000000    0.2956362900000000    0.7268790400000000 Se
   0.7043637100000000    0.7043637100000000    0.2731209600000000 Se
   0.7546346900000001    0.2453653100000000    0.5000000000000000 Se
   0.2453653100000000    0.7546346900000001    0.5000000000000000 Se
