La6 Cu2 Ge2 Se14
1.0
  10.6326723699999999    0.0000016600000000    0.0000000000000000
  -5.3163371300000000    9.2081634300000008    0.0000000000000000
   0.0000000000000000    0.0000000000000000    6.0780565299999996
La Cu Ge Se
6 2 2 14
direct
   0.3558880500000000    0.1302827300000000    0.3519480800000000 La
   0.2256053200000000    0.3558880500000000    0.8519480800000000 La
   0.1302827300000000    0.7743946800000000    0.8519480800000000 La
   0.8697172700000000    0.2256053200000000    0.3519480800000000 La
   0.7743946800000000    0.6441119500000000    0.3519480800000000 La
   0.6441119500000000    0.8697172700000000    0.8519480800000000 La
   0.0000000000000000    0.0000000000000000    0.3267936600000000 Cu
   0.0000000000000000    0.0000000000000000    0.8267936600000000 Cu
   0.6666670000000000    0.3333330000000000    0.9356375400000000 Ge
   0.3333330000000000    0.6666670000000000    0.4356375400000000 Ge
   0.6666670000000000    0.3333330000000000    0.5504799900000000 Se
   0.3333330000000000    0.6666670000000000    0.0504799900000000 Se
   0.1608201800000000    0.2537930400000000    0.3381512500000000 Se
   0.9070271400000000    0.1608201800000000    0.8381512500000000 Se
   0.2537930400000000    0.0929728600000000    0.8381512500000000 Se
   0.7462069600000000    0.9070271400000000    0.3381512500000000 Se
   0.0929728600000000    0.8391798200000000    0.3381512500000000 Se
   0.8391798200000000    0.7462069600000000    0.8381512500000000 Se
   0.5182762500000000    0.4209451600000000    0.0905632800000000 Se
   0.0973310900000000    0.5182762500000000    0.5905632800000000 Se
   0.4209451600000000    0.9026689100000000    0.5905632800000000 Se
   0.5790548400000000    0.0973310900000000    0.0905632800000000 Se
   0.9026689100000000    0.4817237500000000    0.0905632800000000 Se
   0.4817237500000000    0.5790548400000000    0.5905632800000000 Se
