Rb4 W4 O14
1.0
   3.8638921800000001    0.0000000000000000   -0.0044501900000000
   0.0000000000000000   14.1641834000000006    0.0000000000000000
  -0.0145208600000000    0.0000000000000000    6.1467423500000002
Rb W O
4 4 14
direct
   0.5057490600000000    0.8294451000000000    0.8352663299999999 Rb
   0.4942509400000000    0.3294451000000000    0.6647336700000001 Rb
   0.4942509400000000    0.1705549000000000    0.1647336700000000 Rb
   0.5057490600000000    0.6705549000000000    0.3352663300000000 Rb
   0.9727038099999999    0.4389898900000000    0.2153202200000000 W
   0.0272961900000000    0.9389898900000000    0.2846797800000000 W
   0.0272961900000000    0.5610101100000000    0.7846797800000000 W
   0.9727038099999999    0.0610101100000000    0.7153202200000000 W
   0.9974271100000000    0.1802922000000000    0.8018027100000000 O
   0.0025728900000000    0.6802922000000000    0.6981972900000000 O
   0.0025728900000000    0.8197078000000000    0.1981972900000000 O
   0.9974271100000000    0.3197078000000000    0.3018027100000000 O
   0.0031097900000000    0.9204347400000000    0.5863127100000000 O
   0.9968902100000000    0.4204347400000000    0.9136872900000000 O
   0.9968902100000000    0.0795652600000000    0.4136872900000000 O
   0.0031097900000000    0.5795652600000000    0.0863127100000000 O
   0.0000000000000000    0.5000000000000000    0.5000000000000000 O
   0.0000000000000000    0.0000000000000000    0.0000000000000000 O
   0.4932527700000000    0.4496005600000000    0.2230813800000000 O
   0.4932527700000000    0.0503994400000000    0.7230813800000000 O
   0.5067472300000000    0.5503994400000000    0.7769186200000000 O
   0.5067472300000000    0.9496005600000000    0.2769186200000000 O
