Si4 Ag8 S12
1.0
   6.5311765900000003    0.0000000000000000    0.0321675600000000
   0.0000000000000000    6.5455449500000000    0.0000000000000000
  -6.1645896699999998    0.0000000000000000   11.3876343900000006
Si Ag S
4 8 12
direct
   0.8389096000000000    0.1550380600000000    0.9953754100000000 Si
   0.1610904000000000    0.6550380600000000    0.5046245900000000 Si
   0.1610904000000000    0.8449619400000000    0.0046245900000000 Si
   0.8389096000000000    0.3449619400000000    0.4953754100000000 Si
   0.2285907500000000    0.5311975000000000    0.2488118300000000 Ag
   0.7714092500000000    0.0311975000000000    0.2511881700000000 Ag
   0.7714092500000000    0.4688025000000000    0.7511881700000000 Ag
   0.2285907500000000    0.9688025000000000    0.7488118300000000 Ag
   0.4840298500000000    0.3815956200000000    0.1227066100000000 Ag
   0.5159701500000000    0.8815956200000000    0.3772933900000000 Ag
   0.5159701500000000    0.6184043800000000    0.8772933900000000 Ag
   0.4840298500000000    0.1184043800000000    0.6227066100000000 Ag
   0.8783507400000000    0.3079124700000000    0.1456341500000000 S
   0.1216492600000000    0.8079124700000000    0.3543658500000000 S
   0.1216492600000000    0.6920875300000000    0.8543658500000000 S
   0.8783507400000000    0.1920875300000000    0.6456341500000000 S
   0.8468984400000000    0.8255955200000000    0.0234302400000000 S
   0.1531015600000000    0.3255955200000000    0.4765697600000000 S
   0.1531015600000000    0.1744044800000000    0.9765697600000000 S
   0.8468984400000000    0.6744044800000000    0.5234302400000000 S
   0.5468971400000000    0.2475121800000000    0.8404124200000000 S
   0.4531028600000000    0.7475121800000000    0.6595875800000000 S
   0.4531028600000000    0.7524878200000000    0.1595875800000000 S
   0.5468971400000000    0.2524878200000000    0.3404124200000000 S
