Sr4 Al6 Te1 O12
1.0
  -4.6946990000000000    4.6946990000000000    4.6946990000000000
   4.6946990000000000   -4.6946990000000000    4.6946990000000000
   4.6946990000000000    4.6946990000000000   -4.6946990000000000
Sr Al Te O
4 6 1 12
direct
   0.5913917200000000    0.5913917200000000    0.5913917200000000 Sr
   0.4086082800000000    0.0000000000000000    0.0000000000000000 Sr
   0.0000000000000000    0.0000000000000000    0.4086082800000000 Sr
   0.0000000000000000    0.4086082800000000    0.0000000000000000 Sr
   0.2500000000000000    0.5000000000000000    0.7500000000000000 Al
   0.7500000000000000    0.5000000000000000    0.2500000000000000 Al
   0.2500000000000000    0.7500000000000000    0.5000000000000000 Al
   0.7500000000000000    0.2500000000000000    0.5000000000000000 Al
   0.5000000000000000    0.2500000000000000    0.7500000000000000 Al
   0.5000000000000000    0.7500000000000000    0.2500000000000000 Al
   0.0000000000000000    0.0000000000000000    0.0000000000000000 Te
   0.0000000000000000    0.6162317600000000    0.3038888300000000 O
   0.3837682400000000    0.3837682400000000    0.6876570700000000 O
   0.0000000000000000    0.3038888300000000    0.6162317600000000 O
   0.3038888300000000    0.0000000000000000    0.6162317600000000 O
   0.6961111700000000    0.3123429300000000    0.6961111700000000 O
   0.3123429300000000    0.6961111700000000    0.6961111700000000 O
   0.6961111700000000    0.6961111700000000    0.3123429300000000 O
   0.6162317600000000    0.3038888300000000    0.0000000000000000 O
   0.3038888300000000    0.6162317600000000    0.0000000000000000 O
   0.3837682400000000    0.6876570700000000    0.3837682400000000 O
   0.6162317600000000    0.0000000000000000    0.3038888300000000 O
   0.6876570700000000    0.3837682400000000    0.3837682400000000 O
