Al1 Sb1 O4
1.0
   3.1504108700000000   -3.2349451299999998    0.0000000000000000
   3.1504108700000000    3.2349451299999998    0.0000000000000000
   0.0000000000000000    0.0000000000000000    3.0304289099999999
Al Sb O
1 1 4
direct
   0.5000000000000000    0.5000000000000000    0.5000000000000000 Al
   0.0000000000000000    0.0000000000000000    0.0000000000000000 Sb
   0.6880599300000000    0.6880599300000000    0.0000000000000000 O
   0.7977124400000000    0.2022875600000000    0.5000000000000000 O
   0.2022875600000000    0.7977124400000000    0.5000000000000000 O
   0.3119400700000000    0.3119400700000000    0.0000000000000000 O
