Li8 Cd4 Si4 O16
1.0
  10.7469885600000001    0.0000000000000000    0.0000000000000000
   0.0000000000000000    6.4717246700000004    0.0000000000000000
   0.0000000000000000    0.0000000000000000    5.1272419700000000
Li Cd Si O
8 4 4 16
direct
   0.4121148100000000    0.0005008400000000    0.8264865900000000 Li
   0.0878851900000000    0.9994991600000001    0.3264865900000000 Li
   0.5878851899999999    0.5005008399999999    0.1735134100000000 Li
   0.0878851900000000    0.5005008399999999    0.3264865900000000 Li
   0.5878851899999999    0.9994991600000001    0.1735134100000000 Li
   0.4121148100000000    0.4994991600000000    0.8264865900000000 Li
   0.9121148100000001    0.0005008400000000    0.6735134100000000 Li
   0.9121148100000001    0.4994991600000000    0.6735134100000000 Li
   0.6635143700000000    0.7500000000000000    0.6721926200000000 Cd
   0.8364856300000000    0.2500000000000000    0.1721926200000000 Cd
   0.1635143700000000    0.7500000000000000    0.8278073800000000 Cd
   0.3364856300000000    0.2500000000000000    0.3278073800000000 Cd
   0.6580868500000000    0.2500000000000000    0.6676094600000000 Si
   0.8419131500000000    0.7500000000000000    0.1676094600000000 Si
   0.1580868500000000    0.2500000000000000    0.8323905400000000 Si
   0.3419131500000000    0.7500000000000000    0.3323905400000000 Si
   0.5891128400000000    0.0456534900000000    0.7926697200000000 O
   0.0891128400000000    0.4543465100000000    0.7073302800000000 O
   0.1455156000000000    0.2500000000000000    0.1526837800000000 O
   0.8084078600000000    0.2500000000000000    0.7432114100000000 O
   0.4108871600000000    0.5456534900000000    0.2073302800000000 O
   0.9108871600000000    0.9543465100000000    0.2926697200000000 O
   0.6915921400000000    0.7500000000000000    0.2432114100000000 O
   0.8544844000000000    0.7500000000000000    0.8473162200000000 O
   0.5891128400000000    0.4543465100000000    0.7926697200000000 O
   0.1915921400000000    0.7500000000000000    0.2567885900000000 O
   0.6455156000000000    0.2500000000000000    0.3473162200000000 O
   0.4108871600000000    0.9543465100000000    0.2073302800000000 O
   0.3084078600000000    0.2500000000000000    0.7567885900000000 O
   0.9108871600000000    0.5456534900000000    0.2926697200000000 O
   0.0891128400000000    0.0456534900000000    0.7073302800000000 O
   0.3544844000000000    0.7500000000000000    0.6526837800000000 O
