Cs4 Ba4 V4 S16
1.0
  11.8422478600000005    0.0000000000000000    0.0000000000000000
   0.0000000000000000    6.7541881000000004    0.0000000000000000
   0.0000000000000000    0.0000000000000000    9.9737507000000001
Cs Ba V S
4 4 4 16
direct
   0.9308887400000000    0.2500000000000000    0.8672106400000000 Cs
   0.4308887400000000    0.2500000000000000    0.6327893600000000 Cs
   0.0691112600000000    0.7500000000000000    0.1327893600000000 Cs
   0.5691112600000000    0.7500000000000000    0.3672106400000000 Cs
   0.8487579400000000    0.2500000000000000    0.4058766600000000 Ba
   0.3487579400000000    0.2500000000000000    0.0941233400000000 Ba
   0.1512420600000000    0.7500000000000000    0.5941233400000000 Ba
   0.6512420600000000    0.7500000000000000    0.9058766600000000 Ba
   0.6705528900000000    0.2500000000000000    0.1203087800000000 V
   0.1705528900000000    0.2500000000000000    0.3796912200000000 V
   0.3294471100000000    0.7500000000000000    0.8796912200000000 V
   0.8294471100000000    0.7500000000000000    0.6203087800000000 V
   0.7775954899999999    0.5051938100000000    0.1351808200000000 S
   0.2775954900000000    0.9948061900000000    0.3648191800000000 S
   0.2224045100000000    0.0051938100000000    0.8648191800000000 S
   0.7224045100000001    0.4948061900000000    0.6351808200000000 S
   0.2224045100000000    0.4948061900000000    0.8648191800000000 S
   0.7224045100000001    0.0051938100000000    0.6351808200000000 S
   0.7775954899999999    0.9948061900000000    0.1351808200000000 S
   0.2775954900000000    0.5051938100000000    0.3648191800000000 S
   0.5588628600000000    0.2500000000000000    0.2911663700000000 S
   0.0588628600000000    0.2500000000000000    0.2088336300000000 S
   0.4411371400000000    0.7500000000000000    0.7088336300000000 S
   0.9411371400000000    0.7500000000000000    0.7911663700000000 S
   0.5794785900000000    0.2500000000000000    0.9334697199999999 S
   0.0794785900000000    0.2500000000000000    0.5665302800000001 S
   0.4205214100000000    0.7500000000000000    0.0665302800000000 S
   0.9205214100000000    0.7500000000000000    0.4334697200000000 S
