Bi4 P4 O16
1.0
   6.4591748600000001    0.0000000000000000   -0.0182194500000000
   0.0000000000000000    6.9463907400000000    0.0000000000000000
  -4.8135504100000004    0.0000000000000000    6.5593217800000003
Bi P O
4 4 16
direct
   0.1956021300000000    0.3546544500000000    0.7831484399999999 Bi
   0.1956021300000000    0.1453455500000000    0.2831484400000000 Bi
   0.8043978700000000    0.6453455500000000    0.2168515600000000 Bi
   0.8043978700000000    0.8546544500000000    0.7168515600000001 Bi
   0.6867497900000000    0.3381961500000000    0.7995310200000000 P
   0.6867497900000000    0.1618038500000000    0.2995310200000000 P
   0.3132502100000000    0.6618038500000000    0.2004689800000000 P
   0.3132502100000000    0.8381961500000000    0.7004689800000000 P
   0.8204076000000000    0.4951616900000000    0.7599738800000000 O
   0.8204076000000000    0.0048383100000000    0.2599738800000000 O
   0.1795924000000000    0.5048383100000000    0.2400261200000000 O
   0.1795924000000000    0.9951616900000000    0.7400261200000000 O
   0.8646382300000000    0.1581506500000000    0.8800256000000000 O
   0.8646382300000000    0.3418493500000000    0.3800256000000000 O
   0.1353617700000000    0.8418493500000001    0.1199744000000000 O
   0.1353617700000000    0.6581506499999999    0.6199744000000000 O
   0.6468614600000000    0.3983774400000000    0.9649856700000000 O
   0.6468614600000000    0.1016225600000000    0.4649856700000000 O
   0.3531385400000000    0.6016225600000000    0.0350143300000000 O
   0.3531385400000000    0.8983774400000000    0.5350143300000000 O
   0.4060170300000000    0.2951657600000000    0.6153739400000000 O
   0.4060170300000000    0.2048342400000000    0.1153739400000000 O
   0.5939829700000000    0.7048342399999999    0.3846260600000000 O
   0.5939829700000000    0.7951657600000001    0.8846260600000000 O
