Rb3 Y1 V2 O8
1.0
   5.9901835600000002    0.0000000000000000    0.0000000000000000
  -2.9950917800000001    5.1876510099999997    0.0000000000000000
   0.0000000000000000    0.0000000000000000    7.8074040099999999
Rb Y V O
3 1 2 8
direct
   0.3333330000000000    0.6666670000000000    0.6960383999999999 Rb
   0.6666670000000000    0.3333330000000000    0.3039616000000000 Rb
   0.0000000000000000    0.0000000000000000    0.0000000000000000 Rb
   0.0000000000000000    0.0000000000000000    0.5000000000000000 Y
   0.3333330000000000    0.6666670000000000    0.2546727700000000 V
   0.6666670000000000    0.3333330000000000    0.7453272300000000 V
   0.3333330000000000    0.6666670000000000    0.0414430500000000 O
   0.6666670000000000    0.3333330000000000    0.9585569500000000 O
   0.1744110900000000    0.8255889100000000    0.3305292500000000 O
   0.8255889100000000    0.1744110900000000    0.6694707500000000 O
   0.1744110900000000    0.3488221800000000    0.3305292500000000 O
   0.8255889100000000    0.6511778200000000    0.6694707500000000 O
   0.6511778200000000    0.8255889100000000    0.3305292500000000 O
   0.3488221800000000    0.1744110900000000    0.6694707500000000 O
