Na2 Zr4 As6 O24
1.0
   4.6352348499999998    2.6761537299999998    7.7097328100000002
  -4.6352348499999998    2.6761537299999998    7.7097328100000002
   0.0000000000000000   -5.3523074499999996    7.7097328100000002
Na Zr As O
2 4 6 24
direct
   0.5000000000000000    0.5000000000000000    0.5000000000000000 Na
   0.0000000000000000    0.0000000000000000    0.0000000000000000 Na
   0.3576083200000000    0.3576083200000000    0.3576083200000000 Zr
   0.1423916800000000    0.1423916800000000    0.1423916800000000 Zr
   0.8576083200000000    0.8576083200000000    0.8576083200000000 Zr
   0.6423916800000000    0.6423916800000000    0.6423916800000000 Zr
   0.2500000000000000    0.5421589100000000    0.9578410900000000 As
   0.4578410900000000    0.0421589100000000    0.7500000000000000 As
   0.5421589100000000    0.9578410900000000    0.2500000000000000 As
   0.7500000000000000    0.4578410900000000    0.0421589100000000 As
   0.9578410900000000    0.2500000000000000    0.5421589100000000 As
   0.0421589100000000    0.7500000000000000    0.4578410900000000 As
   0.3735602400000000    0.9982566899999999    0.1979002000000000 O
   0.7642203500000000    0.4213009700000000    0.5609403400000000 O
   0.3020998000000000    0.5017433100000001    0.1264397600000000 O
   0.0786990300000000    0.7357796500000000    0.9390596600000000 O
   0.6264397600000000    0.0017433100000000    0.8020998000000000 O
   0.4213009700000000    0.5609403400000000    0.7642203500000000 O
   0.2357796500000000    0.5786990300000000    0.4390596600000000 O
   0.2642203500000000    0.0609403400000000    0.9213009700000000 O
   0.9213009700000000    0.2642203500000000    0.0609403400000000 O
   0.9982566899999999    0.1979002000000000    0.3735602400000000 O
   0.5786990300000000    0.4390596600000000    0.2357796500000000 O
   0.6979002000000000    0.4982566900000000    0.8735602400000000 O
   0.4982566900000000    0.8735602400000000    0.6979002000000000 O
   0.8735602400000000    0.6979002000000000    0.4982566900000000 O
   0.4390596600000000    0.2357796500000000    0.5786990300000000 O
   0.0017433100000000    0.8020998000000000    0.6264397600000000 O
   0.7357796500000000    0.9390596600000000    0.0786990300000000 O
   0.1264397600000000    0.3020998000000000    0.5017433100000001 O
   0.5017433100000001    0.1264397600000000    0.3020998000000000 O
   0.9390596600000000    0.0786990300000000    0.7357796500000000 O
   0.0609403400000000    0.9213009700000000    0.2642203500000000 O
   0.1979002000000000    0.3735602400000000    0.9982566899999999 O
   0.8020998000000000    0.6264397600000000    0.0017433100000000 O
   0.5609403400000000    0.7642203500000000    0.4213009700000000 O
