Mg2 Ga4 O8
1.0
  -2.9131264099999998    2.9581009699999998    4.1288883900000002
   2.9131264099999998   -2.9581009699999998    4.1288883900000002
   2.9131264099999998    2.9581009699999998   -4.1288883900000002
Mg Ga O
2 4 8
direct
   0.5000000000000000    0.5000000000000000    0.5000000000000000 Mg
   0.5000000000000000    0.0000000000000000    0.0000000000000000 Mg
   0.8852575100000000    0.1352575100000000    0.7500000000000000 Ga
   0.1147424900000000    0.8647424900000000    0.2500000000000000 Ga
   0.0000000000000000    0.5000000000000000    0.5000000000000000 Ga
   0.5000000000000000    0.5000000000000000    0.0000000000000000 Ga
   0.2474324400000000    0.7378223900000001    0.5096100600000000 O
   0.7282113300000000    0.7378223900000001    0.9903899400000000 O
   0.2505617100000000    0.2643378600000000    0.5137751500000000 O
   0.2505617100000000    0.7367865600000000    0.9862248500000000 O
   0.7494382900000000    0.2632134400000000    0.0137751500000000 O
   0.7494382900000000    0.7356621400000000    0.4862248500000000 O
   0.2717886700000000    0.2621776100000000    0.0096100600000000 O
   0.7525675600000000    0.2621776100000000    0.4903899400000000 O
