Ba8 Zr3 Sb4 O24
1.0
  -4.1451169600000002    4.1451169600000002    8.3446572299999993
   4.1451169600000002   -4.1451169600000002    8.3446572299999993
   4.1451169600000002    4.1451169600000002   -8.3446572299999993
Ba Zr Sb O
8 3 4 24
direct
   0.3511361600000000    0.3511361600000000    0.4663337400000000 Ba
   0.3511361600000000    0.8848024200000000    0.0000000000000000 Ba
   0.6488638400000000    0.1151975800000000    0.0000000000000000 Ba
   0.6488638400000000    0.6488638400000000    0.5336662599999999 Ba
   0.8848024200000000    0.8848024200000000    0.5336662599999999 Ba
   0.1151975800000000    0.6488638400000000    0.0000000000000000 Ba
   0.1151975800000000    0.1151975800000000    0.4663337400000000 Ba
   0.8848024200000000    0.3511361600000000    0.0000000000000000 Ba
   0.2500000000000000    0.7500000000000000    0.5000000000000000 Zr
   0.7500000000000000    0.2500000000000000    0.5000000000000000 Zr
   0.5000000000000000    0.5000000000000000    0.0000000000000000 Zr
   0.2566420900000000    0.2566420900000000    0.0000000000000000 Sb
   0.7433579100000000    0.7433579100000000    0.0000000000000000 Sb
   0.0000000000000000    0.5000000000000000    0.5000000000000000 Sb
   0.5000000000000000    0.0000000000000000    0.5000000000000000 Sb
   0.7530691200000000    0.5000000000000000    0.2530691200000000 O
   0.0000000000000000    0.7313541800000000    0.7313541800000000 O
   0.5000000000000000    0.7530691200000000    0.2530691200000000 O
   0.5000000000000000    0.2469308800000000    0.7469308800000000 O
   0.3763945000000000    0.8763945000000000    0.5000000000000000 O
   0.7313541800000000    0.0000000000000000    0.7313541800000000 O
   0.0000000000000000    0.2686458200000000    0.2686458200000000 O
   0.2555903900000000    0.5012464200000000    0.2456550300000000 O
   0.2469308800000000    0.5000000000000000    0.7469308800000000 O
   0.1407812500000000    0.1407812500000000    0.0000000000000000 O
   0.2686458200000000    0.0000000000000000    0.2686458200000000 O
   0.9900646400000001    0.7444096100000001    0.2456550300000000 O
   0.4987535800000000    0.7444096100000001    0.7543449700000000 O
   0.6253606400000000    0.6253606400000000    0.0000000000000000 O
   0.0099353600000000    0.2555903900000000    0.7543449700000000 O
   0.8592187500000000    0.8592187500000000    0.0000000000000000 O
   0.7444096100000001    0.9900646400000001    0.2456550300000000 O
   0.5012464200000000    0.2555903900000000    0.2456550300000000 O
   0.3746393600000000    0.3746393600000000    0.0000000000000000 O
   0.2555903900000000    0.0099353600000000    0.7543449700000000 O
   0.7444096100000001    0.4987535800000000    0.7543449700000000 O
   0.1236055000000000    0.6236055000000000    0.5000000000000000 O
   0.6236055000000000    0.1236055000000000    0.5000000000000000 O
   0.8763945000000000    0.3763945000000000    0.5000000000000000 O
