Ge2 P4 O14
1.0
   4.6946630300000001   -0.0062469600000000    0.0059785100000000
  -1.7947699699999999    6.5403770500000000   -0.0013056300000000
  -0.3783257000000000   -0.3316229500000000    7.8001774900000003
Ge P O
2 4 14
direct
   0.5000000000000000    0.5000000000000000    0.5000000000000000 Ge
   0.0000000000000000    0.0000000000000000    0.0000000000000000 Ge
   0.8876105600000000    0.2539062100000000    0.3104330600000000 P
   0.1123894400000000    0.7460937900000000    0.6895669400000000 P
   0.4773512600000000    0.8609461899999999    0.2369921300000000 P
   0.5226487399999999    0.1390538100000000    0.7630078700000000 P
   0.2028211700000000    0.9341637500000000    0.1945657400000000 O
   0.7971788300000000    0.0658362500000000    0.8054342600000000 O
   0.1524991400000000    0.2929461800000000    0.4391143200000000 O
   0.8475008600000000    0.7070538200000001    0.5608856800000001 O
   0.6939696300000000    0.0329886500000000    0.3625900100000000 O
   0.3060303700000000    0.9670113500000000    0.6374099900000000 O
   0.3007075600000000    0.5950055700000000    0.6763233600000000 O
   0.6992924400000000    0.4049944300000000    0.3236766400000000 O
   0.6177194100000000    0.3289844800000000    0.6591537200000001 O
   0.3822805900000000    0.6710155200000000    0.3408462800000000 O
   0.0416953100000000    0.7646461900000000    0.8777078000000000 O
   0.9583046900000000    0.2353538100000000    0.1222922000000000 O
   0.3558398800000000    0.1678816500000000    0.9209499700000000 O
   0.6441601200000000    0.8321183500000000    0.0790500300000000 O
