Sn1 P2 S6
1.0
   2.9978633900000000    1.7308175200000000    6.5818773699999999
  -2.9978634000000000    1.7308175100000001    6.5818773699999999
   0.0000000100000000   -3.4616340900000000    6.5818773799999999
Sn P S
1 2 6
direct
   0.6663406600000000    0.6663406600000000    0.6663406600000000 Sn
   0.2773889300000000    0.2773889300000000    0.2773889300000000 P
   0.3899420600000000    0.3899420600000000    0.3899420600000000 P
   0.5721248300000000    0.2551912500000000    0.9208043700000000 S
   0.2551912500000000    0.9208043700000000    0.5721248300000000 S
   0.9208043700000000    0.5721248300000000    0.2551912500000000 S
   0.4262474900000000    0.7391713500000000    0.0868220600000000 S
   0.7391713500000000    0.0868220600000000    0.4262474900000000 S
   0.0868220600000000    0.4262474900000000    0.7391713500000000 S
