Ca2 Al4 O8
1.0
   5.5612844900000002    0.0000000000000000   -0.0112119000000000
   0.0000000000000000    3.7674268700000000    0.0000000000000000
  -1.3750917199999999    0.0000000000000000    6.8977414100000001
Ca Al O
2 4 8
direct
   0.2685829800000000    0.2500000000000000    0.5714726200000000 Ca
   0.7314170200000000    0.7500000000000000    0.4285273800000000 Ca
   0.1538021800000000    0.2500000000000000    0.1296566100000000 Al
   0.8461978200000000    0.7500000000000000    0.8703433900000001 Al
   0.6559815900000000    0.2500000000000000    0.1133024100000000 Al
   0.3440184100000000    0.7500000000000000    0.8866975900000000 Al
   0.0567612500000000    0.7500000000000000    0.6909670400000000 O
   0.1420781000000000    0.7500000000000000    0.0724526500000000 O
   0.5416862700000000    0.7500000000000000    0.6947403300000000 O
   0.3563111300000000    0.2500000000000000    0.9246275100000000 O
   0.4583137300000000    0.2500000000000000    0.3052596700000000 O
   0.8579219000000000    0.2500000000000000    0.9275473500000000 O
   0.6436888700000000    0.7500000000000000    0.0753724900000000 O
   0.9432387500000000    0.2500000000000000    0.3090329600000000 O
