Li2 V2 P8 O24
1.0
   5.9290335199999999   -4.1429877499999996   -0.0033528400000000
   5.9290335199999999    4.1429877499999996   -0.0033528400000000
  -4.5858573900000001    0.0000000000000000    8.5857895299999996
Li V P O
2 2 8 24
direct
   0.9563655800000000    0.0436344200000000    0.2500000000000000 Li
   0.0436344200000000    0.9563655800000000    0.7500000000000000 Li
   0.0000000000000000    0.5000000000000000    0.5000000000000000 V
   0.5000000000000000    0.0000000000000000    0.0000000000000000 V
   0.3042785600000000    0.3143392300000000    0.8020238400000000 P
   0.7468931200000000    0.2687548600000000    0.9748203100000000 P
   0.6957214400000000    0.6856607700000000    0.1979761600000000 P
   0.7312451400000000    0.2531068800000000    0.5251796900000000 P
   0.3143392300000000    0.3042785600000000    0.3020238400000000 P
   0.2531068800000000    0.7312451400000000    0.0251796900000000 P
   0.2687548600000000    0.7468931200000000    0.4748203100000000 P
   0.6856607700000000    0.6957214400000000    0.6979761600000000 P
   0.3450682800000000    0.1919874300000000    0.1431953900000000 O
   0.6939558600000000    0.1922254200000000    0.0770641100000000 O
   0.5351347200000000    0.3232630200000000    0.8389977100000000 O
   0.9155829200000000    0.1501674500000000    0.9062888099999999 O
   0.1202494600000000    0.2953145600000000    0.3210742000000000 O
   0.1922254200000000    0.6939558600000000    0.5770641100000000 O
   0.7860248900000000    0.4973538700000000    0.0710268900000000 O
   0.8498325500000000    0.0844170800000000    0.5937111900000001 O
   0.5026461300000000    0.2139751100000000    0.4289731100000000 O
   0.6767369800000000    0.4648652800000000    0.6610022900000000 O
   0.1919874300000000    0.3450682800000000    0.6431953900000000 O
   0.7046854400000000    0.8797505400000000    0.1789258000000000 O
   0.2953145600000000    0.1202494600000000    0.8210742000000000 O
   0.6549317200000000    0.8080125700000000    0.8568046100000000 O
   0.3232630200000000    0.5351347200000000    0.3389977100000000 O
   0.4973538700000000    0.7860248900000000    0.5710268900000000 O
   0.8080125700000000    0.6549317200000000    0.3568046100000000 O
   0.2139751100000000    0.5026461300000000    0.9289731100000000 O
   0.8077745800000000    0.3060441400000000    0.4229358900000000 O
   0.8797505400000000    0.7046854400000000    0.6789258000000000 O
   0.0844170800000000    0.8498325500000000    0.0937111900000000 O
   0.4648652800000000    0.6767369800000000    0.1610022900000000 O
   0.3060441400000000    0.8077745800000000    0.9229358900000000 O
   0.1501674500000000    0.9155829200000000    0.4062888100000000 O
