Al8 Si4 O20
1.0
   5.5868099999999998    0.0000000000000000    0.0000000000000000
  -1.3768279999999999    7.0085199999999999    0.0000000000000000
  -0.0011150000000000   -2.2136439999999999    7.5596189999999996
Al Si O
8 4 20
direct
   0.8355170000000000    0.8884730000000000    0.0830420000000000 Al
   0.1644830000000000    0.1115270000000000    0.9169580000000001 Al
   0.3598800000000000    0.9007970000000000    0.6136520000000000 Al
   0.6401200000000000    0.0992030000000000    0.3863480000000000 Al
   0.0496570000000000    0.7032890000000001    0.3013460000000000 Al
   0.9503430000000000    0.2967110000000000    0.6986540000000000 Al
   0.5419130000000000    0.6751120000000000    0.2959820000000000 Al
   0.4580870000000000    0.3248880000000000    0.7040180000000000 Al
   0.8112290000000000    0.7088970000000000    0.6683030000000000 Si
   0.1887710000000000    0.2911030000000000    0.3316970000000000 Si
   0.2931000000000000    0.7036480000000001    0.9350150000000000 Si
   0.7069000000000000    0.2963520000000000    0.0649850000000000 Si
   0.2435900000000000    0.4979740000000000    0.7682450000000000 O
   0.7564100000000000    0.5020260000000000    0.2317550000000000 O
   0.7560220000000000    0.4986890000000000    0.7253610000000000 O
   0.2439780000000000    0.5013110000000000    0.2746390000000000 O
   0.5347430000000000    0.7082550000000000    0.0538300000000000 O
   0.4652570000000000    0.2917450000000000    0.9461700000000000 O
   0.5706020000000001    0.7173150000000000    0.5541590000000000 O
   0.4293980000000000    0.2826850000000000    0.4458410000000000 O
   0.3607940000000000    0.8789520000000000    0.3690940000000000 O
   0.6392060000000001    0.1210480000000000    0.6309060000000000 O
   0.3338060000000000    0.8922930000000000    0.8476669999999999 O
   0.6661940000000000    0.1077070000000000    0.1523330000000000 O
   0.1282970000000000    0.1084840000000000    0.1465370000000000 O
   0.8717030000000000    0.8915160000000000    0.8534630000000000 O
   0.1805240000000000    0.1220040000000000    0.6844460000000000 O
   0.8194760000000000    0.8779960000000000    0.3155540000000000 O
   0.9535070000000000    0.2749770000000000    0.4548640000000000 O
   0.0464930000000000    0.7250230000000000    0.5451360000000000 O
   0.9364380000000000    0.2835200000000000    0.9351600000000000 O
   0.0635620000000000    0.7164800000000000    0.0648400000000000 O
