Li4 In4 Se8
1.0
   7.2809762999999998    0.0000000000000000    0.0000000000000000
   0.0000000000000000    8.3698856100000008    0.0000000000000000
   0.0000000000000000    0.0000000000000000    6.8541752300000001
Li In Se
4 4 8
direct
   0.5897602400000000    0.8769901700000000    0.9986847700000000 Li
   0.4102397600000000    0.1230098300000000    0.4986847700000000 Li
   0.9102397600000000    0.3769901700000000    0.4986847700000000 Li
   0.0897602400000000    0.6230098300000000    0.9986847700000000 Li
   0.5786754800000000    0.3741497200000000    0.9984397800000000 In
   0.4213245200000000    0.6258502800000000    0.4984397800000000 In
   0.9213245200000000    0.8741497200000000    0.4984397800000000 In
   0.0786754800000000    0.1258502800000000    0.9984397800000000 In
   0.0824182000000000    0.1336514500000000    0.6172543900000000 Se
   0.9175818000000000    0.8663485500000000    0.1172543900000000 Se
   0.4175818000000000    0.6336514500000000    0.1172543900000000 Se
   0.5824182000000000    0.3663485500000000    0.6172543900000000 Se
   0.4154333900000000    0.1183117200000000    0.1284210600000000 Se
   0.5845666100000000    0.8816882800000000    0.6284210600000000 Se
   0.0845666100000000    0.6183117200000000    0.6284210600000000 Se
   0.9154333900000000    0.3816882800000000    0.1284210600000000 Se
