Pb8 C4 O16
1.0
   5.0701346999999997    0.0000000000000000    0.0000000000000000
   0.0000000000000000    9.2114038899999997    0.0000000000000000
   0.0000000000000000    0.0000000000000000    9.2427991299999999
Pb C O
8 4 16
direct
   0.7419965800000000    0.1731852700000000    0.1998698700000000 Pb
   0.2419965800000000    0.3268147300000000    0.8001301300000000 Pb
   0.7580034200000000    0.8268147300000001    0.6998698700000000 Pb
   0.2580034200000000    0.6731852699999999    0.3001301300000000 Pb
   0.7861657500000000    0.4044164600000000    0.5106835500000000 Pb
   0.2861657500000000    0.0955835400000000    0.4893164500000000 Pb
   0.7138342500000000    0.5955835400000000    0.0106835500000000 Pb
   0.2138342500000000    0.9044164600000000    0.9893164500000000 Pb
   0.7555948300000001    0.8560232400000000    0.2470985300000000 C
   0.2555948300000000    0.6439767600000000    0.7529014700000000 C
   0.7444051699999999    0.1439767600000000    0.7470985300000000 C
   0.2444051700000000    0.3560232400000000    0.2529014700000000 C
   0.5337656900000000    0.9235681500000000    0.2482717800000000 O
   0.0337656900000000    0.5764318500000000    0.7517282199999999 O
   0.9662343100000000    0.0764318500000000    0.7482717800000001 O
   0.4662343100000000    0.4235681500000000    0.2517282200000000 O
   0.0244644700000000    0.4264207500000000    0.2642078400000000 O
   0.5244644700000000    0.0735792500000000    0.7357921600000000 O
   0.4755355300000000    0.5735792500000000    0.7642078400000000 O
   0.9755355300000000    0.9264207500000000    0.2357921600000000 O
   0.7387415500000000    0.2853991100000000    0.7595283700000000 O
   0.2387415500000000    0.2146008900000000    0.2404716300000000 O
   0.7612584500000000    0.7146008900000000    0.2595283700000000 O
   0.2612584500000000    0.7853991100000000    0.7404716300000000 O
   0.7173752700000000    0.1752564200000000    0.4371983200000000 O
   0.2173752700000000    0.3247435800000000    0.5628016800000000 O
   0.7826247300000000    0.8247435800000000    0.9371983200000000 O
   0.2826247300000000    0.6752564200000000    0.0628016800000000 O
