Zn3 P2 Pb3 W1 O14
1.0
   8.3321298200000005    0.0000000000000000    0.0000000000000000
  -4.1660649100000002    7.2158362199999999    0.0000000000000000
   0.0000000000000000    0.0000000000000000    5.0965454100000001
Zn P Pb W O
3 2 3 1 14
direct
   0.7482000900000000    0.7482000900000000    0.5000000000000000 Zn
   1.0000000000000000    0.2517999100000000    0.5000000000000000 Zn
   0.2517999100000000    0.0000000000000000    0.5000000000000000 Zn
   0.3333330000000000    0.6666670000000000    0.4475031900000000 P
   0.6666670000000000    0.3333330000000000    0.5524968099999999 P
   1.0000000000000000    0.5919057900000000    0.0000000000000000 Pb
   0.5919057900000000    0.0000000000000000    0.0000000000000000 Pb
   0.4080942100000000    0.4080942100000000    0.0000000000000000 Pb
   0.0000000000000000    0.0000000000000000    0.0000000000000000 W
   0.9077954300000000    0.7829096500000000    0.2176301000000000 O
   0.8751142200000001    0.0922045700000000    0.2176301000000000 O
   0.2170903500000000    0.1248857800000000    0.2176301000000000 O
   0.1248857800000000    0.2170903500000000    0.7823699000000000 O
   0.0922045700000000    0.8751142200000001    0.7823699000000000 O
   0.7829096500000000    0.9077954300000000    0.7823699000000000 O
   0.3333330000000000    0.6666670000000000    0.7480408200000001 O
   0.6666670000000000    0.3333330000000000    0.2519591800000000 O
   0.5246087900000000    0.7129303600000000    0.3285669600000000 O
   0.1883215600000000    0.4753912100000000    0.3285669600000000 O
   0.2870696400000000    0.8116784400000000    0.3285669600000000 O
   0.8116784400000000    0.2870696400000000    0.6714330400000000 O
   0.4753912100000000    0.1883215600000000    0.6714330400000000 O
   0.7129303600000000    0.5246087900000000    0.6714330400000000 O
