Rb4 Ge2 Se6
1.0
   6.9605611100000004   -3.5451091099999998    0.0513531600000000
   6.9605611100000004    3.5451091099999998    0.0513531600000000
  -5.7198863800000002    0.0000000000000000    8.2022053800000005
Rb Ge Se
4 2 6
direct
   0.8127598500000000    0.8127598500000000    0.1813275900000000 Rb
   0.1872401500000000    0.1872401500000000    0.8186724100000000 Rb
   0.5881632100000000    0.5881632100000000    0.3727806800000000 Rb
   0.4118367900000000    0.4118367900000000    0.6272193200000000 Rb
   0.8797476400000001    0.8797476400000001    0.8144928299999999 Ge
   0.1202523600000000    0.1202523600000000    0.1855071700000000 Ge
   0.3011059400000000    0.3011059400000000    0.2249528600000000 Se
   0.6988940600000000    0.6988940600000000    0.7750471400000000 Se
   0.7455329900000000    0.2544670100000000    0.0000000000000000 Se
   0.2544670100000000    0.7455329900000000    0.0000000000000000 Se
   0.8870781300000000    0.8870781300000000    0.5889152600000001 Se
   0.1129218700000000    0.1129218700000000    0.4110847400000000 Se
