Bi2 Sb2 O8
1.0
   5.9924703399999997   -2.4706201600000002   -0.0665087000000000
   5.9924703399999997    2.4706201600000002   -0.0665087000000000
  -1.4419135199999999    0.0000000000000000    5.2966804099999996
Bi Sb O
2 2 8
direct
   0.2535151500000000    0.7464848500000000    0.2500000000000000 Bi
   0.7464848500000000    0.2535151500000000    0.7500000000000000 Bi
   0.0000000000000000    0.5000000000000000    0.5000000000000000 Sb
   0.5000000000000000    0.0000000000000000    0.0000000000000000 Sb
   0.5032462200000000    0.6878888100000000    0.9642018200000000 O
   0.3121111900000000    0.4967537800000000    0.5357981800000000 O
   0.4967537800000000    0.3121111900000000    0.0357981800000000 O
   0.6878888100000000    0.5032462200000000    0.4642018200000000 O
   0.2298590000000000    0.1377602400000000    0.6737069400000000 O
   0.8622397600000000    0.7701410000000000    0.8262930600000000 O
   0.7701410000000000    0.8622397600000000    0.3262930600000000 O
   0.1377602400000000    0.2298590000000000    0.1737069400000000 O
