Bi2 As2 Pb2 O10
1.0
   6.6316467499999998   -2.7442942800000001   -0.0181406500000000
   6.6316467499999998    2.7442942800000001   -0.0181406500000000
  -2.6763755699999998    0.0000000000000000    6.5245165299999996
Bi As Pb O
2 2 2 10
direct
   0.9865625300000000    0.9865625300000000    0.7437870700000000 Bi
   0.0134374700000000    0.0134374700000000    0.2562129300000000 Bi
   0.3378607000000000    0.3378607000000000    0.3493751800000000 As
   0.6621393000000000    0.6621393000000000    0.6506248200000000 As
   0.6614742700000000    0.6614742700000000    0.1235144300000000 Pb
   0.3385257300000000    0.3385257300000000    0.8764855700000000 Pb
   0.7981366900000000    0.7981366900000000    0.6903443700000000 O
   0.1068501000000000    0.6082067900000000    0.2200546100000000 O
   0.2018633100000000    0.2018633100000000    0.3096556300000000 O
   0.4182193500000000    0.4182193500000000    0.6045804299999999 O
   0.3917932100000000    0.8931499000000001    0.7799453900000000 O
   0.6082067900000000    0.1068501000000000    0.2200546100000000 O
   0.2380179500000000    0.7619820500000000    0.0000000000000000 O
   0.7619820500000000    0.2380179500000000    0.0000000000000000 O
   0.5817806500000000    0.5817806500000000    0.3954195700000000 O
   0.8931499000000001    0.3917932100000000    0.7799453900000000 O
