Zn2 P2 S6
1.0
   2.9350052299999998   -5.0843649600000003   -0.0009218300000000
   2.9350052299999998    5.0843649600000003   -0.0009218300000000
  -1.9404104799999999    0.0000000000000000    6.5058697499999996
Zn P S
2 2 6
direct
   0.6671895000000000    0.3328105000000000    0.0000000000000000 Zn
   0.3328105000000000    0.6671895000000000    0.0000000000000000 Zn
   0.9436861600000001    0.9436861600000001    0.8317938200000000 P
   0.0563138400000000    0.0563138400000000    0.1682061800000000 P
   0.5827836000000000    0.9189719200000001    0.7564521700000000 S
   0.0810280800000000    0.4172164000000000    0.2435478300000000 S
   0.7448233000000000    0.7448233000000000    0.2433750200000000 S
   0.2551767000000000    0.2551767000000000    0.7566249800000000 S
   0.4172164000000000    0.0810280800000000    0.2435478300000000 S
   0.9189719200000001    0.5827836000000000    0.7564521700000000 S
