Ca4 Si2 B4 O14
1.0
   7.0991211300000003    0.0000000000000000    0.0000000000000000
   0.0000000000000000    7.0991211300000003    0.0000000000000000
   0.0000000000000000    0.0000000000000000    4.7895874599999999
Ca Si B O
4 2 4 14
direct
   0.6600219600000000    0.1600219600000000    0.4895223000000000 Ca
   0.1600219600000000    0.3399780400000000    0.5104777000000000 Ca
   0.8399780400000000    0.6600219600000000    0.5104777000000000 Ca
   0.3399780400000000    0.8399780400000000    0.4895223000000000 Ca
   0.0000000000000000    0.0000000000000000    0.0000000000000000 Si
   0.5000000000000000    0.5000000000000000    0.0000000000000000 Si
   0.3665538900000000    0.1334461100000000    0.9604986900000000 B
   0.8665538900000000    0.3665538900000000    0.0395013100000000 B
   0.1334461100000000    0.6334461100000000    0.0395013100000000 B
   0.6334461100000000    0.8665538900000000    0.9604986900000000 B
   0.5000000000000000    0.0000000000000000    0.8393910100000000 O
   0.1767997800000000    0.0794139700000000    0.8103369900000000 O
   0.3555165500000000    0.1444834500000000    0.2502375000000000 O
   0.9205860300000001    0.1767997800000000    0.1896630100000000 O
   0.4205860300000000    0.3232002200000000    0.8103369900000000 O
   0.8555165500000000    0.3555165500000000    0.7497625000000000 O
   0.6767997800000000    0.4205860300000000    0.1896630100000000 O
   0.0000000000000000    0.5000000000000000    0.1606089900000000 O
   0.3232002200000000    0.5794139699999999    0.1896630100000000 O
   0.1444834500000000    0.6444834500000000    0.7497625000000000 O
   0.5794139699999999    0.6767997800000000    0.8103369900000000 O
   0.0794139700000000    0.8232002200000000    0.1896630100000000 O
   0.6444834500000000    0.8555165500000000    0.2502375000000000 O
   0.8232002200000000    0.9205860300000001    0.8103369900000000 O
