Ca1 Zr1 V2 O8
1.0
  -3.5161375499999998    3.5161375499999998    3.0801620800000000
   3.5161375499999998   -3.5161375499999998    3.0801620800000000
   3.5161375499999998    3.5161375499999998   -3.0801620800000000
Ca Zr V O
1 1 2 8
direct
   0.0000000000000000    0.0000000000000000    0.0000000000000000 Ca
   0.2500000000000000    0.7500000000000000    0.5000000000000000 Zr
   0.7500000000000000    0.2500000000000000    0.5000000000000000 V
   0.5000000000000000    0.5000000000000000    0.0000000000000000 V
   0.9402318100000000    0.6194302600000000    0.6791974400000000 O
   0.4709867500000000    0.6674278200000000    0.8035589300000000 O
   0.8638689000000001    0.6674278200000000    0.1964410700000000 O
   0.9402318100000000    0.2610343700000000    0.3208025600000000 O
   0.3325721800000000    0.1361311000000000    0.8035589300000000 O
   0.7389656300000000    0.0597681900000000    0.6791974400000000 O
   0.3805697400000000    0.0597681900000000    0.3208025600000000 O
   0.3325721800000000    0.5290132500000000    0.1964410700000000 O
