Rb6 B6 O12
1.0
   6.5604038500000001    3.7876508100000001    2.5750770500000000
  -6.5604038500000001    3.7876508100000001    2.5750770500000000
   0.0000000000000000   -7.5753016200000003    2.5750770500000000
Rb B O
6 6 12
direct
   0.6893159500000000    0.8106840500000000    0.2500000000000000 Rb
   0.2500000000000000    0.6893159500000000    0.8106840500000000 Rb
   0.8106840500000000    0.2500000000000000    0.6893159500000000 Rb
   0.3106840500000000    0.1893159500000000    0.7500000000000000 Rb
   0.7500000000000000    0.3106840500000000    0.1893159500000000 Rb
   0.1893159500000000    0.7500000000000000    0.3106840500000000 Rb
   0.3605436000000000    0.1394564000000000    0.2500000000000000 B
   0.2500000000000000    0.3605436000000000    0.1394564000000000 B
   0.1394564000000000    0.2500000000000000    0.3605436000000000 B
   0.6394564000000000    0.8605436000000000    0.7500000000000000 B
   0.7500000000000000    0.6394564000000000    0.8605436000000000 B
   0.8605436000000000    0.7500000000000000    0.6394564000000000 B
   0.6442620900000000    0.7500000000000000    0.8557379100000000 O
   0.7500000000000000    0.8557379100000000    0.6442620900000000 O
   0.8557379100000000    0.6442620900000000    0.7500000000000000 O
   0.3557379100000000    0.2500000000000000    0.1442620900000000 O
   0.2500000000000000    0.1442620900000000    0.3557379100000000 O
   0.1442620900000000    0.3557379100000000    0.2500000000000000 O
   0.9614305500000000    0.7500000000000000    0.5385694500000000 O
   0.7500000000000000    0.5385694500000000    0.9614305500000000 O
   0.5385694500000000    0.9614305500000000    0.7500000000000000 O
   0.0385694500000000    0.2500000000000000    0.4614305500000000 O
   0.2500000000000000    0.4614305500000000    0.0385694500000000 O
   0.4614305500000000    0.0385694500000000    0.2500000000000000 O
