Ag16 Te4 S4 O16
1.0
   8.6179077100000008    0.0000000000000000    0.0000000000000000
   0.0000000000000000    8.6179077100000008    0.0000000000000000
   0.0000000000000000    0.0000000000000000    8.6179077100000008
Ag Te S O
16 4 4 16
direct
   0.5037184200000000    0.0037184200000000    0.4962815800000000 Ag
   0.0037184200000000    0.4962815800000000    0.5037184200000000 Ag
   0.4962815800000000    0.5037184200000000    0.0037184200000000 Ag
   0.9962815800000000    0.9962815800000000    0.9962815800000000 Ag
   0.2025090100000000    0.9716774700000000    0.6021882500000000 Ag
   0.3978117500000000    0.7025090100000000    0.5283225300000000 Ag
   0.4716774700000000    0.8978117500000000    0.7974909900000000 Ag
   0.7025090100000000    0.5283225300000000    0.3978117500000000 Ag
   0.8978117500000000    0.7974909900000000    0.4716774700000000 Ag
   0.9716774700000000    0.6021882500000000    0.2025090100000000 Ag
   0.7974909900000000    0.4716774700000000    0.8978117500000000 Ag
   0.6021882500000000    0.2025090100000000    0.9716774700000000 Ag
   0.5283225300000000    0.3978117500000000    0.7025090100000000 Ag
   0.2974909900000000    0.0283225300000000    0.1021882500000000 Ag
   0.1021882500000000    0.2974909900000000    0.0283225300000000 Ag
   0.0283225300000000    0.1021882500000000    0.2974909900000000 Ag
   0.8221380800000000    0.3221380800000000    0.1778619200000000 Te
   0.3221380800000000    0.1778619200000000    0.8221380800000000 Te
   0.1778619200000000    0.8221380800000000    0.3221380800000000 Te
   0.6778619200000000    0.6778619200000000    0.6778619200000000 Te
   0.1299333300000000    0.6299333300000000    0.8700666700000000 S
   0.6299333300000000    0.8700666700000000    0.1299333300000000 S
   0.8700666700000000    0.1299333300000000    0.6299333300000000 S
   0.3700666700000000    0.3700666700000000    0.3700666700000000 S
   0.0178358900000000    0.7267611899999999    0.9610901800000000 O
   0.0389098200000000    0.5178358900000000    0.7732388100000001 O
   0.2267611900000000    0.5389098200000000    0.9821641100000000 O
   0.5178358900000000    0.7732388100000001    0.0389098200000000 O
   0.5389098200000000    0.9821641100000000    0.2267611900000000 O
   0.7267611899999999    0.9610901800000000    0.0178358900000000 O
   0.9821641100000000    0.2267611900000000    0.5389098200000000 O
   0.9610901800000000    0.0178358900000000    0.7267611899999999 O
   0.7732388100000001    0.0389098200000000    0.5178358900000000 O
   0.4821641100000000    0.2732388100000000    0.4610901800000000 O
   0.4610901800000000    0.4821641100000000    0.2732388100000000 O
   0.2732388100000000    0.4610901800000000    0.4821641100000000 O
   0.2288159300000000    0.7288159300000000    0.7711840700000000 O
   0.7288159300000000    0.7711840700000000    0.2288159300000000 O
   0.7711840700000000    0.2288159300000000    0.7288159300000000 O
   0.2711840700000000    0.2711840700000000    0.2711840700000000 O
