Rb6 Nb4 As2 Se22
1.0
   7.5006586100000003   -6.6631789100000001   -0.0271510600000000
   7.5006586100000003    6.6631789100000001   -0.0271510600000000
  -1.4913931199999999    0.0000000000000000    9.7818980799999995
Rb Nb As Se
6 4 2 22
direct
   0.3522087500000000    0.5106767000000000    0.0766070200000000 Rb
   0.1448494600000000    0.9969140100000000    0.9786622000000000 Rb
   0.8929390699999999    0.7544675300000000    0.3163096800000000 Rb
   0.5106767000000000    0.3522087500000000    0.5766070200000000 Rb
   0.7544675300000000    0.8929390699999999    0.8163096800000000 Rb
   0.9969140100000000    0.1448494600000000    0.4786622000000000 Rb
   0.2530981100000000    0.7921775100000000    0.5887963700000000 Nb
   0.7921775100000000    0.2530981100000000    0.0887963700000000 Nb
   0.8998486100000000    0.5048211100000000    0.8980103900000000 Nb
   0.5048211100000000    0.8998486100000000    0.3980103900000000 Nb
   0.4570400300000000    0.1192009900000000    0.1281906200000000 As
   0.1192009900000000    0.4570400300000000    0.6281906200000000 As
   0.6445666700000000    0.5849358800000000    0.8440414400000000 Se
   0.8999018800000000    0.4080892700000000    0.2965902400000000 Se
   0.0267709800000000    0.3574537700000000    0.1023502400000000 Se
   0.5976757900000000    0.2782263500000000    0.2511527500000000 Se
   0.2383183600000000    0.8163846700000000    0.3243054400000000 Se
   0.5508514100000000    0.8890354600000000    0.1390310100000000 Se
   0.5849358800000000    0.6445666700000000    0.3440414400000000 Se
   0.8890354600000000    0.5508514100000000    0.6390310100000000 Se
   0.8163846700000000    0.2383183600000000    0.8243054399999999 Se
   0.8738809800000000    0.0316593900000000    0.1467563400000000 Se
   0.5959229700000001    0.2201064500000000    0.8963910300000000 Se
   0.0214087300000000    0.6918913000000000    0.9846977400000000 Se
   0.3177572200000000    0.0990795100000000    0.3156625500000000 Se
   0.5327393100000000    0.7174607700000000    0.5713029500000000 Se
   0.0316593900000000    0.8738809800000000    0.6467563400000000 Se
   0.7174607700000000    0.5327393100000000    0.0713029500000000 Se
   0.4080892700000000    0.8999018800000000    0.7965902400000000 Se
   0.2201064500000000    0.5959229700000001    0.3963910300000000 Se
   0.0990795100000000    0.3177572200000000    0.8156625500000000 Se
   0.3574537700000000    0.0267709800000000    0.6023502400000000 Se
   0.2782263500000000    0.5976757900000000    0.7511527500000000 Se
   0.6918913000000000    0.0214087300000000    0.4846977400000000 Se
