Cs4 Li4 S4 O16
1.0
   5.4084204800000002    0.0000000000000000   -0.0065493700000000
   0.0000000000000000    8.9625623999999995    0.0000000000000000
  -5.3777438599999998    0.0000000000000000    9.3241262799999998
Cs Li S O
4 4 4 16
direct
   0.9617284800000000    0.5011720200000001    0.2209929200000000 Cs
   0.0382715200000000    0.0011720200000000    0.2790070800000000 Cs
   0.0382715200000000    0.4988279800000000    0.7790070800000000 Cs
   0.9617284800000000    0.9988279799999999    0.7209929200000000 Cs
   0.3404294100000000    0.8226641000000000    0.0862188300000000 Li
   0.6595705900000000    0.3226641000000000    0.4137811700000000 Li
   0.6595705900000000    0.1773359000000000    0.9137811700000000 Li
   0.3404294100000000    0.6773359000000000    0.5862188300000000 Li
   0.6725446300000000    0.7008941200000000    0.4189003300000000 S
   0.3274553700000000    0.2008941200000000    0.0810996700000000 S
   0.3274553700000000    0.2991058800000000    0.5810996700000000 S
   0.6725446300000000    0.7991058800000000    0.9189003300000000 S
   0.4596596900000000    0.7577520500000000    0.4566563900000000 O
   0.5403403100000000    0.2577520500000000    0.0433436100000000 O
   0.5403403100000000    0.2422479500000000    0.5433436100000000 O
   0.4596596900000000    0.7422479500000000    0.9566563900000000 O
   0.6571621600000001    0.9639052100000000    0.9091517800000000 O
   0.3428378400000000    0.4639052100000000    0.5908482200000000 O
   0.3428378400000000    0.0360947900000000    0.0908482200000000 O
   0.6571621600000001    0.5360947900000000    0.4091517800000000 O
   0.9635268800000000    0.7516602800000000    0.0318069000000000 O
   0.0364731200000000    0.2516602800000000    0.4681931000000000 O
   0.0364731200000000    0.2483397200000000    0.9681931000000000 O
   0.9635268800000000    0.7483397200000000    0.5318069000000000 O
   0.6119638900000000    0.7358617600000000    0.7790012400000000 O
   0.3880361100000000    0.2358617600000000    0.7209987600000000 O
   0.3880361100000000    0.2641382400000000    0.2209987600000000 O
   0.6119638900000000    0.7641382400000000    0.2790012400000000 O
