Ti2 Nb2 Bi6 O18
1.0
   5.4332234300000000    0.0000000000000000    0.0094869100000000
   0.0000000000000000    5.4809546600000001    0.0000000000000000
  -2.6225902900000002    0.0000000000000000   12.5955225100000003
Ti Nb Bi O
2 2 6 18
direct
   0.3322048400000000    0.0519011200000000    0.1707724100000000 Ti
   0.6677951600000001    0.5519011200000000    0.8292275900000000 Ti
   0.1695115600000000    0.0521001700000000    0.8264711900000000 Nb
   0.8304884400000000    0.5521001700000000    0.1735288100000000 Nb
   0.7500682000000000    0.0011761000000000    0.0003637300000000 Bi
   0.2499318000000000    0.5011761000000000    0.9996362700000000 Bi
   0.9775185199999999    0.9802032500000000    0.4001781800000000 Bi
   0.5720387900000000    0.9653858700000000    0.6020706600000000 Bi
   0.0224814800000000    0.4802032500000000    0.5998218200000000 Bi
   0.4279612100000000    0.4653858700000000    0.3979293400000000 Bi
   0.3319632500000000    0.0627267100000000    0.3136950400000000 O
   0.0230820600000000    0.0442819000000000    0.6811237400000000 O
   0.6680367500000000    0.5627267100000000    0.6863049600000000 O
   0.9769179400000000    0.5442819000000000    0.3188762600000000 O
   0.3310444500000000    0.0852355100000000    0.0007858900000000 O
   0.6689555500000000    0.5852355100000000    0.9992141100000000 O
   0.0237774600000000    0.2774232700000000    0.1252916600000000 O
   0.9013309000000000    0.2782498200000000    0.8732481200000000 O
   0.9762225400000000    0.7774232700000000    0.8747083400000000 O
   0.0986691000000000    0.7782498200000000    0.1267518800000000 O
   0.5209764200000000    0.3696318000000000    0.1726005900000000 O
   0.3559915200000000    0.3718539500000000    0.8266744100000000 O
   0.4790235800000000    0.8696318000000000    0.8273994099999999 O
   0.6440084800000000    0.8718539500000000    0.1733255900000000 O
   0.7418288900000000    0.2431765300000000    0.4977367500000000 O
   0.2434434800000000    0.2431539900000000    0.5025325300000000 O
   0.2581711100000000    0.7431765299999999    0.5022632500000000 O
   0.7565565200000000    0.7431539900000000    0.4974674700000000 O
