Cr2 O6
1.0
   5.7674414499999997    0.0000000000000000    0.0000000000000000
   0.0000000000000000    4.5000304000000000    2.4170615999999998
   0.0000000000000000   -4.5000304000000000    2.4170615999999998
Cr O
2 6
direct
   0.7500000000000000    0.4176223600000000    0.6004962900000000 Cr
   0.2500000000000000    0.6004962900000000    0.4176223600000000 Cr
   0.2500000000000000    0.2798673400000000    0.0854518500000000 O
   0.2500000000000000    0.8809534400000000    0.3689219500000000 O
   0.7500000000000000    0.3689219500000000    0.8809534400000000 O
   0.7500000000000000    0.0854518500000000    0.2798673400000000 O
   0.0000000000000000    0.6242993900000000    0.6242993900000000 O
   0.5000000000000000    0.6242993900000000    0.6242993900000000 O
