Li8 Pb1 O6
1.0
   2.7742322399999999    1.6017036800000000    5.2328722499999998
  -2.7742322399999999    1.6017036700000000    5.2328722499999998
   0.0000000100000000   -3.2034073500000000    5.2328722499999998
Li Pb O
8 1 6
direct
   0.6507630000000000    0.6507630000000000    0.6507630000000000 Li
   0.2294840100000000    0.5079726400000000    0.8994161000000001 Li
   0.8994161000000001    0.2294840100000000    0.5079726400000000 Li
   0.5079726400000000    0.8994161000000001    0.2294840100000000 Li
   0.7705159900000000    0.4920273600000000    0.1005839000000000 Li
   0.1005839000000000    0.7705159900000000    0.4920273600000000 Li
   0.3492370000000000    0.3492370000000000    0.3492370000000000 Li
   0.4920273600000000    0.1005839000000000    0.7705159900000000 Li
   0.0000000000000000    0.0000000000000000    0.0000000000000000 Pb
   0.3952113800000000    0.7581573000000000    0.0991998700000000 O
   0.2418427000000000    0.9008001300000000    0.6047886200000000 O
   0.6047886200000000    0.2418427000000000    0.9008001300000000 O
   0.0991998700000000    0.3952113800000000    0.7581573000000000 O
   0.7581573000000000    0.0991998700000000    0.3952113800000000 O
   0.9008001300000000    0.6047886200000000    0.2418427000000000 O
