La2 Te1 O2
1.0
  -2.0411974399999999    2.0411974399999999    6.4758848400000000
   2.0411974399999999   -2.0411974399999999    6.4758848400000000
   2.0411974399999999    2.0411974399999999   -6.4758848400000000
La Te O
2 1 2
direct
   0.6580543300000000    0.6580543300000000    0.0000000000000000 La
   0.3419456700000000    0.3419456700000000    0.0000000000000000 La
   0.0000000000000000    0.0000000000000000    0.0000000000000000 Te
   0.7500000000000000    0.2500000000000000    0.5000000000000000 O
   0.2500000000000000    0.7500000000000000    0.5000000000000000 O
