Cs4 Ti2 Ge6 O18
1.0
   7.2288547500000000    0.0000034600000000    0.0000000000000000
  -3.6144303700000000    6.2603704200000001    0.0000000000000000
   0.0000000000000000    0.0000000000000000   10.5320207000000003
Cs Ti Ge O
4 2 6 18
direct
   0.6666670000000000    0.3333330000000000    0.9445974100000000 Cs
   0.3333330000000000    0.6666670000000000    0.4445974100000000 Cs
   0.3333330000000000    0.6666670000000000    0.0554025900000000 Cs
   0.6666670000000000    0.3333330000000000    0.5554025900000000 Cs
   0.0000000000000000    0.0000000000000000    0.0000000000000000 Ti
   0.0000000000000000    0.0000000000000000    0.5000000000000000 Ti
   0.8644860300000000    0.6323922199999999    0.2500000000000000 Ge
   0.7679061900000000    0.1355139700000000    0.2500000000000000 Ge
   0.3676077800000000    0.2320938100000000    0.2500000000000000 Ge
   0.2320938100000000    0.8644860300000000    0.7500000000000000 Ge
   0.6323922199999999    0.7679061900000000    0.7500000000000000 Ge
   0.1355139700000000    0.3676077800000000    0.7500000000000000 Ge
   0.2140539100000000    0.9773998200000000    0.8936668500000000 O
   0.2366550900000000    0.2140539100000000    0.3936668500000000 O
   0.9773998200000000    0.7633449100000000    0.3936668500000000 O
   0.0226001800000000    0.2366550900000000    0.8936668500000000 O
   0.7633449100000000    0.7859460900000000    0.8936668500000000 O
   0.7859460900000000    0.0226001800000000    0.3936668500000000 O
   0.7859460900000000    0.0226001800000000    0.1063331500000000 O
   0.7633449100000000    0.7859460900000000    0.6063331500000000 O
   0.0226001800000000    0.2366550900000000    0.6063331500000000 O
   0.9773998200000000    0.7633449100000000    0.1063331500000000 O
   0.2366550900000000    0.2140539100000000    0.1063331500000000 O
   0.2140539100000000    0.9773998200000000    0.6063331500000000 O
   0.0659638300000000    0.5781638400000000    0.7500000000000000 O
   0.4877999900000000    0.0659638300000000    0.2500000000000000 O
   0.5781638400000000    0.5122000100000000    0.2500000000000000 O
   0.4218361600000000    0.4877999900000000    0.7500000000000000 O
   0.5122000100000000    0.9340361700000001    0.7500000000000000 O
   0.9340361700000001    0.4218361600000000    0.2500000000000000 O
