Rb4 Li4 Ge2 O8
1.0
   5.6232107800000000    0.0045522700000000    0.0212717900000000
   0.5036995100000000    5.7256162100000001    0.0000903500000000
   2.4157128600000002    0.8162837700000000    8.4123576000000000
Rb Li Ge O
4 4 2 8
direct
   0.4706732600000000    0.8493239000000000    0.7296027800000000 Rb
   0.5293267400000000    0.1506761000000000    0.2703972200000000 Rb
   0.7861863300000000    0.7239849900000001    0.0214643200000000 Rb
   0.2138136700000000    0.2760150100000000    0.9785356800000000 Rb
   0.0723127400000000    0.8153532999999999    0.5606516400000000 Li
   0.9276872600000000    0.1846467000000000    0.4393483600000000 Li
   0.3046115400000000    0.4093103100000000    0.5804302700000000 Li
   0.6953884600000000    0.5906896900000000    0.4195697300000000 Li
   0.1453359000000000    0.6866179000000000    0.2733610200000000 Ge
   0.8546641000000000    0.3133821000000000    0.7266389800000000 Ge
   0.0138825000000000    0.5726551000000000    0.7250457200000000 O
   0.9861175000000000    0.4273449000000000    0.2749542800000000 O
   0.8966606100000000    0.8695580200000000    0.3924235400000000 O
   0.1033393900000000    0.1304419800000000    0.6075764600000000 O
   0.2745130800000000    0.8007545800000000    0.0744118900000000 O
   0.7254869200000000    0.1992454200000000    0.9255881100000000 O
   0.3690222600000000    0.6410838200000000    0.3893954200000000 O
   0.6309777400000000    0.3589161800000000    0.6106045800000000 O
