Na8 Te4 O12
1.0
   4.8642445299999997    0.0000000000000000    0.0001672900000000
   0.0000000000000000   10.1385449600000008    0.0000000000000000
  -0.2122721000000000    0.0000000000000000    6.7395118099999998
Na Te O
8 4 12
direct
   0.7443628100000000    0.2521664600000000    0.8961112900000000 Na
   0.2556371900000000    0.7521664600000000    0.6038887100000000 Na
   0.2556371900000000    0.7478335400000000    0.1038887100000000 Na
   0.7443628100000000    0.2478335400000000    0.3961112900000000 Na
   0.2474062500000000    0.0856029600000000    0.6356871500000000 Na
   0.7525937500000000    0.5856029600000000    0.8643128500000000 Na
   0.7525937500000000    0.9143970400000000    0.3643128500000000 Na
   0.2474062500000000    0.4143970400000000    0.1356871500000000 Na
   0.7410444800000000    0.9172904600000000    0.8409534300000000 Te
   0.2589555200000000    0.4172904600000000    0.6590465700000000 Te
   0.2589555200000000    0.0827095400000000    0.1590465700000000 Te
   0.7410444800000000    0.5827095400000000    0.3409534300000000 Te
   0.3509209000000000    0.9066842899999999    0.8581828300000000 O
   0.6490791000000000    0.4066842900000000    0.6418171700000000 O
   0.6490791000000000    0.0933157100000000    0.1418171700000000 O
   0.3509209000000000    0.5933157100000001    0.3581828300000000 O
   0.7666762700000000    0.7799307300000000    0.6480417500000000 O
   0.2333237300000000    0.2799307300000000    0.8519582500000000 O
   0.2333237300000000    0.2200692700000000    0.3519582500000000 O
   0.7666762700000000    0.7200692700000000    0.1480417500000000 O
   0.7535618700000000    0.0627388500000000    0.6640442300000000 O
   0.2464381300000000    0.5627388500000000    0.8359557700000000 O
   0.2464381300000000    0.9372611500000000    0.3359557700000000 O
   0.7535618700000000    0.4372611500000000    0.1640442300000000 O
