Nb2 Tl2 Te2 O12
1.0
  -3.6334178700000002    5.1809274199999997    3.7228036599999998
   3.6334178700000002   -5.1809274199999997    3.7228036599999998
   3.6334178700000002    5.1809274199999997   -3.7228036599999998
Nb Tl Te O
2 2 2 12
direct
   0.4840322400000000    0.4908505400000000    0.4931817000000000 Nb
   0.9976688500000001    0.9908505399999999    0.5068183000000001 Nb
   0.0304156500000000    0.6701797400000000    0.8602359100000000 Tl
   0.8099438300000000    0.1701797400000000    0.1397640900000000 Tl
   0.5017123100000001    0.0017123100000000    0.5000000000000000 Te
   0.5017123100000001    0.5017123100000001    0.0000000000000000 Te
   0.4392493000000000    0.7607975300000001    0.1784507800000000 O
   0.8130225700000000    0.7469603600000000    0.5660622199999999 O
   0.4389803000000000    0.7642560400000000    0.5690046600000001 O
   0.8110187700000000    0.7436990300000000    0.1754499500000000 O
   0.4389803000000000    0.3699756400000000    0.1747242600000000 O
   0.8110187700000000    0.1355698200000000    0.5673197400000000 O
   0.5823467500000000    0.2607975300000000    0.8215492200000000 O
   0.1808981400000000    0.2469603600000000    0.4339377800000000 O
   0.5682490800000000    0.2436990300000000    0.4326802600000000 O
   0.1952513800000000    0.2642560400000000    0.8252757400000000 O
   0.5682490800000000    0.6355698200000000    0.8245500500000000 O
   0.1952513800000000    0.8699756400000001    0.4309953400000000 O
