Tl2 Sn1 As2 S6
1.0
   6.6451173499999996    0.0000000900000000    0.0000000000000000
  -3.3225582600000001    5.7548404099999999   -0.0000000000000000
   0.0000000000000000    0.0000000000000000    7.1402134799999999
Tl Sn As S
2 1 2 6
direct
   0.3333330000000000    0.6666670000000000    0.3924549600000000 Tl
   0.6666670000000000    0.3333330000000000    0.6075450400000000 Tl
   0.0000000000000000    0.0000000000000000    0.0000000000000000 Sn
   0.6666670000000000    0.3333330000000000    0.0664068800000000 As
   0.3333330000000000    0.6666670000000000    0.9335931200000001 As
   0.8957722000000000    0.2320340600000000    0.2288734900000000 S
   0.3362618600000000    0.1042278000000000    0.2288734900000000 S
   0.7679659400000000    0.6637381400000000    0.2288734900000000 S
   0.1042278000000000    0.7679659400000000    0.7711265100000000 S
   0.6637381400000000    0.8957722000000000    0.7711265100000000 S
   0.2320340600000000    0.3362618600000000    0.7711265100000000 S
