Na4 Al4 Ge4 O16
1.0
   2.8589759899999998    0.0000000000000000    0.0000000000000000
   0.0000000000000000   10.3553073799999993    0.0000000000000000
   0.0000000000000000    0.0000000000000000    8.8441406800000006
Na Al Ge O
4 4 4 16
direct
   0.5000000000000000    0.0994274300000000    0.2575168300000000 Na
   0.5000000000000000    0.9005725700000000    0.7575168300000000 Na
   0.0000000000000000    0.4093287700000000    0.7400508500000000 Na
   0.0000000000000000    0.5906712300000000    0.2400508500000000 Na
   0.5000000000000000    0.8625519900000000    0.4362503700000000 Al
   0.5000000000000000    0.1374480100000000    0.9362503700000000 Al
   0.5000000000000000    0.3523528700000000    0.4199410100000000 Al
   0.5000000000000000    0.6476471300000000    0.9199410099999999 Al
   0.0000000000000000    0.6378170100000000    0.5568369700000000 Ge
   0.0000000000000000    0.3621829900000000    0.0568369700000000 Ge
   0.0000000000000000    0.1483671000000000    0.5860516600000000 Ge
   0.0000000000000000    0.8516329000000000    0.0860516600000000 Ge
   0.5000000000000000    0.7312858400000000    0.1204437800000000 O
   0.5000000000000000    0.2687141600000000    0.6204437800000000 O
   0.0000000000000000    0.7665675500000000    0.8897333900000000 O
   0.0000000000000000    0.2334324500000000    0.3897333900000000 O
   0.5000000000000000    0.6754633600000000    0.4179340000000000 O
   0.5000000000000000    0.3245366400000000    0.9179340000000000 O
   0.0000000000000000    0.8216076400000000    0.5729680300000000 O
   0.0000000000000000    0.1783923600000000    0.0729680300000000 O
   0.5000000000000000    0.9656835499999999    0.0281204000000000 O
   0.5000000000000000    0.0343164500000000    0.5281204000000000 O
   0.0000000000000000    0.5354776100000000    0.9757747300000000 O
   0.0000000000000000    0.4645223900000000    0.4757747300000000 O
   0.5000000000000000    0.3993006100000000    0.2014068700000000 O
   0.5000000000000000    0.6006993900000001    0.7014068700000000 O
   0.0000000000000000    0.0974841700000000    0.7969741100000000 O
   0.0000000000000000    0.9025158300000000    0.2969741100000000 O
