Na4 Sc2 P2 C2 O14
1.0
   5.2113129499999999    0.0000000000000000    0.0369984100000000
   0.0000000000000000    6.6506062200000002    0.0000000000000000
   0.0076574700000000    0.0000000000000000    8.9640381700000002
Na Sc P C O
4 2 2 2 14
direct
   0.7596869500000000    0.4987223100000000    0.7792316400000000 Na
   0.7596869500000000    0.0012776900000000    0.7792316400000000 Na
   0.2403130500000000    0.5012776900000000    0.2207683600000000 Na
   0.2403130500000000    0.9987223100000000    0.2207683600000000 Na
   0.2105180400000000    0.7500000000000000    0.6390357800000001 Sc
   0.7894819600000000    0.2500000000000000    0.3609642200000000 Sc
   0.2884269700000000    0.2500000000000000    0.5748244300000001 P
   0.7115730300000001    0.7500000000000000    0.4251755700000000 P
   0.2663516100000000    0.7500000000000000    0.9213510400000000 C
   0.7336483900000000    0.2500000000000000    0.0786489600000000 C
   0.6981569200000000    0.2500000000000000    0.9404961600000000 O
   0.0399838100000000    0.7500000000000000    0.8592501100000000 O
   0.4576269500000000    0.7500000000000000    0.8233607900000000 O
   0.1960485500000000    0.0604437300000000    0.6575771200000000 O
   0.1960485500000000    0.4395562700000000    0.6575771200000000 O
   0.8215957300000000    0.7500000000000000    0.5863365200000000 O
   0.5876243400000000    0.2500000000000000    0.5628282100000001 O
   0.4123756600000000    0.7500000000000000    0.4371717900000000 O
   0.1784042700000000    0.2500000000000000    0.4136634800000000 O
   0.8039514500000000    0.5604437300000000    0.3424228800000000 O
   0.8039514500000000    0.9395562700000000    0.3424228800000000 O
   0.5423730500000000    0.2500000000000000    0.1766392100000000 O
   0.9600161900000000    0.2500000000000000    0.1407498900000000 O
   0.3018430800000000    0.7500000000000000    0.0595038400000000 O
