Rb2 Ti6 O13
1.0
   7.9802041700000004   -1.9513880400000001    0.0688082800000000
   7.9802041700000004    1.9513880400000001    0.0688082800000000
  -1.6320029000000000    0.0000000000000000    9.0144336099999993
Rb Ti O
2 6 13
direct
   0.4538945400000000    0.4538945400000000    0.2450377100000000 Rb
   0.5461054600000000    0.5461054600000000    0.7549622900000000 Rb
   0.1156829100000000    0.1156829100000000    0.0959635400000000 Ti
   0.8843170900000000    0.8843170900000000    0.9040364600000000 Ti
   0.1745473500000000    0.1745473500000000    0.4354648000000000 Ti
   0.8254526500000000    0.8254526500000000    0.5645352000000000 Ti
   0.2360135000000000    0.2360135000000000    0.7753878500000000 Ti
   0.7639865000000000    0.7639865000000000    0.2246121500000000 Ti
   0.0000000000000000    0.0000000000000000    0.0000000000000000 O
   0.2369915700000000    0.2369915700000000    0.2413797500000000 O
   0.7630084300000000    0.7630084300000000    0.7586202500000000 O
   0.0789288000000000    0.0789288000000000    0.2915795100000000 O
   0.9210712000000000    0.9210712000000000    0.7084204900000000 O
   0.2954381800000000    0.2954381800000000    0.5735270099999999 O
   0.7045618200000000    0.7045618200000000    0.4264729900000000 O
   0.1372992400000000    0.1372992400000000    0.6171211700000000 O
   0.8627007600000000    0.8627007600000000    0.3828788300000000 O
   0.3586583900000000    0.3586583900000000    0.8870893300000000 O
   0.6413416100000000    0.6413416100000000    0.1129106700000000 O
   0.1696023200000000    0.1696023200000000    0.9185620100000000 O
   0.8303976800000000    0.8303976800000000    0.0814379900000000 O
