Rb1 Y1 O2
1.0
   1.7311320100000001    0.9994688700000000    6.4450435700000002
  -1.7311320100000001    0.9994688700000000    6.4450435700000002
   0.0000000000000000   -1.9989387400000000    6.4450435700000002
Rb Y O
1 1 2
direct
   0.0000000000000000    0.0000000000000000    0.0000000000000000 Rb
   0.5000000000000000    0.5000000000000000    0.5000000000000000 Y
   0.7745423299999999    0.7745423299999999    0.7745423299999999 O
   0.2254576700000000    0.2254576700000000    0.2254576700000000 O
