Na2 Sc2 Ge4 O12
1.0
   5.1485101000000002   -4.5427397200000001   -0.0029142600000000
   5.1485101000000002    4.5427397200000001   -0.0029142600000000
  -1.7124273000000001    0.0000000000000000    5.3528269200000000
Na Sc Ge O
2 2 4 12
direct
   0.6992088600000000    0.3007911400000000    0.2500000000000000 Na
   0.3007911400000000    0.6992088600000000    0.7500000000000000 Na
   0.0966937400000000    0.9033062600000000    0.2500000000000000 Sc
   0.9033062600000000    0.0966937400000000    0.7500000000000000 Sc
   0.6197993000000001    0.8055057200000000    0.2615520500000000 Ge
   0.1944942800000000    0.3802007000000000    0.2384479500000000 Ge
   0.3802007000000000    0.1944942800000000    0.7384479500000000 Ge
   0.8055057200000000    0.6197993000000001    0.7615520500000000 Ge
   0.6406171800000000    0.6332470600000000    0.9715657900000000 O
   0.3667529400000000    0.3593828200000000    0.5284342100000000 O
   0.3593828200000000    0.3667529400000000    0.0284342100000000 O
   0.6332470600000000    0.6406171800000000    0.4715657900000000 O
   0.9126023200000000    0.3733596200000000    0.6945430300000000 O
   0.6266403800000000    0.0873976800000000    0.8054569700000000 O
   0.0873976800000000    0.6266403800000000    0.3054569700000000 O
   0.3733596200000000    0.9126023200000000    0.1945430300000000 O
   0.8103198800000000    0.9771040100000000    0.3633743800000000 O
   0.0228959900000000    0.1896801200000000    0.1366256200000000 O
   0.1896801200000000    0.0228959900000000    0.6366256200000000 O
   0.9771040100000000    0.8103198800000000    0.8633743800000000 O
