Ca2 As2 O7
1.0
   3.5194740200000001   -4.6640039499999997    0.0014200700000000
   3.5194740200000001    4.6640039499999997    0.0014200700000000
  -0.9921980500000001    0.0000000000000000    4.8256094200000001
Ca As O
2 2 7
direct
   0.3065580400000000    0.6934419600000000    0.5000000000000000 Ca
   0.6934419600000000    0.3065580400000000    0.5000000000000000 Ca
   0.7711924100000001    0.7711924100000001    0.0924365500000000 As
   0.2288075900000000    0.2288075900000000    0.9075634500000000 As
   0.6132436100000001    0.9164250400000000    0.2794995200000000 O
   0.0835749600000000    0.3867563900000000    0.7205004800000000 O
   0.3867563900000000    0.0835749600000000    0.7205004800000000 O
   0.9164250400000000    0.6132436100000001    0.2794995200000000 O
   0.0000000000000000    0.0000000000000000    0.0000000000000000 O
   0.6134888600000000    0.6134888600000000    0.7842226799999999 O
   0.3865111400000000    0.3865111400000000    0.2157773200000000 O
