Ba2 Bi2 N2 O10
1.0
   2.8744843200000001   -7.7030042700000001    0.0193232600000000
   2.8744843200000001    7.7030042700000001    0.0193232600000000
   0.0095255200000000    0.0000000000000000    5.9970717599999999
Ba Bi N O
2 2 2 10
direct
   0.1715320100000000    0.8676745100000000    0.0115184400000000 Ba
   0.8676745100000000    0.1715320100000000    0.0115184400000000 Ba
   0.3317949500000000    0.7038817400000000    0.5129868100000000 Bi
   0.7038817400000000    0.3317949500000000    0.5129868100000000 Bi
   0.9853073600000000    0.9853073600000000    0.4816009600000000 N
   0.4786419800000000    0.4786419800000000    0.9869059400000000 N
   0.0160037000000000    0.5167059000000001    0.7384307500000000 O
   0.5144743200000000    0.0163682300000000    0.2874627000000000 O
   0.0163682300000000    0.5144743200000000    0.2874627000000000 O
   0.5167059000000001    0.0160037000000000    0.7384307500000000 O
   0.0802590200000000    0.0802590200000000    0.2892145100000000 O
   0.8668580000000000    0.0092764600000000    0.5742315900000000 O
   0.0092764600000000    0.8668580000000000    0.5742315900000000 O
   0.4959141700000000    0.6386954900000000    0.0445530600000000 O
   0.6386954900000000    0.4959141700000000    0.0445530600000000 O
   0.2956101700000000    0.2956101700000000    0.8709109000000000 O
