Nb3 Al1 P6 O24
1.0
   4.3276002199999999    2.4985406499999998    7.4262213800000003
  -4.3276000200000002    2.4985409800000000    7.4262213800000003
  -0.0000001900000000   -4.9970816300000003    7.4262213800000003
Nb Al P O
3 1 6 24
direct
   0.3570543800000000    0.3570543800000000    0.3570543800000000 Nb
   0.1417396300000000    0.1417396300000000    0.1417396300000000 Nb
   0.6403087400000000    0.6403087400000000    0.6403087400000000 Nb
   0.8563098000000000    0.8563098000000000    0.8563098000000000 Al
   0.9673883100000000    0.2319200100000000    0.5464262300000000 P
   0.2319200100000000    0.5464262300000000    0.9673883100000000 P
   0.5464262300000000    0.9673883100000000    0.2319200100000000 P
   0.4811192200000000    0.0294918800000000    0.7482245199999999 P
   0.0294918800000000    0.7482245199999999    0.4811192200000000 P
   0.7482245199999999    0.4811192200000000    0.0294918800000000 P
   0.1393983700000000    0.2655303500000000    0.5088681500000000 O
   0.2655303500000000    0.5088681500000000    0.1393983700000000 O
   0.5088681500000000    0.1393983700000000    0.2655303500000000 O
   0.6496113200000000    0.0018948900000000    0.7698908000000000 O
   0.0018948900000000    0.7698908000000000    0.6496113200000000 O
   0.7698908000000000    0.6496113200000000    0.0018948900000000 O
   0.8624852700000000    0.7239108600000000    0.4975248600000000 O
   0.7239108600000000    0.4975248600000000    0.8624852700000000 O
   0.4975248600000000    0.8624852700000000    0.7239108600000000 O
   0.3646316500000000    0.9955511700000000    0.2233447800000000 O
   0.9955511700000000    0.2233447800000000    0.3646316500000000 O
   0.2233447800000000    0.3646316500000000    0.9955511700000000 O
   0.9416818800000000    0.0603396600000000    0.7146900500000000 O
   0.0603396600000000    0.7146900500000000    0.9416818800000000 O
   0.7146900500000000    0.9416818800000000    0.0603396600000000 O
   0.4455915600000000    0.2054883400000000    0.5732348400000000 O
   0.2054883400000000    0.5732348400000000    0.4455915600000000 O
   0.5732348400000000    0.4455915600000000    0.2054883400000000 O
   0.0631055900000000    0.9188841300000000    0.2977028700000000 O
   0.9188841300000000    0.2977028700000000    0.0631055900000000 O
   0.2977028700000000    0.0631055900000000    0.9188841300000000 O
   0.5709205700000000    0.7930312900000001    0.4126390300000000 O
   0.7930312900000001    0.4126390300000000    0.5709205700000000 O
   0.4126390300000000    0.5709205700000000    0.7930312900000001 O
