Cs2 Ge1 B4 O9
1.0
   4.6645442700000004   -5.0781205399999996   -0.0437979400000000
   4.6645442700000004    5.0781205399999996   -0.0437979400000000
  -4.6079987600000001    0.0000000000000000    4.9132572300000001
Cs Ge B O
2 1 4 9
direct
   0.2586217100000000    0.7413782900000000    0.0000000000000000 Cs
   0.9799870100000000    0.0200129900000000    0.5000000000000000 Cs
   0.7434812000000000    0.2565188000000000    0.0000000000000000 Ge
   0.2276112300000000    0.3345609700000000    0.1941369600000000 B
   0.6654390300000000    0.7723887699999999    0.8058630400000000 B
   0.5155934800000000    0.3456662900000000    0.5967002200000000 B
   0.6543337100000000    0.4844065200000000    0.4032997800000000 B
   0.4039386200000000    0.4068506300000000    0.1722378900000000 O
   0.5931493700000000    0.5960613800000000    0.8277621100000000 O
   0.2602881000000000    0.2736333400000000    0.3704091900000000 O
   0.7263666600000001    0.7397119000000000    0.6295908099999999 O
   0.0094463200000000    0.3258040000000000    0.0164594800000000 O
   0.6741960000000000    0.9905536800000000    0.9835405200000000 O
   0.5060200400000000    0.1861505200000000    0.6812699600000000 O
   0.8138494800000000    0.4939799600000000    0.3187300400000000 O
   0.6659090300000000    0.3340909700000000    0.5000000000000000 O
