Hf2 Sb2 Pb4 O13
1.0
  -3.7666841000000000    3.7733825099999998    5.3230338300000000
   3.7666841000000000   -3.7733825099999998    5.3230338300000000
   3.7666841000000000    3.7733825099999998   -5.3230338300000000
Hf Sb Pb O
2 2 4 13
direct
   0.7490843000000000    0.9995782900000000    0.7495050100000000 Hf
   0.2500732800000000    0.9995782900000000    0.2504949900000000 Hf
   0.7492360300000001    0.0000756200000000    0.2508395900000000 Sb
   0.7492360300000001    0.4983964400000000    0.7491604100000000 Sb
   0.2497533600000000    0.5020784400000000    0.7476749200000000 Pb
   0.7544035200000000    0.5020784400000000    0.2523250800000000 Pb
   0.2499749800000000    0.4979206700000000    0.2479456900000000 Pb
   0.2499749800000000    0.0020292900000000    0.7520543100000000 Pb
   0.0837927600000000    0.0837927600000000    0.0000000000000000 O
   0.6810105000000000    0.6810105000000000    0.0000000000000000 O
   0.6814046000000000    0.0802018100000000    0.0152485200000000 O
   0.0649532900000000    0.6661560800000000    0.9847514800000000 O
   0.0649532900000000    0.0802018100000000    0.3987972200000000 O
   0.6814046000000000    0.6661560800000000    0.6012027800000000 O
   0.4196993200000000    0.9196993200000000    0.5000000000000000 O
   0.8160290300000000    0.3160290300000000    0.5000000000000000 O
   0.8143027900000001    0.9201369800000000    0.4845601900000000 O
   0.4355778000000000    0.3297426000000000    0.5154398100000001 O
   0.4355778000000000    0.9201369800000000    0.1058352000000000 O
   0.8143027900000001    0.3297426000000000    0.8941648000000000 O
   0.3802539700000000    0.3802539700000000    0.0000000000000000 O
