Cd2 In4 S8
1.0
   0.0000000000000000    5.4436836299999998    5.4436836299999998
   5.4436836299999998    0.0000000000000000    5.4436836299999998
   5.4436836299999998    5.4436836299999998    0.0000000000000000
Cd In S
2 4 8
direct
   0.5000000000000000    0.5000000000000000    0.5000000000000000 Cd
   0.7500000000000000    0.7500000000000000    0.7500000000000000 Cd
   0.1250000000000000    0.1250000000000000    0.6250000000000000 In
   0.1250000000000000    0.1250000000000000    0.1250000000000000 In
   0.1250000000000000    0.6250000000000000    0.1250000000000000 In
   0.6250000000000000    0.1250000000000000    0.1250000000000000 In
   0.8840003500000000    0.8840003500000000    0.3479979600000000 S
   0.3479979600000000    0.8840003500000000    0.8840003500000000 S
   0.8840003500000000    0.3479979600000000    0.8840003500000000 S
   0.3659996500000000    0.3659996500000000    0.3659996500000000 S
   0.8840003500000000    0.8840003500000000    0.8840003500000000 S
   0.9020020399999999    0.3659996500000000    0.3659996500000000 S
   0.3659996500000000    0.9020020399999999    0.3659996500000000 S
   0.3659996500000000    0.3659996500000000    0.9020020399999999 S
