Mg2 Ti2 O6
1.0
   2.5490740900000000    1.4717096100000000    4.6393569299999999
  -2.5490746799999999    1.4717085700000001    4.6393569299999999
   0.0000006000000000   -2.9434171800000000    4.6393569299999999
Mg Ti O
2 2 6
direct
   0.6437812600000000    0.6437812600000000    0.6437812600000000 Mg
   0.3562187400000000    0.3562187400000000    0.3562187400000000 Mg
   0.8512551699999999    0.8512551699999999    0.8512551699999999 Ti
   0.1487448300000000    0.1487448300000000    0.1487448300000000 Ti
   0.9525104400000000    0.2301482700000000    0.5588047400000000 O
   0.2301482700000000    0.5588047400000000    0.9525104400000000 O
   0.5588047400000000    0.9525104400000000    0.2301482700000000 O
   0.0474895600000000    0.7698517300000000    0.4411952600000000 O
   0.4411952600000000    0.0474895600000000    0.7698517300000000 O
   0.7698517300000000    0.4411952600000000    0.0474895600000000 O
