Sn4 Pb4 S12
1.0
   8.6169821199999994    0.0000000000000000    0.0000000000000000
   0.0000000000000000    3.8116052599999999    0.0000000000000000
   0.0000000000000000    0.0000000000000000   13.9159713699999994
Sn Pb S
4 4 12
direct
   0.6714144399999999    0.2500000000000000    0.4472286300000000 Sn
   0.1714144400000000    0.2500000000000000    0.0527713700000000 Sn
   0.3285855600000000    0.7500000000000000    0.5527713700000000 Sn
   0.8285855600000001    0.7500000000000000    0.9472286300000000 Sn
   0.0162050000000000    0.7500000000000000    0.3255949000000000 Pb
   0.5162050000000000    0.7500000000000000    0.1744051000000000 Pb
   0.9837950000000000    0.2500000000000000    0.6744051000000000 Pb
   0.4837950000000000    0.2500000000000000    0.8255949000000000 Pb
   0.4820654000000000    0.7500000000000000    0.3933118600000000 S
   0.9820654000000000    0.7500000000000000    0.1066881400000000 S
   0.5179346000000000    0.2500000000000000    0.6066881400000000 S
   0.0179346000000000    0.2500000000000000    0.8933118600000000 S
   0.8467151700000000    0.7500000000000000    0.5078507600000000 S
   0.3467151700000000    0.7500000000000000    0.9921492400000000 S
   0.1532848300000000    0.2500000000000000    0.4921492400000000 S
   0.6532848300000000    0.2500000000000000    0.0078507600000000 S
   0.7895916100000000    0.2500000000000000    0.2840168600000000 S
   0.2895916100000000    0.2500000000000000    0.2159831400000000 S
   0.2104083900000000    0.7500000000000000    0.7159831400000000 S
   0.7104083900000000    0.7500000000000000    0.7840168600000000 S
