Ag8 P8 O24
1.0
   7.2559407699999996    0.0000000000000000    0.0599674800000000
   0.0000000000000000    5.9417238399999999    0.0000000000000000
  -6.6002015099999998    0.0000000000000000   11.9148174900000008
Ag P O
8 8 24
direct
   0.7357846900000000    0.4092850200000000    0.4688450100000000 Ag
   0.2642153100000000    0.9092850200000000    0.0311549900000000 Ag
   0.2642153100000000    0.5907149800000000    0.5311549900000000 Ag
   0.7357846900000000    0.0907149800000000    0.9688450100000000 Ag
   0.4955613300000000    0.8333403300000000    0.3779748600000000 Ag
   0.5044386700000000    0.3333403300000000    0.1220251400000000 Ag
   0.5044386700000000    0.1666596700000000    0.6220251400000000 Ag
   0.4955613300000000    0.6666596700000000    0.8779748600000000 Ag
   0.0687268700000000    0.1078930500000000    0.3907237800000000 P
   0.9312731300000000    0.6078930500000000    0.1092762200000000 P
   0.9312731300000000    0.8921069500000000    0.6092762200000000 P
   0.0687268700000000    0.3921069500000000    0.8907237800000000 P
   0.2642200900000000    0.3122872300000000    0.2737346400000000 P
   0.7357799100000000    0.8122872300000000    0.2262653600000000 P
   0.7357799100000000    0.6877127700000000    0.7262653600000000 P
   0.2642200900000000    0.1877127700000000    0.7737346400000000 P
   0.2608626600000000    0.9638249800000001    0.4564835800000000 O
   0.7391373400000000    0.4638249800000000    0.0435164200000000 O
   0.7391373400000000    0.0361750200000000    0.5435164200000000 O
   0.2608626600000000    0.5361750199999999    0.9564835800000000 O
   0.0277480400000000    0.3003817900000000    0.4483747600000000 O
   0.9722519600000000    0.8003817900000000    0.0516252400000000 O
   0.9722519600000000    0.6996182100000000    0.5516252400000000 O
   0.0277480400000000    0.1996182100000000    0.9483747600000000 O
   0.8594186300000000    0.9585987000000000    0.3376733200000000 O
   0.1405813700000000    0.4585987000000000    0.1623266800000000 O
   0.1405813700000000    0.0414013000000000    0.6623266799999999 O
   0.8594186300000000    0.5414013000000000    0.8376733200000001 O
   0.3717079900000000    0.4620133400000000    0.3752598800000000 O
   0.6282920100000000    0.9620133400000001    0.1247401200000000 O
   0.6282920100000000    0.5379866599999999    0.6247401200000000 O
   0.3717079900000000    0.0379866600000000    0.8752598800000000 O
   0.3932737400000000    0.3556127600000000    0.7504660700000000 O
   0.6067262600000000    0.8556127600000000    0.7495339300000000 O
   0.6067262600000000    0.6443872400000000    0.2495339300000000 O
   0.3932737400000000    0.1443872400000000    0.2504660700000000 O
   0.0689314700000000    0.3104091400000000    0.7774748100000000 O
   0.9310685300000000    0.8104091400000000    0.7225251900000000 O
   0.9310685300000000    0.6895908600000000    0.2225251900000000 O
   0.0689314700000000    0.1895908600000000    0.2774748100000000 O
