Na6 Cd2 P2 C2 O14
1.0
   5.1315703099999999    0.0000000000000000   -0.0053042800000000
   0.0000000000000000    6.8408889500000001    0.0000000000000000
  -0.0301769900000000    0.0000000000000000    9.0522616100000004
Na Cd P C O
6 2 2 2 14
direct
   0.2404902400000000    0.2500000000000000    0.9163994100000000 Na
   0.7590093400000000    0.9984922500000000    0.7461805300000000 Na
   0.7590093400000000    0.5015077500000000    0.7461805300000000 Na
   0.2409906600000000    0.4984922500000000    0.2538194700000000 Na
   0.2409906600000000    0.0015077500000000    0.2538194700000000 Na
   0.7595097600000000    0.7500000000000000    0.0836005900000000 Na
   0.2328158100000000    0.7500000000000000    0.6310456200000000 Cd
   0.7671841900000000    0.2500000000000000    0.3689543800000000 Cd
   0.2973500500000000    0.2500000000000000    0.5947444400000000 P
   0.7026499500000000    0.7500000000000000    0.4052555600000000 P
   0.2642198400000000    0.7500000000000000    0.9412995100000000 C
   0.7357801600000000    0.2500000000000000    0.0587004900000000 C
   0.7089530400000000    0.2500000000000000    0.9165727299999999 O
   0.0337091400000000    0.7500000000000000    0.8818892000000000 O
   0.4704851800000000    0.7500000000000000    0.8575823299999999 O
   0.2013915800000000    0.0704495000000000    0.6841722700000000 O
   0.2013915800000000    0.4295505000000000    0.6841722700000000 O
   0.6014058799999999    0.2500000000000000    0.5922869900000000 O
   0.7990790800000001    0.7500000000000000    0.5678016299999999 O
   0.2009209200000000    0.2500000000000000    0.4321983700000000 O
   0.3985941200000000    0.7500000000000000    0.4077130100000000 O
   0.7986084200000000    0.5704495000000001    0.3158277300000000 O
   0.7986084200000000    0.9295504999999999    0.3158277300000000 O
   0.5295148200000001    0.2500000000000000    0.1424176700000000 O
   0.9662908600000000    0.2500000000000000    0.1181108000000000 O
   0.2910469600000000    0.7500000000000000    0.0834272700000000 O
