Cs16 Si4 O16
1.0
  11.3678411399999995    0.0000000000000000   -0.0687148000000000
   0.0000000000000000    6.7946488199999999    0.0000000000000000
  -4.0824063900000001    0.0000000000000000   10.5812380699999995
Cs Si O
16 4 16
direct
   0.9278284900000000    0.4246501200000000    0.2912654700000000 Cs
   0.8495284600000000    0.8764903600000000    0.4269021600000000 Cs
   0.9278284900000000    0.0753498800000000    0.7912654700000000 Cs
   0.6163775900000000    0.7077919100000000    0.0874043300000000 Cs
   0.8495284600000000    0.6235096400000000    0.9269021600000000 Cs
   0.5970170100000000    0.2055893400000000    0.2335238500000000 Cs
   0.6163775900000000    0.7922080900000000    0.5874043300000000 Cs
   0.4029829900000000    0.7055893400000000    0.2664761500000000 Cs
   0.5970170100000000    0.2944106600000000    0.7335238500000000 Cs
   0.3836224100000000    0.2077919100000000    0.4125956700000000 Cs
   0.4029829900000000    0.7944106600000000    0.7664761500000000 Cs
   0.1504715400000000    0.3764903600000000    0.0730978400000000 Cs
   0.3836224100000000    0.2922080900000000    0.9125956700000000 Cs
   0.0721715100000000    0.9246501200000000    0.2087345300000000 Cs
   0.1504715400000000    0.1235096400000000    0.5730978400000000 Cs
   0.0721715100000000    0.5753498800000000    0.7087345300000000 Cs
   0.7635750000000000    0.1309208400000000    0.0285685700000000 Si
   0.7635750000000000    0.3690791600000000    0.5285685700000000 Si
   0.2364250000000000    0.6309208400000000    0.4714314300000000 Si
   0.2364250000000000    0.8690791600000000    0.9714314300000000 Si
   0.8966452600000000    0.2103383000000000    0.0166393700000000 O
   0.7966678200000000    0.0181175900000000    0.1680557800000000 O
   0.8966452600000000    0.2896617000000000    0.5166393700000000 O
   0.6861984000000000    0.5253279700000000    0.4117557100000000 O
   0.7966678200000000    0.4818824100000000    0.6680557800000000 O
   0.6720401600000000    0.1731234400000000    0.5213364700000001 O
   0.6861984000000000    0.9746720300000000    0.9117557100000000 O
   0.3279598400000000    0.6731234400000000    0.9786635299999999 O
   0.6720401600000000    0.3268765600000000    0.0213364700000000 O
   0.3138016000000000    0.0253279700000000    0.0882442900000000 O
   0.3279598400000000    0.8268765600000000    0.4786635300000000 O
   0.2033321800000000    0.5181175900000000    0.3319442200000000 O
   0.3138016000000000    0.4746720300000000    0.5882442900000000 O
   0.1033547400000000    0.7103383000000000    0.4833606300000000 O
   0.2033321800000000    0.9818824100000000    0.8319442200000000 O
   0.1033547400000000    0.7896617000000000    0.9833606300000000 O
