Zn8 Si4 O16
1.0
  10.2150332299999995    0.0000000000000000    0.0000000000000000
   0.0000000000000000    6.5362754699999996    0.0000000000000000
   0.0000000000000000    0.0000000000000000    5.0170941400000002
Zn Si O
8 4 16
direct
   0.3419448600000000    0.9994686300000000    0.6742931300000000 Zn
   0.8419448600000000    0.5005313700000000    0.8257068700000000 Zn
   0.6580551400000000    0.4994686300000000    0.3257068700000000 Zn
   0.1580551400000000    0.0005313700000000    0.1742931300000000 Zn
   0.6580551400000000    0.0005313700000000    0.3257068700000000 Zn
   0.1580551400000000    0.4994686300000000    0.1742931300000000 Zn
   0.3419448600000000    0.5005313700000000    0.6742931300000000 Zn
   0.8419448600000000    0.9994686300000000    0.8257068700000000 Zn
   0.4088106900000000    0.2500000000000000    0.1762361600000000 Si
   0.9088106900000000    0.2500000000000000    0.3237638400000000 Si
   0.5911893100000000    0.7500000000000000    0.8237638400000000 Si
   0.0911893100000000    0.7500000000000000    0.6762361600000000 Si
   0.3882823200000000    0.2500000000000000    0.8512485600000000 O
   0.8882823200000000    0.2500000000000000    0.6487514400000000 O
   0.6117176800000000    0.7500000000000000    0.1487514400000000 O
   0.1117176800000000    0.7500000000000000    0.3512485600000000 O
   0.0634427700000000    0.2500000000000000    0.2379260300000000 O
   0.5634427700000000    0.2500000000000000    0.2620739700000000 O
   0.9365572300000000    0.7500000000000000    0.7620739700000000 O
   0.4365572300000000    0.7500000000000000    0.7379260300000000 O
   0.3362360700000000    0.0456522600000000    0.2967906400000000 O
   0.8362360700000000    0.4543477400000000    0.2032093600000000 O
   0.6637639300000000    0.5456522600000000    0.7032093600000000 O
   0.1637639300000000    0.9543477400000000    0.7967906400000000 O
   0.6637639300000000    0.9543477400000000    0.7032093600000000 O
   0.1637639300000000    0.5456522600000000    0.7967906400000000 O
   0.3362360700000000    0.4543477400000000    0.2967906400000000 O
   0.8362360700000000    0.0456522600000000    0.2032093600000000 O
