Ca1 La2 B10 O19
1.0
   5.5092879100000003   -3.2808464399999999    0.0062448700000000
   5.5092879100000003    3.2808464399999999    0.0062448700000000
  -0.2561658200000000    0.0000000000000000    9.0890505800000003
Ca La B O
1 2 10 19
direct
   0.8115896100000000    0.1884103900000000    0.5000000000000000 Ca
   0.1587538700000000    0.1640939100000000    0.1412680200000000 La
   0.8359060900000000    0.8412461300000000    0.8587319800000000 La
   0.6757483700000000    0.5539102100000000    0.2711502600000000 B
   0.2841933300000000    0.6389428500000000    0.1610574600000000 B
   0.1849707100000000    0.1607809300000000    0.7922929500000000 B
   0.6241026700000000    0.2407763200000000    0.1261742400000000 B
   0.7887216200000000    0.7472607500000000    0.4727837700000000 B
   0.7592236800000000    0.3758973300000000    0.8738257600000000 B
   0.3610571500000000    0.7158066700000000    0.8389425400000000 B
   0.2527392500000000    0.2112783800000000    0.5272162300000000 B
   0.4460897900000000    0.3242516300000000    0.7288497400000000 B
   0.8392190700000000    0.8150292900000000    0.2077070500000000 B
   0.3654023100000000    0.4108201900000000    0.1123851500000000 O
   0.7042133000000000    0.5925468500000000    0.4288846600000000 O
   0.7247951700000000    0.3058735300000000    0.2546865500000000 O
   0.8524508100000000    0.8581019700000000    0.3649018800000000 O
   0.4074531500000000    0.2957867000000000    0.5711153400000000 O
   0.1919927700000000    0.9488745400000000    0.8668757600000000 O
   0.7658851900000000    0.2341148100000000    0.0000000000000000 O
   0.4107386300000000    0.1569289000000000    0.8188904200000000 O
   0.1418980300000000    0.1475491900000000    0.6350981200000000 O
   0.0511254600000000    0.8080072300000000    0.1331242400000000 O
   0.6941264700000001    0.2752048300000000    0.7453134500000000 O
   0.8074395599999999    0.8071479200000000    0.6135165500000000 O
   0.8430711000000000    0.5892613700000000    0.1811095800000000 O
   0.1928520800000000    0.1925604400000000    0.3864834500000000 O
   0.4268061600000000    0.7199023400000000    0.2232131200000000 O
   0.9907562500000000    0.3677001000000000    0.8646024300000000 O
   0.5891798100000000    0.6345976900000000    0.8876148500000000 O
   0.6322999000000000    0.0092437500000000    0.1353975700000000 O
   0.2800976600000000    0.5731938400000000    0.7767868800000000 O
