Na1 Y1 S2
1.0
   1.9661716499999999    1.1351694299999999    6.5457793500000001
  -1.9661716499999999    1.1351694299999999    6.5457793500000001
   0.0000000000000000   -2.2703398500000000    6.5457793500000001
Na Y S
1 1 2
direct
   0.0000000000000000    0.0000000000000000    0.0000000000000000 Na
   0.5000000000000000    0.5000000000000000    0.5000000000000000 Y
   0.7568550900000000    0.7568550900000000    0.7568550900000000 S
   0.2431449100000000    0.2431449100000000    0.2431449100000000 S
