Na6 Cd7 S10
1.0
  13.0892035300000007   -2.0672411199999998   -0.0379583900000000
  13.0892035300000007    2.0672411199999998   -0.0379583900000000
  -3.1948665500000000    0.0000000000000000    9.7512434199999998
Na Cd S
6 7 10
direct
   0.7070200600000000    0.7070200600000000    0.6192065900000000 Na
   0.3007270800000000    0.3007270800000000    0.4183529400000000 Na
   0.1203453500000000    0.1203453500000000    0.7500053300000000 Na
   0.8925455500000000    0.8925455500000000    0.2408827400000000 Na
   0.9885500100000000    0.9885500100000000    0.8126412600000000 Na
   0.0052873100000000    0.0052873100000000    0.1867259100000000 Na
   0.5627431000000001    0.5627431000000001    0.4806426900000000 Cd
   0.4453953400000000    0.4453953400000000    0.5225214700000000 Cd
   0.8458936100000000    0.8458936100000000    0.7045224300000000 Cd
   0.1597042000000000    0.1597042000000000    0.2858689600000000 Cd
   0.7511127000000000    0.7511127000000000    0.1007966100000000 Cd
   0.6084691800000001    0.6084691800000001    0.9661148899999999 Cd
   0.3507243700000000    0.3507243700000000    0.9547160000000000 Cd
   0.5362652800000000    0.5362652800000000    0.7083613300000000 S
   0.4710352400000000    0.4710352400000000    0.3056040700000000 S
   0.8883587300000000    0.8883587300000000    0.5188223500000000 S
   0.1207603700000000    0.1207603700000000    0.4844981200000000 S
   0.6841323800000000    0.6841323800000000    0.8725502900000000 S
   0.3137542900000000    0.3137542900000000    0.1516316900000000 S
   0.2882516200000000    0.2882516200000000    0.6973107200000001 S
   0.7193410000000000    0.7193410000000000    0.3170321700000000 S
   0.9093387300000000    0.9093387300000000    0.9532049500000001 S
   0.0814454900000000    0.0814454900000000    0.0649824900000000 S
