Na4 B4 Se14
1.0
   7.3752717800000003   -3.3361804400000001    0.0674684700000000
   7.3752717800000003    3.3361804400000001    0.0674684700000000
  -5.6760999300000003    0.0000000000000000   10.1904613099999999
Na B Se
4 4 14
direct
   0.3229748400000000    0.8908533000000000    0.0335856900000000 Na
   0.1091467000000000    0.6770251600000000    0.4664143100000000 Na
   0.6770251600000000    0.1091467000000000    0.9664143100000000 Na
   0.8908533000000000    0.3229748400000000    0.5335856900000000 Na
   0.1622674600000000    0.6009407500000000    0.1521519600000000 B
   0.3990592500000000    0.8377325400000000    0.3478480400000000 B
   0.8377325400000000    0.3990592500000000    0.8478480400000000 B
   0.6009407500000000    0.1622674600000000    0.6521519600000000 B
   0.4819148000000000    0.5180852000000000    0.2500000000000000 Se
   0.5180852000000000    0.4819148000000000    0.7500000000000000 Se
   0.8006939600000000    0.4403556800000000    0.0215588300000000 Se
   0.5596443200000000    0.1993060400000000    0.4784411700000000 Se
   0.1993060400000000    0.5596443200000000    0.9784411700000000 Se
   0.4403556800000000    0.8006939600000000    0.5215588300000000 Se
   0.1497391800000000    0.3717151600000000    0.1722963300000000 Se
   0.6282848400000000    0.8502608200000000    0.3277036700000000 Se
   0.8502608200000000    0.6282848400000000    0.8277036700000000 Se
   0.3717151600000000    0.1497391800000000    0.6722963300000000 Se
   0.9107629800000000    0.9142018100000000    0.2280508700000000 Se
   0.0857981900000000    0.0892370200000000    0.2719491300000000 Se
   0.0892370200000000    0.0857981900000000    0.7719491300000000 Se
   0.9142018100000000    0.9107629800000000    0.7280508700000000 Se
