Sc8 Pb4 S16
1.0
  11.5439253700000002    0.0000000000000000    0.0000000000000000
   0.0000000000000000    3.7159076899999999    0.0000000000000000
   0.0000000000000000    0.0000000000000000   13.5571130600000007
Sc Pb S
8 4 16
direct
   0.5563483800000000    0.7500000000000000    0.6100853000000001 Sc
   0.4436516200000000    0.2500000000000000    0.3899147000000000 Sc
   0.0563483800000000    0.7500000000000000    0.8899146999999999 Sc
   0.9436516200000000    0.2500000000000000    0.1100853000000000 Sc
   0.5824854699999999    0.7500000000000000    0.0956972000000000 Sc
   0.4175145300000000    0.2500000000000000    0.9043028000000000 Sc
   0.0824854700000000    0.7500000000000000    0.4043028000000000 Sc
   0.9175145300000001    0.2500000000000000    0.5956972000000000 Sc
   0.2390760200000000    0.7500000000000000    0.6726532400000000 Pb
   0.7609239800000001    0.2500000000000000    0.3273467600000000 Pb
   0.7390760199999999    0.7500000000000000    0.8273467600000000 Pb
   0.2609239800000000    0.2500000000000000    0.1726532400000000 Pb
   0.7969689900000000    0.7500000000000000    0.1573973200000000 S
   0.2030310100000000    0.2500000000000000    0.8426026800000000 S
   0.2969689900000000    0.7500000000000000    0.3426026800000000 S
   0.7030310100000000    0.2500000000000000    0.6573973200000000 S
   0.8768993400000000    0.7500000000000000    0.4705230300000000 S
   0.1231006600000000    0.2500000000000000    0.5294769700000000 S
   0.3768993400000000    0.7500000000000000    0.0294769700000000 S
   0.6231006600000000    0.2500000000000000    0.9705230300000000 S
   0.4687080500000000    0.7500000000000000    0.7843311900000000 S
   0.5312919500000000    0.2500000000000000    0.2156688100000000 S
   0.9687080500000000    0.7500000000000000    0.7156688100000000 S
   0.0312919500000000    0.2500000000000000    0.2843311900000000 S
   0.5890085500000000    0.7500000000000000    0.4265852700000000 S
   0.4109914500000000    0.2500000000000000    0.5734147300000000 S
   0.0890085500000000    0.7500000000000000    0.0734147300000000 S
   0.9109914500000000    0.2500000000000000    0.9265852700000000 S
