Rb4 Ta2 Ag2 S8
1.0
   0.0000000000000000    6.7227640700000002   11.6264691700000000
   2.9552619299999998    0.0000000000000000   11.6264691700000000
   2.9552619299999998    6.7227640700000002    0.0000000000000000
Rb Ta Ag S
4 2 2 8
direct
   0.4302796700000000    0.4302796700000000    0.0697203300000000 Rb
   0.8197203300000000    0.8197203300000000    0.1802796700000000 Rb
   0.0697203300000000    0.0697203300000000    0.4302796700000000 Rb
   0.1802796700000000    0.1802796700000000    0.8197203300000000 Rb
   0.0000000000000000    0.0000000000000000    0.0000000000000000 Ta
   0.2500000000000000    0.2500000000000000    0.2500000000000000 Ta
   0.5000000000000000    0.5000000000000000    0.5000000000000000 Ag
   0.7500000000000000    0.7500000000000000    0.7500000000000000 Ag
   0.7365970200000000    0.3777038300000000    0.0607116900000000 S
   0.8249874699999999    0.0607116900000000    0.3777038300000000 S
   0.0607116900000000    0.8249874699999999    0.7365970200000000 S
   0.3777038300000000    0.7365970200000000    0.8249874699999999 S
   0.5134029800000000    0.8722961700000000    0.1892883100000000 S
   0.8722961700000000    0.5134029800000000    0.4250125300000000 S
   0.1892883100000000    0.4250125300000000    0.5134029800000000 S
   0.4250125300000000    0.1892883100000000    0.8722961700000000 S
