Na4 Zn2 Si2 O8
1.0
   5.2039206800000004    0.0000000000000000   -0.0023430700000000
   0.0000000000000000    5.4140629499999999    0.0000000000000000
  -5.1784891999999996    0.0000000000000000    6.9231432499999999
Na Zn Si O
4 2 2 8
direct
   0.7346474700000000    0.6752686000000000    0.7473605000000000 Na
   0.4827946600000000    0.8192466800000000    0.9919791400000000 Na
   0.7346474700000000    0.3247314000000000    0.2473605000000000 Na
   0.4827946600000000    0.1807533200000000    0.4919791400000000 Na
   0.9984359700000000    0.8126744200000000    0.4976698900000000 Zn
   0.9984359700000000    0.1873255800000000    0.9976698899999999 Zn
   0.2494807600000000    0.6870018500000000    0.2451460600000000 Si
   0.2494807600000000    0.3129981500000000    0.7451460600000001 Si
   0.3042604900000000    0.2100064900000000    0.9419398600000000 O
   0.3042604900000000    0.7899935100000000    0.4419398600000000 O
   0.9730424900000000    0.1549005400000000    0.5504991100000000 O
   0.9730424900000000    0.8450994600000000    0.0504991100000000 O
   0.5911067500000000    0.2884929800000000    0.7738101300000000 O
   0.1421294000000000    0.3936429200000000    0.2160943100000000 O
   0.1421294000000000    0.6063570800000000    0.7160943100000000 O
   0.5911067500000000    0.7115070200000000    0.2738101300000000 O
