Sn4 Se8 O24
1.0
   8.2466067800000005    0.0000000000000000    0.0000000000000000
   0.0000000000000000    8.2466067800000005    0.0000000000000000
   0.0000000000000000    0.0000000000000000    8.2466067800000005
Sn Se O
4 8 24
direct
   0.5000000000000000    0.5000000000000000    0.0000000000000000 Sn
   0.5000000000000000    0.0000000000000000    0.5000000000000000 Sn
   0.0000000000000000    0.0000000000000000    0.0000000000000000 Sn
   0.0000000000000000    0.5000000000000000    0.5000000000000000 Sn
   0.8338898400000000    0.1661101600000000    0.6661101600000000 Se
   0.1661101600000000    0.8338898400000000    0.3338898400000000 Se
   0.6661101600000000    0.6661101600000000    0.6661101600000000 Se
   0.1661101600000000    0.6661101600000000    0.8338898400000000 Se
   0.3338898400000000    0.1661101600000000    0.8338898400000000 Se
   0.8338898400000000    0.3338898400000000    0.1661101600000000 Se
   0.6661101600000000    0.8338898400000000    0.1661101600000000 Se
   0.3338898400000000    0.3338898400000000    0.3338898400000000 Se
   0.2460324600000000    0.4684781200000000    0.4678734900000000 O
   0.9678734900000000    0.2460324600000000    0.0315218800000000 O
   0.0321265100000000    0.7460324600000000    0.4684781200000000 O
   0.4678734900000000    0.2539675400000000    0.9684781200000000 O
   0.2539675400000000    0.9684781200000000    0.4678734900000000 O
   0.5315218800000000    0.5321265100000000    0.7539675400000000 O
   0.9684781200000000    0.0321265100000000    0.7539675400000000 O
   0.5321265100000000    0.7460324600000000    0.0315218800000000 O
   0.5315218800000000    0.9678734900000000    0.2539675400000000 O
   0.4684781200000000    0.0321265100000000    0.7460324600000000 O
   0.7539675400000000    0.9684781200000000    0.0321265100000000 O
   0.2539675400000000    0.5315218800000000    0.9678734900000000 O
   0.0315218800000000    0.5321265100000000    0.7460324600000000 O
   0.0315218800000000    0.9678734900000000    0.2460324600000000 O
   0.2460324600000000    0.0315218800000000    0.9678734900000000 O
   0.4684781200000000    0.4678734900000000    0.2460324600000000 O
   0.7539675400000000    0.5315218800000000    0.5321265100000000 O
   0.9684781200000000    0.4678734900000000    0.2539675400000000 O
   0.0321265100000000    0.7539675400000000    0.9684781200000000 O
   0.4678734900000000    0.2460324600000000    0.4684781200000000 O
   0.5321265100000000    0.7539675400000000    0.5315218800000000 O
   0.9678734900000000    0.2539675400000000    0.5315218800000000 O
   0.7460324600000000    0.0315218800000000    0.5321265100000000 O
   0.7460324600000000    0.4684781200000000    0.0321265100000000 O
