Zn4 N8 O24
1.0
   7.4383943700000001    0.0000000000000000    0.0000000000000000
   0.0000000000000000    7.4383943700000001    0.0000000000000000
   0.0000000000000000    0.0000000000000000    7.4383943700000001
Zn N O
4 8 24
direct
   0.5000000000000000    0.5000000000000000    0.5000000000000000 Zn
   0.5000000000000000    0.0000000000000000    0.0000000000000000 Zn
   0.0000000000000000    0.5000000000000000    0.0000000000000000 Zn
   0.0000000000000000    0.0000000000000000    0.5000000000000000 Zn
   0.6780522700000000    0.1780522700000000    0.3219477300000000 N
   0.6780522700000000    0.3219477300000000    0.8219477300000000 N
   0.8219477300000000    0.8219477300000000    0.8219477300000000 N
   0.8219477300000000    0.6780522700000000    0.3219477300000000 N
   0.1780522700000000    0.1780522700000000    0.1780522700000000 N
   0.1780522700000000    0.3219477300000000    0.6780522700000000 N
   0.3219477300000000    0.6780522700000000    0.1780522700000000 N
   0.3219477300000000    0.8219477300000000    0.6780522700000000 N
   0.5573625000000000    0.2035295300000000    0.8187657699999999 O
   0.5573625000000000    0.2964704700000000    0.3187657700000000 O
   0.6812342300000001    0.4426375000000000    0.7035295300000000 O
   0.6812342300000001    0.0573625000000000    0.2035295300000000 O
   0.7035295300000000    0.6812342300000001    0.4426375000000000 O
   0.7035295300000000    0.8187657699999999    0.9426375000000000 O
   0.7964704700000000    0.3187657700000000    0.9426375000000000 O
   0.7964704700000000    0.1812342300000000    0.4426375000000000 O
   0.8187657699999999    0.9426375000000000    0.7035295300000000 O
   0.8187657699999999    0.5573625000000000    0.2035295300000000 O
   0.9426375000000000    0.7035295300000000    0.8187657699999999 O
   0.9426375000000000    0.7964704700000000    0.3187657700000000 O
   0.0573625000000000    0.2035295300000000    0.6812342300000001 O
   0.0573625000000000    0.2964704700000000    0.1812342300000000 O
   0.1812342300000000    0.4426375000000000    0.7964704700000000 O
   0.1812342300000000    0.0573625000000000    0.2964704700000000 O
   0.2035295300000000    0.6812342300000001    0.0573625000000000 O
   0.2035295300000000    0.8187657699999999    0.5573625000000000 O
   0.2964704700000000    0.1812342300000000    0.0573625000000000 O
   0.2964704700000000    0.3187657700000000    0.5573625000000000 O
   0.3187657700000000    0.5573625000000000    0.2964704700000000 O
   0.3187657700000000    0.9426375000000000    0.7964704700000000 O
   0.4426375000000000    0.7035295300000000    0.6812342300000001 O
   0.4426375000000000    0.7964704700000000    0.1812342300000000 O
