Ba2 Pb1 O4
1.0
  -2.1690155600000001    2.1690155600000001    6.6322003599999997
   2.1690155600000001   -2.1690155600000001    6.6322003599999997
   2.1690155600000001    2.1690155600000001   -6.6322003599999997
Ba Pb O
2 1 4
direct
   0.3562083700000000    0.3562083700000000    0.0000000000000000 Ba
   0.6437916299999999    0.6437916299999999    0.0000000000000000 Ba
   0.0000000000000000    0.0000000000000000    0.0000000000000000 Pb
   0.5000000000000000    0.0000000000000000    0.5000000000000000 O
   0.0000000000000000    0.5000000000000000    0.5000000000000000 O
   0.8362343900000000    0.8362343900000000    0.0000000000000000 O
   0.1637656100000000    0.1637656100000000    0.0000000000000000 O
