Hf2 S1 N2
1.0
   3.6174319499999998    0.0000000000000000    0.0000000000000000
  -1.8087159799999999    3.1327880100000001    0.0000000000000000
   0.0000000000000000    0.0000000000000000    6.4328383999999996
Hf S N
2 1 2
direct
   0.6666670000000000    0.3333330000000000    0.7054982700000000 Hf
   0.3333330000000000    0.6666670000000000    0.2945017300000000 Hf
   0.0000000000000000    0.0000000000000000    0.0000000000000000 S
   0.6666670000000000    0.3333330000000000    0.3652006200000000 N
   0.3333330000000000    0.6666670000000000    0.6347993800000000 N
