Ba4 Tl4 V4 O16
1.0
   7.8802102500000002    0.0000000000000000    0.0000000000000000
   0.0000000000000000    5.8763759699999998    0.0000000000000000
   0.0000000000000000    0.0000000000000000   10.4360265600000002
Ba Tl V O
4 4 4 16
direct
   0.9950251400000000    0.7500000000000000    0.2013978500000000 Ba
   0.0049748600000000    0.2500000000000000    0.7986021500000000 Ba
   0.4950251400000000    0.7500000000000000    0.2986021500000000 Ba
   0.5049748600000000    0.2500000000000000    0.7013978500000000 Ba
   0.1687714100000000    0.7500000000000000    0.5700132300000000 Tl
   0.8312285900000000    0.2500000000000000    0.4299867700000000 Tl
   0.6687714100000000    0.7500000000000000    0.9299867700000000 Tl
   0.3312285900000000    0.2500000000000000    0.0700132300000000 Tl
   0.7231756700000000    0.7500000000000000    0.5799116200000000 V
   0.2768243300000000    0.2500000000000000    0.4200883800000000 V
   0.2231756700000000    0.7500000000000000    0.9200883800000000 V
   0.7768243300000000    0.2500000000000000    0.0799116200000000 V
   0.2965492800000000    0.7500000000000000    0.0769783600000000 O
   0.7034507200000000    0.2500000000000000    0.9230216400000000 O
   0.7965492800000000    0.7500000000000000    0.4230216400000000 O
   0.2034507200000000    0.2500000000000000    0.5769783600000000 O
   0.0045348300000000    0.7500000000000000    0.9269229000000000 O
   0.9954651700000000    0.2500000000000000    0.0730771000000000 O
   0.5045348300000000    0.7500000000000000    0.5730771000000000 O
   0.4954651700000000    0.2500000000000000    0.4269229000000000 O
   0.2895755400000000    0.9963161600000000    0.8445822300000000 O
   0.7104244600000000    0.4963161600000000    0.1554177700000000 O
   0.7895755400000000    0.5036838400000000    0.6554177700000000 O
   0.2104244600000000    0.0036838400000000    0.3445822300000000 O
   0.7104244600000000    0.0036838400000000    0.1554177700000000 O
   0.2895755400000000    0.5036838400000000    0.8445822300000000 O
   0.2104244600000000    0.4963161600000000    0.3445822300000000 O
   0.7895755400000000    0.9963161600000000    0.6554177700000000 O
