Rb3 Y1 P2 O8
1.0
   5.6937370100000004    0.0000000100000000    0.0000000000000000
  -2.8468689899999999    4.9309210600000002    0.0000000000000000
   0.0000000000000000    0.0000000000000000    8.0064150999999999
Rb Y P O
3 1 2 8
direct
   0.3333330000000000    0.6666670000000000    0.7453983500000000 Rb
   0.6666670000000000    0.3333330000000000    0.2546016500000000 Rb
   0.0000000000000000    0.0000000000000000    0.0000000000000000 Rb
   0.0000000000000000    0.0000000000000000    0.5000000000000000 Y
   0.3333330000000000    0.6666670000000000    0.2713171800000000 P
   0.6666670000000000    0.3333330000000000    0.7286828200000000 P
   0.3333330000000000    0.6666670000000000    0.0814604700000000 O
   0.6666670000000000    0.3333330000000000    0.9185395300000000 O
   0.1848406900000000    0.8151593100000000    0.3395487600000000 O
   0.8151593100000000    0.1848406900000000    0.6604512400000000 O
   0.1848406900000000    0.3696823800000000    0.3395487600000000 O
   0.8151593100000000    0.6303176200000000    0.6604512400000000 O
   0.6303176200000000    0.8151593100000000    0.3395487600000000 O
   0.3696823800000000    0.1848406900000000    0.6604512400000000 O
