Ti1 Nb6 Tl2 O18
1.0
   7.6490083000000002   -0.0000000000000000    0.0000000000000000
  -3.8245036500000000    6.6242348900000003    0.0000000000000000
   0.0000000000000000    0.0000000000000000    8.3686511699999997
Ti Nb Tl O
1 6 2 18
direct
   0.0000000000000000    0.0000000000000000    0.5000000000000000 Ti
   0.8330401700000000    0.1669598300000000    0.8473381000000000 Nb
   0.8330401700000000    0.6660813500000000    0.8473381000000000 Nb
   0.3339186500000000    0.1669598300000000    0.8473381000000000 Nb
   0.1669598300000000    0.8330401700000000    0.1526619000000000 Nb
   0.1669598300000000    0.3339186500000000    0.1526619000000000 Nb
   0.6660813500000000    0.8330401700000000    0.1526619000000000 Nb
   0.6666670000000000    0.3333330000000000    0.2625874700000000 Tl
   0.3333330000000000    0.6666670000000000    0.7374125300000000 Tl
   0.5498078400000000    0.4501921600000000    0.8408396500000000 O
   0.5498078400000000    0.0996156800000000    0.8408396500000000 O
   0.9003843200000000    0.4501921600000000    0.8408396500000000 O
   0.4501921600000000    0.5498078400000000    0.1591603500000000 O
   0.4501921600000000    0.9003843200000000    0.1591603500000000 O
   0.0996156800000000    0.5498078400000000    0.1591603500000000 O
   0.8792132300000000    0.1207867700000000    0.6371080500000000 O
   0.8792132300000000    0.7584254600000000    0.6371080500000000 O
   0.2415745400000000    0.1207867700000000    0.6371080500000000 O
   0.1207867700000000    0.8792132300000000    0.3628919500000000 O
   0.1207867700000000    0.2415745400000000    0.3628919500000000 O
   0.7584254600000000    0.8792132300000000    0.3628919500000000 O
   0.1425617600000000    0.8574382400000000    0.8986662900000000 O
   0.1425617600000000    0.2851235200000000    0.8986662900000000 O
   0.7148764800000000    0.8574382400000000    0.8986662900000000 O
   0.8574382400000000    0.1425617600000000    0.1013337100000000 O
   0.8574382400000000    0.7148764800000000    0.1013337100000000 O
   0.2851235200000000    0.1425617600000000    0.1013337100000000 O
