Rb2 Zr4 As6 O24
1.0
   4.5659998000000002    2.6361817400000001    8.4037064499999996
  -4.5659998000000002    2.6361817400000001    8.4037064499999996
   0.0000000000000000   -5.2723624999999998    8.4037064499999996
Rb Zr As O
2 4 6 24
direct
   0.0000000000000000    0.0000000000000000    0.0000000000000000 Rb
   0.5000000000000000    0.5000000000000000    0.5000000000000000 Rb
   0.1488600700000000    0.1488600700000000    0.1488600700000000 Zr
   0.6488600700000000    0.6488600700000000    0.6488600700000000 Zr
   0.8511399300000000    0.8511399300000000    0.8511399300000000 Zr
   0.3511399300000000    0.3511399300000000    0.3511399300000000 Zr
   0.9679586300000000    0.5320413700000000    0.2500000000000000 As
   0.5320413700000000    0.2500000000000000    0.9679586300000000 As
   0.2500000000000000    0.9679586300000000    0.5320413700000000 As
   0.4679586300000000    0.7500000000000000    0.0320413700000000 As
   0.7500000000000000    0.0320413700000000    0.4679586300000000 As
   0.0320413700000000    0.4679586300000000    0.7500000000000000 As
   0.9874460800000000    0.3498128800000000    0.2511909000000000 O
   0.3498128800000000    0.2511909000000000    0.9874460800000000 O
   0.2511909000000000    0.9874460800000000    0.3498128800000000 O
   0.4874460800000000    0.7511909000000000    0.8498128800000000 O
   0.7511909000000000    0.8498128800000000    0.4874460800000000 O
   0.8498128800000000    0.4874460800000000    0.7511909000000000 O
   0.0125539200000000    0.6501871200000000    0.7488091000000000 O
   0.6501871200000000    0.7488091000000000    0.0125539200000000 O
   0.7488091000000000    0.0125539200000000    0.6501871200000000 O
   0.5125539200000000    0.2488091000000000    0.1501871200000000 O
   0.2488091000000000    0.1501871200000000    0.5125539200000000 O
   0.1501871200000000    0.5125539200000000    0.2488091000000000 O
   0.0682460600000000    0.2902405500000000    0.9337521400000000 O
   0.2902405500000000    0.9337521400000000    0.0682460600000000 O
   0.9337521400000000    0.0682460600000000    0.2902405500000000 O
   0.5682460600000000    0.4337521400000000    0.7902405500000000 O
   0.4337521400000000    0.7902405500000000    0.5682460600000000 O
   0.7902405500000000    0.5682460600000000    0.4337521400000000 O
   0.9317539400000000    0.7097594500000000    0.0662478600000000 O
   0.7097594500000000    0.0662478600000000    0.9317539400000000 O
   0.0662478600000000    0.9317539400000000    0.7097594500000000 O
   0.4317539400000000    0.5662478600000000    0.2097594500000000 O
   0.5662478600000000    0.2097594500000000    0.4317539400000000 O
   0.2097594500000000    0.4317539400000000    0.5662478600000000 O
