Rb2 Cu6 S4
1.0
   7.2465032799999998   -1.9222179500000001    0.0440596600000000
   7.2465032799999998    1.9222179500000001    0.0440596600000000
  -3.1200260499999999    0.0000000000000000    7.6241981200000000
Rb Cu S
2 6 4
direct
   0.8631354400000000    0.8631354400000000    0.9540921999999999 Rb
   0.1368645600000000    0.1368645600000000    0.0459078000000000 Rb
   0.4098900100000000    0.4098900100000000    0.3677636900000000 Cu
   0.3114577800000000    0.3114577800000000    0.5615672100000000 Cu
   0.0589743900000000    0.0589743900000000    0.4053837500000000 Cu
   0.9410256100000000    0.9410256100000000    0.5946162500000000 Cu
   0.6885422200000000    0.6885422200000000    0.4384327900000000 Cu
   0.5901099900000000    0.5901099900000000    0.6322363100000000 Cu
   0.8085982100000000    0.8085982100000000    0.3292761900000000 S
   0.1914017900000000    0.1914017900000000    0.6707238100000000 S
   0.5239568100000001    0.5239568100000001    0.2452746500000000 S
   0.4760431900000000    0.4760431900000000    0.7547253500000000 S
