Rb4 Mo6 O20
1.0
   7.1369356200000000   -4.0886228899999999   -0.0176198600000000
   7.1369356200000000    4.0886228899999999   -0.0176198600000000
  -1.2746815100000000    0.0000000000000000    9.0969229699999996
Rb Mo O
4 6 20
direct
   0.5976994200000000    0.7675382500000000    0.6591755900000000 Rb
   0.2324617500000000    0.4023005800000000    0.8408244100000000 Rb
   0.4023005800000000    0.2324617500000000    0.3408244100000000 Rb
   0.7675382500000000    0.5976994200000000    0.1591755900000000 Rb
   0.8198532800000000    0.9653495700000000    0.9785732900000000 Mo
   0.0346504300000000    0.1801467200000000    0.5214267100000000 Mo
   0.1801467200000000    0.0346504300000000    0.0214267100000000 Mo
   0.9653495700000000    0.8198532800000000    0.4785732900000000 Mo
   0.7128573200000000    0.2871426800000000    0.7500000000000000 Mo
   0.2871426800000000    0.7128573200000000    0.2500000000000000 Mo
   0.6507876800000000    0.1084618200000000    0.8197896500000000 O
   0.8915381800000000    0.3492123200000000    0.6802103500000000 O
   0.3492123200000000    0.8915381800000000    0.1802103500000000 O
   0.1084618200000000    0.6507876800000000    0.3197896500000000 O
   0.0578160800000000    0.8950707500000000    0.0944881300000000 O
   0.1049292500000000    0.9421839200000000    0.4055118700000000 O
   0.9421839200000000    0.1049292500000000    0.9055118700000000 O
   0.8950707500000000    0.0578160800000000    0.5944881300000000 O
   0.6695598200000000    0.0488163300000000    0.1198537200000000 O
   0.9511836700000000    0.3304401800000000    0.3801462800000000 O
   0.3304401800000000    0.9511836700000000    0.8801462799999999 O
   0.0488163300000000    0.6695598200000000    0.6198537200000001 O
   0.8593417200000000    0.7388961100000000    0.9196122300000000 O
   0.2611038900000000    0.1406582800000000    0.5803877700000000 O
   0.1406582800000000    0.2611038900000000    0.0803877700000000 O
   0.7388961100000000    0.8593417200000000    0.4196122300000000 O
   0.5270408300000000    0.3666613900000000    0.6155370700000000 O
   0.6333386100000000    0.4729591700000000    0.8844629300000000 O
   0.4729591700000000    0.6333386100000000    0.3844629300000000 O
   0.3666613900000000    0.5270408300000000    0.1155370700000000 O
