Ba4 Y8 Se16
1.0
  12.6260665200000002    0.0000000000000000    0.0000000000000000
   0.0000000000000000    4.1459070599999999    0.0000000000000000
   0.0000000000000000    0.0000000000000000   15.0156000200000008
Ba Y Se
4 8 16
direct
   0.7409348600000000    0.2500000000000000    0.8349066700000000 Ba
   0.2409348600000000    0.2500000000000000    0.6650933300000000 Ba
   0.2590651400000000    0.7500000000000000    0.1650933300000000 Ba
   0.7590651400000000    0.7500000000000000    0.3349066700000000 Ba
   0.5783867400000000    0.2500000000000000    0.0996570100000000 Y
   0.0783867400000000    0.2500000000000000    0.4003429900000000 Y
   0.4216132600000000    0.7500000000000000    0.9003429900000000 Y
   0.9216132600000000    0.7500000000000000    0.5996570100000000 Y
   0.0658847100000000    0.2500000000000000    0.8921069500000000 Y
   0.5658847100000000    0.2500000000000000    0.6078930500000000 Y
   0.9341152900000000    0.7500000000000000    0.1078930500000000 Y
   0.4341152900000000    0.7500000000000000    0.3921069500000000 Y
   0.5848939900000000    0.2500000000000000    0.4218883000000000 Se
   0.0848939900000000    0.2500000000000000    0.0781117000000000 Se
   0.4151060100000000    0.7500000000000000    0.5781117000000000 Se
   0.9151060100000000    0.7500000000000000    0.9218883000000000 Se
   0.7927964400000000    0.2500000000000000    0.1636260500000000 Se
   0.2927964400000000    0.2500000000000000    0.3363739500000000 Se
   0.2072035600000000    0.7500000000000000    0.8363739500000000 Se
   0.7072035600000000    0.7500000000000000    0.6636260500000000 Se
   0.8721320000000000    0.2500000000000000    0.4752848800000000 Se
   0.3721320000000000    0.2500000000000000    0.0247151200000000 Se
   0.1278680000000000    0.7500000000000000    0.5247151200000000 Se
   0.6278680000000000    0.7500000000000000    0.9752848800000000 Se
   0.9768052000000000    0.2500000000000000    0.7172491100000000 Se
   0.4768052000000000    0.2500000000000000    0.7827508900000000 Se
   0.0231948000000000    0.7500000000000000    0.2827508900000000 Se
   0.5231948000000000    0.7500000000000000    0.2172491100000000 Se
