Sr4 Bi4 O10
1.0
   7.3581411900000004    0.0000000000000000   -0.0096839500000000
   0.0000000000000000    6.1731615099999999    0.0000000000000000
  -1.9230676400000000    0.0000000000000000    7.3922169400000000
Sr Bi O
4 4 10
direct
   0.6029996700000000    0.7500000000000000    0.1488306000000000 Sr
   0.3970003300000000    0.2500000000000000    0.8511694000000000 Sr
   0.6309225100000000    0.7500000000000000    0.6572442300000000 Sr
   0.3690774900000000    0.2500000000000000    0.3427557700000000 Sr
   0.1105731300000000    0.7500000000000000    0.0363667000000000 Bi
   0.8894268700000000    0.2500000000000000    0.9636333000000000 Bi
   0.1284227700000000    0.7500000000000000    0.5222691300000000 Bi
   0.8715772300000000    0.2500000000000000    0.4777308700000000 Bi
   0.9944455700000000    0.2500000000000000    0.2516000900000000 O
   0.3116658100000000    0.5074390500000000    0.0716059900000000 O
   0.3116658100000000    0.9925609500000000    0.0716059900000000 O
   0.0055544300000000    0.7500000000000000    0.7483999099999999 O
   0.6883341900000000    0.0074390500000000    0.9283940100000000 O
   0.6883341900000000    0.4925609500000000    0.9283940100000000 O
   0.3274707000000000    0.9924837200000000    0.5908908800000000 O
   0.3274707000000000    0.5075162800000000    0.5908908800000000 O
   0.6725293000000000    0.0075162800000000    0.4091091200000000 O
   0.6725293000000000    0.4924837200000000    0.4091091200000000 O
