Sc4 S3 N2
1.0
   5.9685351100000004   -1.7714490199999999   -0.0124027700000000
   5.9685351100000004    1.7714490199999999   -0.0124027700000000
  -5.5330522699999998    0.0000000000000000    7.1922377600000003
Sc S N
4 3 2
direct
   0.7664457000000000    0.7664457000000000    0.6505092300000000 Sc
   0.2335543000000000    0.2335543000000000    0.3494907700000000 Sc
   0.4354814100000000    0.4354814100000000    0.1470244400000000 Sc
   0.5645185900000000    0.5645185900000000    0.8529755600000000 Sc
   0.0000000000000000    0.0000000000000000    0.0000000000000000 S
   0.1763656300000000    0.1763656300000000    0.7826497200000000 S
   0.8236343699999999    0.8236343699999999    0.2173502800000000 S
   0.6399173500000001    0.6399173500000001    0.3646292500000000 N
   0.3600826500000000    0.3600826500000000    0.6353707500000000 N
