Cu8 S4
1.0
   3.9922756300000000    0.0000000000000000    0.0000000000000000
   0.0000000000000000    3.9922756300000000    0.0000000000000000
   0.0000000000000000    0.0000000000000000   10.5394308399999996
Cu S
8 4
direct
   0.0674849100000000    0.5918034900000000    0.3340902000000000 Cu
   0.4325150900000000    0.0918034900000000    0.4159098000000000 Cu
   0.9081965100000000    0.5674849100000000    0.0840902000000000 Cu
   0.9325150900000000    0.4081965100000000    0.8340902000000000 Cu
   0.4081965100000000    0.9325150900000000    0.1659098000000000 Cu
   0.5674849100000000    0.9081965100000000    0.9159098000000000 Cu
   0.0918034900000000    0.4325150900000000    0.5840902000000000 Cu
   0.5918034900000000    0.0674849100000000    0.6659098000000000 Cu
   0.4389530100000000    0.5610469900000000    0.7500000000000000 S
   0.0610469900000000    0.0610469900000000    0.0000000000000000 S
   0.9389530100000000    0.9389530100000000    0.5000000000000000 S
   0.5610469900000000    0.4389530100000000    0.2500000000000000 S
