Rb8 Si8 Se20
1.0
   7.9779020000000003   -7.9573140000000002    0.0000000000000000
   7.9779020000000003    7.9573140000000002    0.0000000000000000
  -2.1467860000000001    0.0000000000000000    9.0605639999999994
Rb Si Se
8 8 20
direct
   0.7091150000000001    0.9771069999999999    0.1234160000000000 Rb
   0.2908850000000000    0.0228930000000000    0.8765840000000000 Rb
   0.0228930000000000    0.2908850000000000    0.3765840000000000 Rb
   0.9771069999999999    0.7091150000000001    0.6234160000000000 Rb
   0.4488670000000000    0.2892170000000000    0.3843730000000000 Rb
   0.5511330000000000    0.7107830000000001    0.6156270000000000 Rb
   0.7107830000000001    0.5511330000000000    0.1156270000000000 Rb
   0.2892170000000000    0.4488670000000000    0.8843730000000000 Rb
   0.3646520000000000    0.7687970000000000    0.1125470000000000 Si
   0.6353480000000000    0.2312030000000000    0.8874530000000000 Si
   0.2312030000000000    0.6353480000000000    0.3874530000000000 Si
   0.7687970000000000    0.3646520000000000    0.6125470000000000 Si
   0.2322290000000000    0.9698610000000000    0.3968630000000000 Si
   0.7677710000000000    0.0301390000000000    0.6031370000000000 Si
   0.0301390000000000    0.7677710000000000    0.1031370000000000 Si
   0.9698610000000000    0.2322290000000000    0.8968630000000000 Si
   0.2532680000000000    0.8192120000000001    0.5414440000000000 Se
   0.7467320000000000    0.1807880000000000    0.4585560000000000 Se
   0.1807880000000000    0.7467320000000000    0.9585560000000000 Se
   0.8192120000000001    0.2532680000000000    0.0414440000000000 Se
   0.3873880000000000    0.9541120000000000    0.2595490000000000 Se
   0.6126120000000000    0.0458880000000000    0.7404510000000000 Se
   0.0458880000000000    0.6126120000000000    0.2404510000000000 Se
   0.9541120000000000    0.3873880000000000    0.7595490000000000 Se
   0.3857860000000000    0.6142140000000000    0.2500000000000000 Se
   0.6142140000000000    0.3857860000000000    0.7500000000000000 Se
   0.4976400000000000    0.2534270000000000    0.0304130000000000 Se
   0.5023600000000000    0.7465730000000000    0.9695870000000000 Se
   0.7465730000000000    0.5023600000000000    0.4695870000000000 Se
   0.2534270000000000    0.4976400000000000    0.5304130000000000 Se
   0.2544440000000000    0.1424730000000000    0.5460070000000000 Se
   0.7455560000000000    0.8575270000000000    0.4539930000000000 Se
   0.8575270000000000    0.7455560000000000    0.9539930000000000 Se
   0.1424730000000000    0.2544440000000000    0.0460070000000000 Se
   0.0461710000000000    0.9538290000000000    0.2500000000000000 Se
   0.9538290000000000    0.0461710000000000    0.7500000000000000 Se
