Cd2 Mo2 O8
1.0
  -2.5848896899999998    2.5848897200000001    5.5649257800000003
   2.5848896899999998   -2.5848897200000001    5.5649257800000003
   2.5848897200000001    2.5848896899999998   -5.5649257800000003
Cd Mo O
2 2 8
direct
   0.7500000000000000    0.2500000000000000    0.5000000000000000 Cd
   0.0000000000000000    0.0000000000000000    0.0000000000000000 Cd
   0.2500000000000000    0.7500000000000000    0.5000000000000000 Mo
   0.5000000000000000    0.5000000000000000    0.0000000000000000 Mo
   0.4271862800000000    0.8326027100000000    0.0832614300000000 O
   0.5826027100000000    0.9993412699999999    0.9054164300000000 O
   0.0939248500000000    0.6771862800000000    0.0945835700000000 O
   0.7493412699999999    0.3439248500000000    0.9167385700000000 O
   0.0006587300000000    0.9060751500000001    0.5832614300000000 O
   0.6560751500000001    0.5728137200000000    0.4054164300000000 O
   0.1673972900000000    0.2506587300000000    0.5945835700000000 O
   0.3228137200000000    0.4173972900000000    0.4167385700000000 O
