Ti2 Se4 O12
1.0
   4.7774540999999999    0.0000000000000000    0.0537795000000000
   0.0000000000000000    8.4104033499999993    0.0000000000000000
  -2.4620395400000001    0.0000000000000000    6.3730832499999996
Ti Se O
2 4 12
direct
   0.5000000000000000    0.5000000000000000    0.5000000000000000 Ti
   0.5000000000000000    0.0000000000000000    0.0000000000000000 Ti
   0.8764971600000000    0.6505992000000000    0.1849479900000000 Se
   0.1235028400000000    0.1505992000000000    0.3150520100000000 Se
   0.1235028400000000    0.3494008000000000    0.8150520100000000 Se
   0.8764971600000000    0.8494008000000000    0.6849479900000000 Se
   0.8269462900000000    0.1604864400000000    0.0817201000000000 O
   0.1730537100000000    0.6604864400000000    0.4182799000000000 O
   0.1730537100000000    0.8395135600000000    0.9182799000000000 O
   0.8269462900000000    0.3395135600000000    0.5817201000000000 O
   0.3971204900000000    0.0598133700000000    0.2475183300000000 O
   0.6028795100000000    0.5598133700000000    0.2524816700000000 O
   0.7744062100000000    0.6521357900000000    0.6875763800000000 O
   0.2255937900000000    0.1521357900000000    0.8124236200000000 O
   0.2255937900000000    0.3478642100000000    0.3124236200000000 O
   0.7744062100000000    0.8478642100000000    0.1875763800000000 O
   0.3971204900000000    0.4401866300000000    0.7475183300000000 O
   0.6028795100000000    0.9401866300000000    0.7524816700000000 O
