Ta2 In2 O8
1.0
   4.8494902199999999    0.0000000000000000   -0.0090705900000000
   0.0000000000000000    5.8386642599999998    0.0000000000000000
  -0.1463570200000000    0.0000000000000000    5.2346010999999999
Ta In O
2 2 8
direct
   0.0000000000000000    0.8344794700000000    0.7500000000000000 Ta
   0.0000000000000000    0.1655205300000000    0.2500000000000000 Ta
   0.5000000000000000    0.3285346600000000    0.7500000000000000 In
   0.5000000000000000    0.6714653400000000    0.2500000000000000 In
   0.7419700600000000    0.6209182500000000    0.6005847500000000 O
   0.2580299400000000    0.6209182500000000    0.8994152500000000 O
   0.2580299400000000    0.3790817500000000    0.3994152500000000 O
   0.7419700600000000    0.3790817500000000    0.1005847500000000 O
   0.7852191400000000    0.1020261300000000    0.5642752700000000 O
   0.2147808600000000    0.1020261300000000    0.9357247300000000 O
   0.2147808600000000    0.8979738700000000    0.4357247300000000 O
   0.7852191400000000    0.8979738700000000    0.0642752700000000 O
