Ga2 Cu2 S4
1.0
  -2.6415844700000002    2.6415844700000002    5.2219094500000001
   2.6415844700000002   -2.6415844700000002    5.2219094500000001
   2.6415844700000002    2.6415844700000002   -5.2219094500000001
Ga Cu S
2 2 4
direct
   0.5000000000000000    0.5000000000000000    0.0000000000000000 Ga
   0.2500000000000000    0.7500000000000000    0.5000000000000000 Ga
   0.0000000000000000    0.0000000000000000    0.0000000000000000 Cu
   0.7500000000000000    0.2500000000000000    0.5000000000000000 Cu
   0.1227168200000000    0.6250000000000000    0.9977168199999999 S
   0.3750000000000000    0.3727168200000000    0.4977168200000000 S
   0.8750000000000000    0.8772831800000001    0.5022831800000001 S
   0.6272831800000001    0.1250000000000000    0.0022831800000000 S
