Ga1 Cu1 Ge1 Se4
1.0
  -2.7264929000000002    2.7264938200000000    5.3433289899999998
   2.7264929000000002   -2.7264938200000000    5.3433289899999998
   2.7264938200000000    2.7264929000000002   -5.3433289899999998
Ga Cu Ge Se
1 1 1 4
direct
   0.5000000000000000    0.5000000000000000    0.0000000000000000 Ga
   0.2500000000000000    0.7500000000000000    0.5000000000000000 Cu
   0.7500000000000000    0.2500000000000000    0.5000000000000000 Ge
   0.1126789600000000    0.1139262700000000    0.4599325000000000 Se
   0.6539947600000000    0.6527474599999999    0.5400675000000000 Se
   0.3472525400000000    0.8873210400000000    0.0012473000000000 Se
   0.8860737300000000    0.3460052400000000    0.9987527000000000 Se
