Rb4 Li4 S4 O16
1.0
   5.2751696800000003    0.0000000000000000   -0.0117599900000000
   0.0000000000000000    8.7349694200000005    0.0000000000000000
  -5.2935107500000003    0.0000000000000000    9.1038409700000003
Rb Li S O
4 4 4 16
direct
   0.5371435400000000    0.4941494800000000    0.7697669300000000 Rb
   0.4628564600000000    0.9941494800000000    0.7302330700000000 Rb
   0.4628564600000000    0.5058505200000000    0.2302330700000000 Rb
   0.5371435400000000    0.0058505200000000    0.2697669300000000 Rb
   0.1514071200000000    0.3188923400000000    0.4090314500000000 Li
   0.1514071200000000    0.1811076600000000    0.9090314500000000 Li
   0.8485928800000000    0.6811076600000000    0.5909685500000000 Li
   0.8485928800000000    0.8188923400000000    0.0909685500000000 Li
   0.8218609800000000    0.2935997500000000    0.5760557400000000 S
   0.1781390200000000    0.7935997500000000    0.9239442600000000 S
   0.1781390200000000    0.7064002500000000    0.4239442600000000 S
   0.8218609800000000    0.2064002500000000    0.0760557400000000 S
   0.5312759100000000    0.2518598700000000    0.4475511600000000 O
   0.5312759100000000    0.2481401300000000    0.9475511599999999 O
   0.4687240900000000    0.7481401300000000    0.5524488400000001 O
   0.4687240900000000    0.7518598700000000    0.0524488400000000 O
   0.8472560400000000    0.2260232000000000    0.7113633200000000 O
   0.1527439600000000    0.7260232000000000    0.7886366800000000 O
   0.1527439600000000    0.7739768000000000    0.2886366800000000 O
   0.8472560400000000    0.2739768000000000    0.2113633200000000 O
   0.8477034400000000    0.0378181800000000    0.0917765100000000 O
   0.1522965600000000    0.5378181800000000    0.4082234900000000 O
   0.1522965600000000    0.9621818200000000    0.9082234900000000 O
   0.8477034400000000    0.4621818200000000    0.5917765100000000 O
   0.0583488200000000    0.2670584600000000    0.0519936700000000 O
   0.9416511800000000    0.7670584600000000    0.4480063300000000 O
   0.9416511800000000    0.7329415400000000    0.9480063300000000 O
   0.0583488200000000    0.2329415400000000    0.5519936700000000 O
