Tl6 Te1 O6
1.0
   4.6961280600000004    2.7113099100000002    3.5613099300000002
  -4.6961271699999996    2.7113114500000002    3.5613099300000002
  -0.0000008900000000   -5.4226204100000004    3.5613099500000001
Tl Te O
6 1 6
direct
   0.7234233500000000    0.8627217300000000    0.4404827800000000 Tl
   0.4404827800000000    0.7234233500000000    0.8627217300000000 Tl
   0.8627217300000000    0.4404827800000000    0.7234233500000000 Tl
   0.2765766500000000    0.1372782700000000    0.5595172200000000 Tl
   0.5595172200000000    0.2765766500000000    0.1372782700000000 Tl
   0.1372782700000000    0.5595172200000000    0.2765766500000000 Tl
   0.0000000000000000    0.0000000000000000    0.0000000000000000 Te
   0.0435693000000000    0.7055557300000000    0.9516668600000000 O
   0.9516668600000000    0.0435693000000000    0.7055557300000000 O
   0.7055557300000000    0.9516668600000000    0.0435693000000000 O
   0.9564307000000000    0.2944442700000000    0.0483331400000000 O
   0.0483331400000000    0.9564307000000000    0.2944442700000000 O
   0.2944442700000000    0.0483331400000000    0.9564307000000000 O
