Rb2 Hg1 O2
1.0
  -2.0594263499999999    2.0594263499999999    7.0993571400000004
   2.0594263499999999   -2.0594263499999999    7.0993571400000004
   2.0594263499999999    2.0594263499999999   -7.0993571400000004
Rb Hg O
2 1 2
direct
   0.6669691100000000    0.6669691100000000    0.0000000000000000 Rb
   0.3330308900000000    0.3330308900000000    0.0000000000000000 Rb
   0.0000000000000000    0.0000000000000000    0.0000000000000000 Hg
   0.8606067200000000    0.8606067200000000    0.0000000000000000 O
   0.1393932800000000    0.1393932800000000    0.0000000000000000 O
