Na8 Ge2 O8
1.0
   5.6509725000000000   -0.0083864200000000    0.0036031900000000
   2.0983726599999999    5.2591807099999999    0.0039656000000000
   2.7372004300000001    0.2598935000000000    8.0948077600000001
Na Ge O
8 2 8
direct
   0.9797036600000000    0.2345132700000000    0.0659619400000000 Na
   0.4458747900000000    0.7428653000000000    0.1013959700000000 Na
   0.8910208100000000    0.7715497400000000    0.3177079400000000 Na
   0.2581606500000000    0.7443232100000000    0.5114549200000000 Na
   0.7418393500000000    0.2556767900000000    0.4885450800000000 Na
   0.5541252100000000    0.2571347000000000    0.8986040300000000 Na
   0.0202963400000000    0.7654867300000000    0.9340380600000000 Na
   0.1089791900000000    0.2284502600000000    0.6822920600000000 Na
   0.3427603400000000    0.2205782200000000    0.2562467200000000 Ge
   0.6572396600000000    0.7794217800000000    0.7437532800000000 Ge
   0.3325091800000000    0.9739261299999999    0.8637844600000000 O
   0.7970569199999999    0.5226611100000000    0.8773750100000000 O
   0.2029430800000000    0.4773388900000000    0.1226249900000000 O
   0.8645178100000001    0.9732463900000000    0.6953305300000000 O
   0.1354821900000000    0.0267536100000000    0.3046694700000000 O
   0.6476161200000000    0.6546146400000000    0.5671439200000000 O
   0.6674908200000000    0.0260738700000000    0.1362155400000000 O
   0.3523838800000000    0.3453853600000000    0.4328560800000000 O
