La2 O3
1.0
   3.9046124600000001    0.0000000000000000    0.0000000000000000
  -1.9523062300000000    3.3814931300000000    0.0000000000000000
   0.0000000000000000    0.0000000000000000    6.0361435900000000
La O
2 3
direct
   0.6666670000000000    0.3333330000000000    0.7547023100000000 La
   0.3333330000000000    0.6666670000000000    0.2452976900000000 La
   0.6666670000000000    0.3333330000000000    0.3538715300000000 O
   0.3333330000000000    0.6666670000000000    0.6461284700000000 O
   0.0000000000000000    0.0000000000000000    0.0000000000000000 O
