Ba4 Na2 Cu6 S10
1.0
   8.1844120000000000   -2.7203914999999999    0.0014825800000000
   8.1844120000000000    2.7203914999999999    0.0014825800000000
  -1.5183890499999999    0.0000000000000000   10.1666253300000005
Ba Na Cu S
4 2 6 10
direct
   0.2367352500000000    0.2367352500000000    0.6989067600000000 Ba
   0.7632647500000000    0.7632647500000000    0.3010932400000000 Ba
   0.5426371900000000    0.5426371900000000    0.7107545100000000 Ba
   0.4573628100000000    0.4573628100000000    0.2892454900000000 Ba
   0.8947633900000000    0.8947633900000000    0.7688845700000000 Na
   0.1052366100000000    0.1052366100000000    0.2311154300000000 Na
   0.2380113900000000    0.7619886100000000    0.0000000000000000 Cu
   0.7619886100000000    0.2380113900000000    0.0000000000000000 Cu
   0.0745692800000000    0.5864952200000000    0.0087960500000000 Cu
   0.5864952200000000    0.0745692800000000    0.0087960500000000 Cu
   0.9254307200000000    0.4135047800000000    0.9912039499999999 Cu
   0.4135047800000000    0.9254307200000000    0.9912039499999999 Cu
   0.5697433900000000    0.1829006300000000    0.5318144800000000 S
   0.1829006300000000    0.5697433900000000    0.5318144800000000 S
   0.4302566100000000    0.8170993700000000    0.4681855200000000 S
   0.8170993700000000    0.4302566100000000    0.4681855200000000 S
   0.4026470100000000    0.4026470100000000    0.8806610300000000 S
   0.5973529900000000    0.5973529900000000    0.1193389700000000 S
   0.9292489000000000    0.9292489000000000    0.1437660300000000 S
   0.0707511000000000    0.0707511000000000    0.8562339700000000 S
   0.7389360400000000    0.7389360400000000    0.8563056800000000 S
   0.2610639600000000    0.2610639600000000    0.1436943200000000 S
