Ta4 P4 O20
1.0
  11.3811734199999997    0.0000000000000000    0.0000000000000000
   0.0000000000000000    5.3774400599999996    0.0000000000000000
   0.0000000000000000    0.0000000000000000    6.7408379199999997
Ta P O
4 4 20
direct
   0.0626443800000000    0.7500000000000000    0.1697739500000000 Ta
   0.9373556199999999    0.2500000000000000    0.8302260500000000 Ta
   0.5626443800000001    0.7500000000000000    0.3302260500000000 Ta
   0.4373556200000000    0.2500000000000000    0.6697739500000000 Ta
   0.3455868700000000    0.7500000000000000    0.9723125000000000 P
   0.6544131300000000    0.2500000000000000    0.0276875000000000 P
   0.8455868700000000    0.7500000000000000    0.5276875000000000 P
   0.1544131300000000    0.2500000000000000    0.4723125000000000 P
   0.5000000000000000    0.5000000000000000    0.5000000000000000 O
   0.5000000000000000    0.0000000000000000    0.5000000000000000 O
   0.0000000000000000    0.0000000000000000    0.0000000000000000 O
   0.0000000000000000    0.5000000000000000    0.0000000000000000 O
   0.6278280800000000    0.4852015600000000    0.1468842100000000 O
   0.3721719200000000    0.9852015600000000    0.8531157900000000 O
   0.3721719200000000    0.5147984400000000    0.8531157900000000 O
   0.6278280800000000    0.0147984400000000    0.1468842100000000 O
   0.1278280800000000    0.0147984400000000    0.3531157900000000 O
   0.8721719200000000    0.5147984400000000    0.6468842100000000 O
   0.8721719200000000    0.9852015600000000    0.6468842100000000 O
   0.1278280800000000    0.4852015600000000    0.3531157900000000 O
   0.7146961300000000    0.7500000000000000    0.4725011100000000 O
   0.2853038700000000    0.2500000000000000    0.5274988900000001 O
   0.2146961300000000    0.7500000000000000    0.0274988900000000 O
   0.7853038700000000    0.2500000000000000    0.9725011099999999 O
   0.9177167700000000    0.7500000000000000    0.3348730300000000 O
   0.0822832300000000    0.2500000000000000    0.6651269700000000 O
   0.4177167700000000    0.7500000000000000    0.1651269700000000 O
   0.5822832300000000    0.2500000000000000    0.8348730300000000 O
