Rb6 B6 S12
1.0
   7.9197067299999997    4.5724445800000000    2.9620642199999998
  -7.9197067299999997    4.5724445800000000    2.9620642199999998
   0.0000000000000000   -9.1448891499999991    2.9620642199999998
Rb B S
6 6 12
direct
   0.6986869800000000    0.8013130200000000    0.2500000000000000 Rb
   0.2500000000000000    0.6986869800000000    0.8013130200000000 Rb
   0.8013130200000000    0.2500000000000000    0.6986869800000000 Rb
   0.3013130200000000    0.1986869800000000    0.7500000000000000 Rb
   0.7500000000000000    0.3013130200000000    0.1986869800000000 Rb
   0.1986869800000000    0.7500000000000000    0.3013130200000000 Rb
   0.3633649300000000    0.1366350700000000    0.2500000000000000 B
   0.2500000000000000    0.3633649300000000    0.1366350700000000 B
   0.1366350700000000    0.2500000000000000    0.3633649300000000 B
   0.6366350700000000    0.8633649300000000    0.7500000000000000 B
   0.7500000000000000    0.6366350700000000    0.8633649300000000 B
   0.8633649300000000    0.7500000000000000    0.6366350700000000 B
   0.6324213800000000    0.7500000000000000    0.8675786200000000 S
   0.7500000000000000    0.8675786200000000    0.6324213800000000 S
   0.8675786200000000    0.6324213800000000    0.7500000000000000 S
   0.3675786200000000    0.2500000000000000    0.1324213800000000 S
   0.2500000000000000    0.1324213800000000    0.3675786200000000 S
   0.1324213800000000    0.3675786200000000    0.2500000000000000 S
   0.9752794100000000    0.7500000000000000    0.5247205900000000 S
   0.7500000000000000    0.5247205900000000    0.9752794100000000 S
   0.5247205900000000    0.9752794100000000    0.7500000000000000 S
   0.0247205900000000    0.2500000000000000    0.4752794100000000 S
   0.2500000000000000    0.4752794100000000    0.0247205900000000 S
   0.4752794100000000    0.0247205900000000    0.2500000000000000 S
