Mg2 Zn4 P4 O16
1.0
   5.0233858700000003    0.0000000000000000   -0.0101010500000000
   0.0000000000000000    8.2238205700000009    0.0000000000000000
  -4.3219855400000000    0.0000000000000000    7.5349861499999999
Mg Zn P O
2 4 4 16
direct
   0.0000000000000000    0.0000000000000000    0.0000000000000000 Mg
   0.0000000000000000    0.5000000000000000    0.5000000000000000 Mg
   0.0227658500000000    0.3610815100000000    0.1130923900000000 Zn
   0.9772341500000000    0.6389184900000000    0.8869076100000000 Zn
   0.9772341500000000    0.8610815100000000    0.3869076100000000 Zn
   0.0227658500000000    0.1389184900000000    0.6130923900000000 Zn
   0.3393055400000000    0.6946487099999999    0.3010676400000000 P
   0.6606944600000000    0.3053512900000000    0.6989323600000000 P
   0.6606944600000000    0.1946487100000000    0.1989323600000000 P
   0.3393055400000000    0.8053512900000001    0.8010676400000000 P
   0.6885411000000000    0.7006318900000000    0.3718526000000000 O
   0.3114589000000000    0.2993681100000000    0.6281474000000000 O
   0.3114589000000000    0.2006318900000000    0.1281474000000000 O
   0.6885411000000000    0.7993681100000000    0.8718526000000000 O
   0.1793320700000000    0.8642818000000000    0.2416811800000000 O
   0.8206679300000000    0.1357182000000000    0.7583188199999999 O
   0.8206679300000000    0.3642818000000000    0.2583188200000000 O
   0.1793320700000000    0.6357182000000000    0.7416811800000001 O
   0.1961735200000000    0.5764462299999999    0.1396090200000000 O
   0.8038264800000000    0.4235537700000000    0.8603909800000000 O
   0.8038264800000000    0.0764462300000000    0.3603909800000000 O
   0.1961735200000000    0.9235537700000001    0.6396090200000000 O
   0.2719804800000000    0.6369873300000000    0.4460089800000000 O
   0.7280195200000000    0.3630126700000000    0.5539910200000000 O
   0.7280195200000000    0.1369873300000000    0.0539910200000000 O
   0.2719804800000000    0.8630126700000000    0.9460089800000000 O
