Li6 Sb2 O8
1.0
   5.1308868199999997    0.0000000000000000    0.0271006100000000
   0.0000000000000000    6.0911138400000002    0.0000000000000000
  -1.6636066800000000    0.0000000000000000    4.8529504000000001
Li Sb O
6 2 8
direct
   0.0000000000000000    0.3891111100000000    0.2500000000000000 Li
   0.0000000000000000    0.6108888900000000    0.7500000000000000 Li
   0.5000000000000000    0.5735874000000000    0.2500000000000000 Li
   0.5000000000000000    0.1480462700000000    0.2500000000000000 Li
   0.5000000000000000    0.4264126000000000    0.7500000000000000 Li
   0.5000000000000000    0.8519537300000000    0.7500000000000000 Li
   0.0000000000000000    0.8557909299999999    0.2500000000000000 Sb
   0.0000000000000000    0.1442090700000000    0.7500000000000000 Sb
   0.7538565000000000    0.6375606500000000    0.0218593000000000 O
   0.7745903600000000    0.8971675700000000    0.5059314600000000 O
   0.7538565000000000    0.3624393500000000    0.5218593000000000 O
   0.7745903600000000    0.1028324300000000    0.0059314600000000 O
   0.2254096400000000    0.8971675700000000    0.9940685400000000 O
   0.2461435000000000    0.6375606500000000    0.4781407000000000 O
   0.2254096400000000    0.1028324300000000    0.4940685400000000 O
   0.2461435000000000    0.3624393500000000    0.9781407000000000 O
