In1 Ag1 Ge1 Se4
1.0
  -2.8596926300000001    2.8596939500000000    5.4570363600000000
   2.8596926300000001   -2.8596939500000000    5.4570363600000000
   2.8596939500000000    2.8596926300000001   -5.4570363600000000
In Ag Ge Se
1 1 1 4
direct
   0.5000000000000000    0.5000000000000000    0.0000000000000000 In
   0.2500000000000000    0.7500000000000000    0.5000000000000000 Ag
   0.7500000000000000    0.2500000000000000    0.5000000000000000 Ge
   0.0816133400000000    0.1179714000000000    0.4321651400000000 Se
   0.6858062600000000    0.6494482000000000    0.5678348600000001 Se
   0.3505518000000000    0.9183866600000000    0.0363580600000000 Se
   0.8820286000000001    0.3141937400000000    0.9636419400000000 Se
