Sc16 O24
1.0
  -4.8812712700000001    4.8812712700000001    4.8812712700000001
   4.8812712700000001   -4.8812712700000001    4.8812712700000001
   4.8812712700000001    4.8812712700000001   -4.8812712700000001
Sc O
16 24
direct
   0.5000000000000000    0.0000000000000000    0.5000000000000000 Sc
   0.5000000000000000    0.5000000000000000    0.0000000000000000 Sc
   0.0000000000000000    0.5000000000000000    0.5000000000000000 Sc
   0.0000000000000000    0.0000000000000000    0.0000000000000000 Sc
   0.7869294300000000    0.2500000000000000    0.0369294300000000 Sc
   0.7130705700000000    0.7500000000000000    0.4630705700000000 Sc
   0.2500000000000000    0.0369294300000000    0.7869294300000000 Sc
   0.7500000000000000    0.4630705700000000    0.7130705700000000 Sc
   0.0369294300000000    0.7869294300000000    0.2500000000000000 Sc
   0.4630705700000000    0.7130705700000000    0.7500000000000000 Sc
   0.2130705700000000    0.7500000000000000    0.9630705700000000 Sc
   0.2869294300000000    0.2500000000000000    0.5369294300000000 Sc
   0.7500000000000000    0.9630705700000000    0.2130705700000000 Sc
   0.2500000000000000    0.5369294300000000    0.2869294300000000 Sc
   0.9630705700000000    0.2130705700000000    0.7500000000000000 Sc
   0.5369294300000000    0.2869294300000000    0.2500000000000000 Sc
   0.4898396300000000    0.2265875500000000    0.4539823500000000 O
   0.2273948000000000    0.2734124500000000    0.7632520800000000 O
   0.0101603700000000    0.4641437200000000    0.7367479200000000 O
   0.2726052000000000    0.0358562800000000    0.0460176500000000 O
   0.2265875500000000    0.4539823500000000    0.4898396300000000 O
   0.2734124500000000    0.7632520800000000    0.2273948000000000 O
   0.4641437200000000    0.7367479200000000    0.0101603700000000 O
   0.0358562800000000    0.0460176500000000    0.2726052000000000 O
   0.4539823500000000    0.4898396300000000    0.2265875500000000 O
   0.7632520800000000    0.2273948000000000    0.2734124500000000 O
   0.7367479200000000    0.0101603700000000    0.4641437200000000 O
   0.0460176500000000    0.2726052000000000    0.0358562800000000 O
   0.5101603700000000    0.7734124500000000    0.5460176500000000 O
   0.7726052000000000    0.7265875500000000    0.2367479200000000 O
   0.9898396300000000    0.5358562800000000    0.2632520800000000 O
   0.7273948000000000    0.9641437200000000    0.9539823500000000 O
   0.7734124500000000    0.5460176500000000    0.5101603700000000 O
   0.7265875500000000    0.2367479200000000    0.7726052000000000 O
   0.5358562800000000    0.2632520800000000    0.9898396300000000 O
   0.9641437200000000    0.9539823500000000    0.7273948000000000 O
   0.5460176500000000    0.5101603700000000    0.7734124500000000 O
   0.2367479200000000    0.7726052000000000    0.7265875500000000 O
   0.2632520800000000    0.9898396300000000    0.5358562800000000 O
   0.9539823500000000    0.7273948000000000    0.9641437200000000 O
