Na2 Mg8 V6 O24
1.0
  -3.4431496099999999    3.4431496099999999    9.5715046099999999
   3.4431496099999999   -3.4431496099999999    9.5715046099999999
   3.4431496099999999    3.4431496099999999   -9.5715046099999999
Na Mg V O
2 8 6 24
direct
   0.2500000000000000    0.7500000000000000    0.5000000000000000 Na
   0.5000000000000000    0.5000000000000000    0.0000000000000000 Na
   0.9755769000000000    0.4755769000000000    0.5000000000000000 Mg
   0.5244231000000000    0.0244231000000000    0.5000000000000000 Mg
   0.7744231000000000    0.7744231000000000    0.0000000000000000 Mg
   0.2255769000000000    0.2255769000000000    0.0000000000000000 Mg
   0.1187536700000000    0.1250000000000000    0.4937536700000000 Mg
   0.8750000000000000    0.3687536700000000    0.9937536700000000 Mg
   0.3750000000000000    0.8812463300000000    0.0062463300000000 Mg
   0.6312463300000000    0.6250000000000000    0.5062463300000000 Mg
   0.7500000000000000    0.2500000000000000    0.5000000000000000 V
   0.0000000000000000    0.0000000000000000    0.0000000000000000 V
   0.2223474900000000    0.6250000000000000    0.0973474900000000 V
   0.3750000000000000    0.4723474900000000    0.5973474900000000 V
   0.8750000000000000    0.7776525100000000    0.4026525100000000 V
   0.5276525100000000    0.1250000000000000    0.9026525100000000 V
   0.8496974600000000    0.0873894000000000    0.3448573800000000 O
   0.9126106000000000    0.2574679800000000    0.7623090600000000 O
   0.4951589200000000    0.1503025400000000    0.2376909400000000 O
   0.9003025400000000    0.7451589199999999    0.7376909400000000 O
   0.0074679800000000    0.1626106000000000    0.2623090600000000 O
   0.7425320200000000    0.5048410800000001    0.6551426200000000 O
   0.2548410800000000    0.9925320200000000    0.1551426200000000 O
   0.8373894000000000    0.0996974600000000    0.8448573800000000 O
   0.0768673900000000    0.8075464800000000    0.1889970700000000 O
   0.1924535200000000    0.3814495900000000    0.2693209100000000 O
   0.1121296800000000    0.9231326100000000    0.7306790900000000 O
   0.6731326100000000    0.3621296800000000    0.2306790900000000 O
   0.1314495900000000    0.4424535200000000    0.7693209100000000 O
   0.6185504100000000    0.8878703200000000    0.8110029300000000 O
   0.6378703200000000    0.8685504100000000    0.3110029300000000 O
   0.5575464800000000    0.3268673900000000    0.6889970700000000 O
   0.2986740500000000    0.1086141600000000    0.7905831300000000 O
   0.8913858400000000    0.6819689799999999    0.1900609000000000 O
   0.4919090800000000    0.7013259500000000    0.8099391000000000 O
   0.4513259500000000    0.7419090800000000    0.3099391000000000 O
   0.4319689800000000    0.1413858400000000    0.6900609000000000 O
   0.3180310200000000    0.5080909200000000    0.2094168700000000 O
   0.2580909200000000    0.5680310200000001    0.7094168700000000 O
   0.8586141600000000    0.5486740500000000    0.2905831300000000 O
