Cs2 Mo2 N6 O22
1.0
   6.6052879600000001   -4.1716664899999998    0.0078667300000000
   6.6052879600000001    4.1716664899999998    0.0078667300000000
  -3.9781360600000002    0.0000000000000000    9.1761695400000001
Cs Mo N O
2 2 6 22
direct
   0.9962293200000000    0.0037706800000000    0.0000000000000000 Cs
   0.3820289900000000    0.6179710100000000    0.5000000000000000 Cs
   0.3034691700000000    0.2988617600000000    0.7819294000000000 Mo
   0.7011382400000000    0.6965308300000000    0.2180706000000000 Mo
   0.9290442000000000    0.3237032000000000    0.7174797800000000 N
   0.6762968000000000    0.0709558000000000    0.2825202200000000 N
   0.2132382900000000    0.1398712600000000    0.4543963700000000 N
   0.8601287399999999    0.7867617099999999    0.5456036300000000 N
   0.2152267700000000    0.4788586400000000    0.0786904600000000 N
   0.5211413600000000    0.7847732300000000    0.9213095400000000 N
   0.5191027499999999    0.1577177600000000    0.8734460700000000 O
   0.8422822400000000    0.4808972500000000    0.1265539300000000 O
   0.3571446200000000    0.4511116500000000    0.7269840100000000 O
   0.5488883500000000    0.6428553800000000    0.2730159900000000 O
   0.0741774800000000    0.2157490900000000    0.7999481100000000 O
   0.7842509100000000    0.9258225200000000    0.2000518900000000 O
   0.9758844700000000    0.4284839400000000    0.6716632900000000 O
   0.5715160600000000    0.0241155300000000    0.3283367100000000 O
   0.7657109500000000    0.3212420300000000    0.6876211000000000 O
   0.6787579700000000    0.2342890500000000    0.3123789000000000 O
   0.2824021200000000    0.1002782100000000    0.5910977900000000 O
   0.8997217900000000    0.7175978800000000    0.4089022100000000 O
   0.1887976700000000    0.2991075100000000    0.4419560900000000 O
   0.7008924900000000    0.8112023300000000    0.5580439100000000 O
   0.1843401400000000    0.0031554400000000    0.3570777900000000 O
   0.9968445600000000    0.8156598600000000    0.6429222100000000 O
   0.2071716000000000    0.5161275500000000    0.9524133900000000 O
   0.4838724500000000    0.7928284000000000    0.0475866100000000 O
   0.2792829000000000    0.3095211700000000    0.0888993100000000 O
   0.6904788300000000    0.7207171000000000    0.9111006900000000 O
   0.1562306500000000    0.6254159000000000    0.1711922500000000 O
   0.3745841000000000    0.8437693500000000    0.8288077500000000 O
