Ca8 Ge4 S16
1.0
  13.5893148900000007    0.0000000000000000    0.0000000000000000
   0.0000000000000000    8.1477151200000009    0.0000000000000000
   0.0000000000000000    0.0000000000000000    6.2823993500000004
Ca Ge S
8 4 16
direct
   0.0000000000000000    0.0000000000000000    0.0000000000000000 Ca
   0.5000000000000000    0.0000000000000000    0.5000000000000000 Ca
   0.0000000000000000    0.5000000000000000    0.0000000000000000 Ca
   0.5000000000000000    0.5000000000000000    0.5000000000000000 Ca
   0.7731192900000000    0.7500000000000000    0.4834032500000000 Ca
   0.7268807100000000    0.2500000000000000    0.9834032500000000 Ca
   0.2268807100000000    0.2500000000000000    0.5165967500000000 Ca
   0.2731192900000000    0.7500000000000000    0.0165967500000000 Ca
   0.5933425100000000    0.7500000000000000    0.9081802400000000 Ge
   0.9066574900000000    0.2500000000000000    0.4081802400000000 Ge
   0.4066574900000000    0.2500000000000000    0.0918197600000000 Ge
   0.0933425100000000    0.7500000000000000    0.5918197600000000 Ge
   0.4412219600000000    0.7500000000000000    0.7690603499999999 S
   0.0587780400000000    0.2500000000000000    0.2690603500000000 S
   0.5587780400000000    0.2500000000000000    0.2309396500000000 S
   0.9412219600000000    0.7500000000000000    0.7309396500000001 S
   0.5928913099999999    0.7500000000000000    0.2601983700000000 S
   0.9071086900000001    0.2500000000000000    0.7601983700000000 S
   0.4071086900000000    0.2500000000000000    0.7398016300000000 S
   0.0928913100000000    0.7500000000000000    0.2398016300000000 S
   0.6696628900000000    0.9644768200000000    0.7575754300000000 S
   0.8303371100000000    0.0355231800000000    0.2575754300000000 S
   0.3303371100000000    0.4644768200000000    0.2424245700000000 S
   0.1696628900000000    0.5355231800000000    0.7424245700000000 S
   0.3303371100000000    0.0355231800000000    0.2424245700000000 S
   0.1696628900000000    0.9644768200000000    0.7424245700000000 S
   0.6696628900000000    0.5355231800000000    0.7575754300000000 S
   0.8303371100000000    0.4644768200000000    0.2575754300000000 S
