Rb4 B12 O20
1.0
   4.9268184200000000   -4.4434234799999999   -0.0281863300000000
   4.9268184200000000    4.4434234799999999   -0.0281863300000000
  -2.1541876200000001    0.0000000000000000    8.9482375100000002
Rb B O
4 12 20
direct
   0.5764420700000000    0.2642849400000000    0.5529618700000000 Rb
   0.7357150600000000    0.4235579300000000    0.9470381300000000 Rb
   0.4235579300000000    0.7357150600000000    0.4470381300000000 Rb
   0.2642849400000000    0.5764420700000000    0.0529618700000000 Rb
   0.7902143300000000    0.8042900500000000    0.7644452000000000 B
   0.1957099500000000    0.2097856700000000    0.7355548000000000 B
   0.2097856700000000    0.1957099500000000    0.2355548000000000 B
   0.8042900500000000    0.7902143300000000    0.2644452000000000 B
   0.4295733000000000    0.9297343200000000    0.8205973600000001 B
   0.0702656800000000    0.5704267000000000    0.6794026399999999 B
   0.5704267000000000    0.0702656800000000    0.1794026400000000 B
   0.9297343200000000    0.4295733000000000    0.3205973600000000 B
   0.1125815600000000    0.0350201300000000    0.9326254300000000 B
   0.9649798700000000    0.8874184400000000    0.5673745700000000 B
   0.8874184400000000    0.9649798700000000    0.0673745700000000 B
   0.0350201300000000    0.1125815600000000    0.4326254300000000 B
   0.9097624200000000    0.9268760200000000    0.9027341800000001 O
   0.0731239800000000    0.0902375800000000    0.5972658199999999 O
   0.0902375800000000    0.0731239800000000    0.0972658200000000 O
   0.9268760200000000    0.9097624200000000    0.4027341800000000 O
   0.7865905200000000    0.9021862600000000    0.6350352100000000 O
   0.0978137400000000    0.2134094800000000    0.8649647900000000 O
   0.2134094800000000    0.0978137400000000    0.3649647900000000 O
   0.9021862600000000    0.7865905200000000    0.1350352100000000 O
   0.4044511300000000    0.1040657200000000    0.7558277100000000 O
   0.8959342800000000    0.5955488700000000    0.7441722900000000 O
   0.5955488700000000    0.8959342800000000    0.2441722900000000 O
   0.1040657200000000    0.4044511300000000    0.2558277100000000 O
   0.5887179700000000    0.7834098700000000    0.7999802499999999 O
   0.2165901300000000    0.4112820300000000    0.7000197500000001 O
   0.4112820300000000    0.2165901300000000    0.2000197500000000 O
   0.7834098700000000    0.5887179700000000    0.2999802500000000 O
   0.2877080100000000    0.8931871700000000    0.9045832200000000 O
   0.1068128300000000    0.7122919900000000    0.5954167800000000 O
   0.7122919900000000    0.1068128300000000    0.0954167800000000 O
   0.8931871700000000    0.2877080100000000    0.4045832200000000 O
