Sc4 Se6 O18
1.0
   8.1530808399999994   -0.0000050300000000    0.0000000000000000
  -4.0765360599999996    7.0607774599999997    0.0000000000000000
   0.0000000000000000    0.0000000000000000    7.6189947399999998
Sc Se O
4 6 18
direct
   0.6666670000000000    0.3333330000000000    0.5461760400000000 Sc
   0.3333330000000000    0.6666670000000000    0.0461760400000000 Sc
   0.3333330000000000    0.6666670000000000    0.4538239600000000 Sc
   0.6666670000000000    0.3333330000000000    0.9538239600000000 Sc
   0.3002977300000000    0.0309653300000000    0.2500000000000000 Se
   0.0309653300000000    0.7306675900000000    0.7500000000000000 Se
   0.7306675900000000    0.6997022700000000    0.2500000000000000 Se
   0.2693324100000000    0.3002977300000000    0.7500000000000000 Se
   0.6997022700000000    0.9690346700000000    0.7500000000000000 Se
   0.9690346700000000    0.2693324100000000    0.2500000000000000 Se
   0.1705676100000000    0.7537461000000000    0.9245339600000000 O
   0.4168215100000000    0.1705676100000000    0.4245339600000000 O
   0.7537461000000000    0.5831784900000000    0.4245339600000000 O
   0.2462539000000000    0.4168215100000000    0.9245339600000000 O
   0.5831784900000000    0.8294323900000000    0.9245339600000000 O
   0.8294323900000000    0.2462539000000000    0.4245339600000000 O
   0.8294323900000000    0.2462539000000000    0.0754660400000000 O
   0.5831784900000000    0.8294323900000000    0.5754660400000000 O
   0.2462539000000000    0.4168215100000000    0.5754660400000000 O
   0.7537461000000000    0.5831784900000000    0.0754660400000000 O
   0.5130055400000000    0.3858787400000000    0.7500000000000000 O
   0.1271268000000000    0.5130055400000000    0.2500000000000000 O
   0.3858787400000000    0.8728732000000000    0.2500000000000000 O
   0.6141212600000000    0.1271268000000000    0.7500000000000000 O
   0.8728732000000000    0.4869944600000000    0.7500000000000000 O
   0.4869944600000000    0.6141212600000000    0.2500000000000000 O
   0.1705676100000000    0.7537461000000000    0.5754660400000000 O
   0.4168215100000000    0.1705676100000000    0.0754660400000000 O
