Nb8 Zn4 O24
1.0
  14.1863845800000004    0.0000000000000000    0.0000000000000000
   0.0000000000000000    5.7159942299999997    0.0000000000000000
   0.0000000000000000    0.0000000000000000    5.0677434600000000
Nb Zn O
8 4 24
direct
   0.3414518000000000    0.6798786500000000    0.7486152100000000 Nb
   0.1585482000000000    0.8201213500000000    0.2486152100000000 Nb
   0.6585482000000000    0.6798786500000000    0.7513847900000000 Nb
   0.8414518000000000    0.8201213500000000    0.2513847900000000 Nb
   0.1585482000000000    0.1798786500000000    0.7486152100000000 Nb
   0.3414518000000000    0.3201213500000000    0.2486152100000000 Nb
   0.8414518000000000    0.1798786500000000    0.7513847900000000 Nb
   0.6585482000000000    0.3201213500000000    0.2513847900000000 Nb
   0.0000000000000000    0.6600965100000000    0.7500000000000000 Zn
   0.5000000000000000    0.8399034900000000    0.2500000000000000 Zn
   0.0000000000000000    0.3399034900000000    0.2500000000000000 Zn
   0.5000000000000000    0.1600965100000000    0.7500000000000000 Zn
   0.2564801400000000    0.3810160300000000    0.9209062600000000 O
   0.2435198600000000    0.1189839700000000    0.4209062600000000 O
   0.7435198600000000    0.3810160300000000    0.5790937400000000 O
   0.7564801400000000    0.1189839700000000    0.0790937400000000 O
   0.7435198600000000    0.6189839700000000    0.0790937400000000 O
   0.7564801400000000    0.8810160300000000    0.5790937400000000 O
   0.2564801400000000    0.6189839700000000    0.4209062600000000 O
   0.2435198600000000    0.8810160300000000    0.9209062600000000 O
   0.9223090600000000    0.3864278100000000    0.9180733599999999 O
   0.5776909400000000    0.1135721900000000    0.4180733600000000 O
   0.0776909400000000    0.3864278100000000    0.5819266400000001 O
   0.4223090600000000    0.1135721900000000    0.0819266400000000 O
   0.9070806500000000    0.8906743800000000    0.9196791600000001 O
   0.5929193500000000    0.6093256200000000    0.4196791600000000 O
   0.0929193500000000    0.8906743800000000    0.5803208399999999 O
   0.4070806500000000    0.6093256200000000    0.0803208400000000 O
   0.0929193500000000    0.1093256200000000    0.0803208400000000 O
   0.4070806500000000    0.3906743800000000    0.5803208399999999 O
   0.9070806500000000    0.1093256200000000    0.4196791600000000 O
   0.5929193500000000    0.3906743800000000    0.9196791600000001 O
   0.5776909400000000    0.8864278100000000    0.9180733599999999 O
   0.9223090600000000    0.6135721900000000    0.4180733600000000 O
   0.4223090600000000    0.8864278100000000    0.5819266400000001 O
   0.0776909400000000    0.6135721900000000    0.0819266400000000 O
