Ca4 Y4 B4 O16
1.0
  10.3858805000000007    0.0000000000000000    0.0000000000000000
   0.0000000000000000    3.5581317299999999    0.0000000000000000
   0.0000000000000000    0.0000000000000000    9.5775080300000006
Ca Y B O
4 4 4 16
direct
   0.0834485800000000    0.2500000000000000    0.6711123200000000 Ca
   0.9165514200000000    0.7500000000000000    0.3288876800000000 Ca
   0.4165514200000000    0.7500000000000000    0.1711123200000000 Ca
   0.5834485800000000    0.2500000000000000    0.8288876800000000 Ca
   0.1125179300000000    0.2500000000000000    0.0879228600000000 Y
   0.8874820700000000    0.7500000000000000    0.9120771400000000 Y
   0.3874820700000000    0.7500000000000000    0.5879228600000000 Y
   0.6125179300000000    0.2500000000000000    0.4120771400000000 Y
   0.1999368800000000    0.2500000000000000    0.3681015200000000 B
   0.8000631200000000    0.7500000000000000    0.6318984800000000 B
   0.3000631200000000    0.7500000000000000    0.8681015200000000 B
   0.6999368800000000    0.2500000000000000    0.1318984800000000 B
   0.2509447500000000    0.2500000000000000    0.5015273700000000 O
   0.7490552500000000    0.7500000000000000    0.4984726300000000 O
   0.2490552500000000    0.7500000000000000    0.0015273700000000 O
   0.7509447500000000    0.2500000000000000    0.9984726300000000 O
   0.2773871100000000    0.2500000000000000    0.2493734200000000 O
   0.7226128900000000    0.7500000000000000    0.7506265800000000 O
   0.2226128900000000    0.7500000000000000    0.7493734200000000 O
   0.7773871100000000    0.2500000000000000    0.2506265800000000 O
   0.0666615800000000    0.2500000000000000    0.3491235300000000 O
   0.9333384200000000    0.7500000000000000    0.6508764700000000 O
   0.4333384200000000    0.7500000000000000    0.8491235300000000 O
   0.5666615800000000    0.2500000000000000    0.1508764700000000 O
   0.5070510300000000    0.2500000000000000    0.6137955400000000 O
   0.4929489700000000    0.7500000000000000    0.3862044600000000 O
   0.9929489700000000    0.7500000000000000    0.1137955400000000 O
   0.0070510300000000    0.2500000000000000    0.8862044600000000 O
