Na1 Li1 Cd1 S2
1.0
   4.0898099900000000    0.0000000100000000    0.0000000000000000
  -2.0449054900000001    3.5418796800000001    0.0000000000000000
   0.0000000000000000    0.0000000000000000    6.8609697000000001
Na Li Cd S
1 1 1 2
direct
   0.3333330000000000    0.6666670000000000    0.9738198600000000 Na
   0.6666670000000000    0.3333330000000000    0.6643452700000000 Li
   0.0000000000000000    0.0000000000000000    0.3797737600000000 Cd
   0.6666670000000000    0.3333330000000000    0.2391205000000000 S
   0.0000000000000000    0.0000000000000000    0.7429416100000000 S
