Cu6 Si3 Pb3 S12
1.0
   5.9914329200000003   -0.0000000100000000    0.0000000000000000
  -2.9957159700000000    5.1887330399999998    0.0000000000000000
   0.0000000000000000    0.0000000000000000   14.9727870299999992
Cu Si Pb S
6 3 3 12
direct
   0.4299413300000000    0.3406487200000000    0.2438441200000000 Cu
   0.3406487200000000    0.4299413300000000    0.7561558800000000 Cu
   0.5700586700000000    0.9107083800000000    0.4228218800000000 Cu
   0.9107083800000000    0.5700586700000000    0.5771781200000000 Cu
   0.6593512800000000    0.0892916200000000    0.9105111200000000 Cu
   0.0892916200000000    0.6593512800000000    0.0894888800000000 Cu
   0.7220314799999999    0.0000000000000000    0.1666670000000000 Si
   0.0000000000000000    0.7220314799999999    0.8333330000000000 Si
   0.2779685200000000    0.2779685200000000    0.5000000000000000 Si
   0.5300017100000000    0.0000000000000000    0.6666670000000000 Pb
   0.0000000000000000    0.5300017100000000    0.3333330000000000 Pb
   0.4699982900000000    0.4699982900000000    0.0000000000000000 Pb
   0.4916278400000000    0.9737701500000000    0.0543401600000000 S
   0.3291588500000000    0.1008164000000000    0.8354803600000000 S
   0.0262298500000000    0.5178576900000000    0.7210071600000000 S
   0.5178576900000000    0.0262298500000000    0.2789928400000000 S
   0.1008164000000000    0.3291588500000000    0.1645196400000000 S
   0.7716575500000000    0.6708411500000000    0.1688133600000000 S
   0.6708411500000000    0.7716575500000000    0.8311866400000000 S
   0.8991836000000000    0.2283424500000000    0.5021473600000000 S
   0.4821423100000000    0.5083721600000000    0.3876741600000000 S
   0.2283424500000000    0.8991836000000000    0.4978526400000000 S
   0.9737701500000000    0.4916278400000000    0.9456598400000000 S
   0.5083721600000000    0.4821423100000000    0.6123258400000000 S
