Mg2 Ta4 O12
1.0
   4.7318602700000003    0.0000000000000000    0.0000000000000000
   0.0000000000000000    4.7318602700000003    0.0000000000000000
   0.0000000000000000    0.0000000000000000    9.2388436400000007
Mg Ta O
2 4 12
direct
   0.0000000000000000    0.0000000000000000    0.0000000000000000 Mg
   0.5000000000000000    0.5000000000000000    0.5000000000000000 Mg
   0.5000000000000000    0.5000000000000000    0.8322365200000000 Ta
   0.0000000000000000    0.0000000000000000    0.3322365200000000 Ta
   0.5000000000000000    0.5000000000000000    0.1677634800000000 Ta
   0.0000000000000000    0.0000000000000000    0.6677634800000000 Ta
   0.7014103300000000    0.7014103300000000    0.6744082000000000 O
   0.2985896700000000    0.2985896700000000    0.6744082000000000 O
   0.7014103300000000    0.7014103300000000    0.3255918000000000 O
   0.2014103300000000    0.7985896700000000    0.1744082000000000 O
   0.7985896700000000    0.2014103300000000    0.1744082000000000 O
   0.7985896700000000    0.2014103300000000    0.8255918000000000 O
   0.3097474900000000    0.3097474900000000    0.0000000000000000 O
   0.1902525100000000    0.8097474900000000    0.5000000000000000 O
   0.8097474900000000    0.1902525100000000    0.5000000000000000 O
   0.6902525100000000    0.6902525100000000    0.0000000000000000 O
   0.2985896700000000    0.2985896700000000    0.3255918000000000 O
   0.2014103300000000    0.7985896700000000    0.8255918000000000 O
