Ba2 Te2 O6
1.0
   4.5335656599999998    0.0000000000000000    0.0268087800000000
   0.0000000000000000    5.9813808000000002    0.0000000000000000
  -2.0019397799999998    0.0000000000000000    6.7789172300000002
Ba Te O
2 2 6
direct
   0.6635942900000000    0.2500000000000000    0.3141559600000000 Ba
   0.3364057100000000    0.7500000000000000    0.6858440400000000 Ba
   0.9276224700000000    0.2500000000000000    0.8567401500000000 Te
   0.0723775300000000    0.7500000000000000    0.1432598500000000 Te
   0.1764292100000000    0.5129810200000000    0.3253345600000000 O
   0.8235707900000000    0.0129810200000000    0.6746654399999999 O
   0.8235707900000000    0.4870189800000000    0.6746654399999999 O
   0.1764292100000000    0.9870189800000000    0.3253345600000000 O
   0.6407806900000000    0.7500000000000000    0.1051809200000000 O
   0.3592193100000000    0.2500000000000000    0.8948190800000000 O
