Mg2 Sn2 O6
1.0
   2.6398380299999999    1.5241112299999999    4.7025042499999996
  -2.6398380399999999    1.5241112200000000    4.7025042499999996
   0.0000000000000000   -3.0482224499999999    4.7025042499999996
Mg Sn O
2 2 6
direct
   0.6432702400000000    0.6432702400000000    0.6432702400000000 Mg
   0.3567297600000000    0.3567297600000000    0.3567297600000000 Mg
   0.8526206300000000    0.8526206300000000    0.8526206300000000 Sn
   0.1473793700000000    0.1473793700000000    0.1473793700000000 Sn
   0.2446835300000000    0.5510949400000000    0.9521049300000000 O
   0.9521049300000000    0.2446835300000000    0.5510949400000000 O
   0.4489050600000000    0.0478950700000000    0.7553164700000000 O
   0.5510949400000000    0.9521049300000000    0.2446835300000000 O
   0.0478950700000000    0.7553164700000000    0.4489050600000000 O
   0.7553164700000000    0.4489050600000000    0.0478950700000000 O
