Ba2 Mg1 Mo1 O6
1.0
   0.0000000000000000    4.0475597299999997    4.0475597299999997
   4.0475597299999997    0.0000000000000000    4.0475597299999997
   4.0475597299999997    4.0475597299999997    0.0000000000000000
Ba Mg Mo O
2 1 1 6
direct
   0.2500000000000000    0.2500000000000000    0.2500000000000000 Ba
   0.7500000000000000    0.7500000000000000    0.7500000000000000 Ba
   0.5000000000000000    0.5000000000000000    0.5000000000000000 Mg
   0.0000000000000000    0.0000000000000000    0.0000000000000000 Mo
   0.7600968900000000    0.2399031100000000    0.2399031100000000 O
   0.2399031100000000    0.7600968900000000    0.7600968900000000 O
   0.2399031100000000    0.7600968900000000    0.2399031100000000 O
   0.7600968900000000    0.2399031100000000    0.7600968900000000 O
   0.2399031100000000    0.2399031100000000    0.7600968900000000 O
   0.7600968900000000    0.7600968900000000    0.2399031100000000 O
