Cs2 Hg3 Ge2 S8
1.0
   6.5895920200000004   -0.0498993300000000    0.0231823700000000
  -2.3561639400000001    7.4227511100000001   -0.0196497300000000
  -0.3199725300000000   -3.0324822999999999    8.4935827499999998
Cs Hg Ge S
2 3 2 8
direct
   0.6101581500000000    0.4578831800000000    0.2458897600000000 Cs
   0.3898418500000000    0.5421168200000001    0.7541102400000000 Cs
   0.8094617600000000    0.0686333500000000    0.3865780100000000 Hg
   0.1905382400000000    0.9313666500000000    0.6134219900000000 Hg
   0.0000000000000000    0.0000000000000000    0.0000000000000000 Hg
   0.2369847500000000    0.8333767100000000    0.2342352900000000 Ge
   0.7630152500000000    0.1666232900000000    0.7657647100000000 Ge
   0.4415456600000000    0.1419477100000000    0.8484447300000000 S
   0.5584543400000000    0.8580522900000001    0.1515552700000000 S
   0.1665799000000000    0.6455380700000000    0.3820759000000000 S
   0.8334201000000000    0.3544619300000000    0.6179241000000000 S
   0.9975033800000001    0.2989769500000000    0.9913020600000000 S
   0.0024966200000000    0.7010230500000000    0.0086979400000000 S
   0.2160380300000000    0.1193983300000000    0.3715151100000000 S
   0.7839619700000000    0.8806016700000000    0.6284848900000000 S
