Ca4 Bi6 O13
1.0
   7.1758989499999997    0.0000000000000000    0.0000000000000000
   0.0000000000000000    8.6400052800000005    2.9591038200000002
   0.0000000000000000   -8.6400052800000005    2.9591038200000002
Ca Bi O
4 6 13
direct
   0.7525797200000000    0.7834317000000000    0.3523751300000000 Ca
   0.2474202800000000    0.3523751300000000    0.7834317000000000 Ca
   0.2474202800000000    0.7834317000000000    0.3523751300000000 Ca
   0.7525797200000000    0.3523751300000000    0.7834317000000000 Ca
   0.5000000000000000    0.8974703200000000    0.1202097800000000 Bi
   0.5000000000000000    0.1202097800000000    0.8974703200000000 Bi
   0.0000000000000000    0.1213595300000000    0.9019034800000000 Bi
   0.0000000000000000    0.9019034800000000    0.1213595300000000 Bi
   0.7281273600000000    0.4875899300000000    0.4875899300000000 Bi
   0.2718726400000000    0.4875899300000000    0.4875899300000000 Bi
   0.0000000000000000    0.0754354600000000    0.6353096200000000 O
   0.0000000000000000    0.6353096200000000    0.0754354600000000 O
   0.5000000000000000    0.6370956300000000    0.0784531800000000 O
   0.5000000000000000    0.0784531800000000    0.6370956300000000 O
   0.7509949600000000    0.3668204300000000    0.0657672800000000 O
   0.2490050400000000    0.0657672800000000    0.3668204300000000 O
   0.2490050400000000    0.3668204300000000    0.0657672800000000 O
   0.7509949600000000    0.0657672800000000    0.3668204300000000 O
   0.7424850900000000    0.8166585200000001    0.6367690000000000 O
   0.2575149100000000    0.6367690000000000    0.8166585200000001 O
   0.2575149100000000    0.8166585200000001    0.6367690000000000 O
   0.7424850900000000    0.6367690000000000    0.8166585200000001 O
   0.0000000000000000    0.3641910200000000    0.3641910200000000 O
