Sc2 Al2 C2 O2
1.0
   3.2296549099999998    0.0000000000000000    0.0000000000000000
  -1.6148274600000001    2.7969635899999998    0.0000000000000000
   0.0000000000000000    0.0000000000000000   10.1329551599999999
Sc Al C O
2 2 2 2
direct
   0.3333330000000000    0.6666670000000000    0.3037532100000000 Sc
   0.6666670000000000    0.3333330000000000    0.8037532100000000 Sc
   0.0000000000000000    0.0000000000000000    0.0203818300000000 Al
   0.0000000000000000    0.0000000000000000    0.5203818300000000 Al
   0.6666670000000000    0.3333330000000000    0.4408378100000000 C
   0.3333330000000000    0.6666670000000000    0.9408378100000000 C
   0.0000000000000000    0.0000000000000000    0.1983461500000000 O
   0.0000000000000000    0.0000000000000000    0.6983461500000000 O
