Sr8 Ge8 Se20
1.0
   8.4351254999999998    0.0000000000000000    0.0123713400000000
   0.0000000000000000   12.2156686800000003    0.0000000000000000
  -7.7920235699999996    0.0000000000000000    9.0424766699999992
Sr Ge Se
8 8 20
direct
   0.4577395900000000    0.1947934400000000    0.5190896100000000 Sr
   0.5422604100000000    0.6947934400000000    0.9809103900000000 Sr
   0.5422604100000000    0.8052065600000000    0.4809103900000000 Sr
   0.4577395900000000    0.3052065600000000    0.0190896100000000 Sr
   0.9833955500000000    0.3367076100000000    0.5261084100000000 Sr
   0.0166044500000000    0.8367076100000000    0.9738915900000000 Sr
   0.0166044500000000    0.6632923900000000    0.4738915900000000 Sr
   0.9833955500000000    0.1632923900000000    0.0261084100000000 Sr
   0.4859636400000000    0.9786538100000000    0.1835438600000000 Ge
   0.5140363600000000    0.0213461900000000    0.8164561400000000 Ge
   0.4859636400000000    0.5213461900000000    0.6835438600000000 Ge
   0.5140363600000000    0.4786538100000000    0.3164561400000000 Ge
   0.8434546100000000    0.4517186600000000    0.8296584000000000 Ge
   0.1565453900000000    0.9517186600000000    0.6703416000000000 Ge
   0.1565453900000000    0.5482813400000000    0.1703416000000000 Ge
   0.8434546100000000    0.0482813400000000    0.3296584000000000 Ge
   0.8909016900000000    0.4097004900000000    0.0546401700000000 Se
   0.1090983100000000    0.9097004900000000    0.4453598300000000 Se
   0.1090983100000000    0.5902995100000000    0.9453598300000000 Se
   0.8909016900000000    0.0902995100000000    0.5546401700000000 Se
   0.9353056000000000    0.2085866300000000    0.2735143600000000 Se
   0.9353056000000000    0.2914133700000000    0.7735143600000000 Se
   0.0646944000000000    0.7085866300000000    0.2264856400000000 Se
   0.0646944000000000    0.7914133700000000    0.7264856400000000 Se
   0.2481939800000000    0.4422181200000000    0.4479363800000000 Se
   0.7518060200000000    0.9422181200000000    0.0520636200000000 Se
   0.7518060200000000    0.5577818800000000    0.5520636200000000 Se
   0.2481939800000000    0.0577818800000000    0.9479363800000000 Se
   0.6849094200000000    0.5066858400000001    0.2197287000000000 Se
   0.3150905800000000    0.0066858400000000    0.2802713000000000 Se
   0.3150905800000000    0.4933141600000000    0.7802713000000000 Se
   0.6849094200000000    0.9933141599999999    0.7197287000000000 Se
   0.4775570900000000    0.2170481600000000    0.7910951600000000 Se
   0.5224429100000000    0.7170481600000000    0.7089048400000000 Se
   0.5224429100000000    0.7829518400000000    0.2089048400000000 Se
   0.4775570900000000    0.2829518400000000    0.2910951600000000 Se
