Cs6 Na2 Li4 B4 O12
1.0
   6.6660507800000000   -0.0009628400000000    0.0074508800000000
  -1.7384618999999999    7.0573493200000001    0.0009646700000000
  -2.0138645899999998   -1.7011462200000000    9.8543499899999993
Cs Na Li B O
6 2 4 4 12
direct
   0.6451799700000000    0.2665671300000000    0.9233652300000000 Cs
   0.8197520000000000    0.6966196600000000    0.5158518800000000 Cs
   0.3548200300000000    0.7334328700000000    0.0766347700000000 Cs
   0.1802480000000000    0.3033803400000000    0.4841481200000000 Cs
   0.7820336900000000    0.7705596700000000    0.8671492100000000 Cs
   0.2179663100000000    0.2294403300000000    0.1328507900000000 Cs
   0.3284715400000000    0.8259653200000000    0.4177027200000000 Na
   0.6715284600000000    0.1740346800000000    0.5822972800000000 Na
   0.1992444400000000    0.0862916200000000    0.7638955200000001 Li
   0.2258563200000000    0.5961182900000001    0.7593643200000000 Li
   0.7741436800000000    0.4038817100000000    0.2406356800000000 Li
   0.8007555600000000    0.9137083800000000    0.2361044800000000 Li
   0.3517240500000000    0.8674592000000000    0.6858878500000000 B
   0.0276623700000000    0.3104487800000000    0.7799666300000000 B
   0.6482759500000000    0.1325408000000000    0.3141121500000000 B
   0.9723376300000000    0.6895512200000000    0.2200333700000000 B
   0.2457218000000000    0.3665642000000000    0.8407334300000000 O
   0.3092627700000000    0.8736894900000000    0.8164897100000000 O
   0.0792858400000000    0.8838615600000000    0.2415487100000000 O
   0.6907372300000000    0.1263105100000000    0.1835102900000000 O
   0.3468079400000000    0.0257413900000000    0.6225904000000000 O
   0.3811519500000000    0.6990550200000000    0.6243568100000000 O
   0.7542782000000000    0.6334358000000000    0.1592665700000000 O
   0.6531920600000000    0.9742586100000000    0.3774096000000000 O
   0.9282680600000000    0.4468923500000000    0.7353035100000000 O
   0.9207141599999999    0.1161384400000000    0.7584512900000000 O
   0.6188480500000000    0.3009449800000000    0.3756431900000000 O
   0.0717319400000000    0.5531076500000000    0.2646964900000000 O
