Al5 Cu1 Se8
1.0
   0.0000000000000000    5.2520376200000003    5.2520376200000003
   5.2520376200000003    0.0000000000000000    5.2520376200000003
   5.2520376200000003    5.2520376200000003    0.0000000000000000
Al Cu Se
5 1 8
direct
   0.7500000000000000    0.7500000000000000    0.7500000000000000 Al
   0.3677539600000000    0.3677539600000000    0.3677539600000000 Al
   0.3677539600000000    0.8967381300000000    0.3677539600000000 Al
   0.8967381300000000    0.3677539600000000    0.3677539600000000 Al
   0.3677539600000000    0.3677539600000000    0.8967381300000000 Al
   0.0000000000000000    0.0000000000000000    0.0000000000000000 Cu
   0.6158811500000000    0.6158811500000000    0.1523555500000000 Se
   0.1523555500000000    0.6158811500000000    0.6158811500000000 Se
   0.6158811500000000    0.1523555500000000    0.6158811500000000 Se
   0.6158811500000000    0.6158811500000000    0.6158811500000000 Se
   0.1304536100000000    0.1304536100000000    0.1304536100000000 Se
   0.1304536100000000    0.6086401600000000    0.1304536100000000 Se
   0.6086401600000000    0.1304536100000000    0.1304536100000000 Se
   0.1304536100000000    0.1304536100000000    0.6086401600000000 Se
