Cs1 Li1 W1 O4
1.0
  -2.9543665500000000    2.9543648500000002    4.0676736099999999
   2.9543665500000000   -2.9543648500000002    4.0676736099999999
   2.9543648500000002    2.9543665500000000   -4.0676736099999999
Cs Li W O
1 1 1 4
direct
   0.0000000000000000    0.0000000000000000    0.0000000000000000 Cs
   0.7500000000000000    0.2500000000000000    0.5000000000000000 Li
   0.5000000000000000    0.5000000000000000    0.0000000000000000 W
   0.6078159400000001    0.4514096600000000    0.3126443700000000 O
   0.1387653000000000    0.2951715800000000    0.6873556300000000 O
   0.5485903400000000    0.8612347000000000    0.1564062800000000 O
   0.7048284200000000    0.3921840600000000    0.8435937200000000 O
