Cs2 Ag6 S4
1.0
   7.9334974500000000   -2.1124371399999999   -0.0065219000000000
   7.9334974500000000    2.1124371399999999   -0.0065219000000000
  -3.3896515699999998    0.0000000000000000    8.0896840700000006
Cs Ag S
2 6 4
direct
   0.8632006100000000    0.8632006100000000    0.9542594300000000 Cs
   0.1367993900000000    0.1367993900000000    0.0457405700000000 Cs
   0.3120634600000000    0.3120634600000000    0.5679217100000000 Ag
   0.9447127800000000    0.9447127800000000    0.6008938000000000 Ag
   0.5922475400000000    0.5922475400000000    0.6446023000000000 Ag
   0.4077524600000000    0.4077524600000000    0.3553977000000000 Ag
   0.0552872200000000    0.0552872200000000    0.3991062000000000 Ag
   0.6879365400000000    0.6879365400000000    0.4320782900000000 Ag
   0.4778386100000000    0.4778386100000000    0.7712989300000000 S
   0.5221613899999999    0.5221613899999999    0.2287010700000000 S
   0.8073650000000000    0.8073650000000000    0.3180257300000000 S
   0.1926350000000000    0.1926350000000000    0.6819742700000000 S
