Na8 Ti2 As4 O18
1.0
   7.8878170699999997   -3.6162585200000001   -0.0014953000000000
   7.8878170699999997    3.6162585200000001   -0.0014953000000000
  -0.0330563600000000    0.0000000000000000    7.7009983999999996
Na Ti As O
8 2 4 18
direct
   0.2555256200000000    0.7444743800000000    0.0000000000000000 Na
   0.6300114000000000    0.6300114000000000    0.7239564300000000 Na
   0.8921119600000000    0.8921119600000000    0.7689672900000000 Na
   0.1078880400000000    0.1078880400000000    0.2310327100000000 Na
   0.0000000000000000    0.5000000000000000    0.5000000000000000 Na
   0.7444743800000000    0.2555256200000000    0.0000000000000000 Na
   0.3699886000000000    0.3699886000000000    0.2760435700000000 Na
   0.5000000000000000    0.0000000000000000    0.5000000000000000 Na
   0.5000000000000000    0.0000000000000000    0.0000000000000000 Ti
   0.0000000000000000    0.5000000000000000    0.0000000000000000 Ti
   0.1293293400000000    0.1293293400000000    0.7187313300000000 As
   0.3901930900000000    0.3901930900000000    0.7593854500000000 As
   0.8706706600000000    0.8706706600000000    0.2812686700000000 As
   0.6098069100000000    0.6098069100000000    0.2406145500000000 As
   0.1622925600000000    0.5577067500000000    0.8740902300000000 O
   0.5036275500000000    0.5036275500000000    0.2169796800000000 O
   0.8377074400000000    0.4422932500000000    0.1259097700000000 O
   0.1404607500000000    0.1404607500000000    0.5018113500000000 O
   0.9836422300000000    0.3835874100000000    0.7817322700000000 O
   0.3835874100000000    0.9836422300000000    0.7817322700000000 O
   0.4422932500000000    0.8377074400000000    0.1259097700000000 O
   0.9655488900000000    0.9655488900000000    0.1805332600000000 O
   0.5577067500000000    0.1622925600000000    0.8740902300000000 O
   0.2404318900000000    0.2404318900000000    0.0762717000000000 O
   0.6164125900000000    0.0163577700000000    0.2182677300000000 O
   0.7595681100000000    0.7595681100000000    0.9237282999999999 O
   0.8595392500000000    0.8595392500000000    0.4981886500000000 O
   0.4963724500000000    0.4963724500000000    0.7830203200000000 O
   0.0163577700000000    0.6164125900000000    0.2182677300000000 O
   0.6569127700000000    0.6569127700000000    0.4375599500000000 O
   0.0344511100000000    0.0344511100000000    0.8194667400000000 O
   0.3430872300000000    0.3430872300000000    0.5624400500000000 O
