Li4 C2 O6
1.0
   4.1756896299999999   -2.4979023400000000    0.0195835700000000
   4.1756896299999999    2.4979023400000000    0.0195835700000000
  -2.5598693400000001    0.0000000000000000    5.5918048100000002
Li C O
4 2 6
direct
   0.2514809100000000    0.3552047200000000    0.6642455800000000 Li
   0.6447952800000000    0.7485190900000001    0.8357544200000000 Li
   0.7485190900000001    0.6447952800000000    0.3357544200000000 Li
   0.3552047200000000    0.2514809100000000    0.1642455800000000 Li
   0.0648165400000000    0.9351834600000000    0.2500000000000000 C
   0.9351834600000000    0.0648165400000000    0.7500000000000000 C
   0.3212932900000000    0.6787067100000000    0.2500000000000000 O
   0.6787067100000000    0.3212932900000000    0.7500000000000000 O
   0.7868463300000000    0.9187781100000000    0.1866425600000000 O
   0.0812218900000000    0.2131536700000000    0.3133574400000000 O
   0.2131536700000000    0.0812218900000000    0.8133574400000000 O
   0.9187781100000000    0.7868463300000000    0.6866425600000000 O
