Ba4 V4 Te4 O22
1.0
   7.4860538900000000    0.0000000000000000   -0.0026649800000000
   0.0000000000000000    7.6542710500000002    0.0000000000000000
  -0.6101570200000000    0.0000000000000000    9.5449626799999994
Ba V Te O
4 4 4 22
direct
   0.6331230000000000    0.7500000000000000    0.5739099300000000 Ba
   0.3668770000000000    0.2500000000000000    0.4260900700000000 Ba
   0.3735826500000000    0.7500000000000000    0.1417479700000000 Ba
   0.6264173500000000    0.2500000000000000    0.8582520300000001 Ba
   0.1806786800000000    0.2500000000000000    0.0134006000000000 V
   0.8193213200000000    0.7500000000000000    0.9865994000000000 V
   0.1086330700000000    0.7500000000000000    0.4205464500000000 V
   0.8913669300000000    0.2500000000000000    0.5794535500000000 V
   0.2068752800000000    0.5338726700000000    0.7599477800000000 Te
   0.7931247200000000    0.0338726700000000    0.2400522200000000 Te
   0.7931247200000000    0.4661273300000000    0.2400522200000000 Te
   0.2068752800000000    0.9661273300000000    0.7599477800000000 Te
   0.3019633200000000    0.7500000000000000    0.8531292600000000 O
   0.6980366800000000    0.2500000000000000    0.1468707400000000 O
   0.4186140800000000    0.4813624500000000    0.6775573600000000 O
   0.5813859200000000    0.9813624500000000    0.3224426400000000 O
   0.5813859200000000    0.5186375500000000    0.3224426400000000 O
   0.4186140800000000    0.0186375500000000    0.6775573600000000 O
   0.1543417800000000    0.7500000000000000    0.6085352900000000 O
   0.8456582200000000    0.2500000000000000    0.3914647100000000 O
   0.3046819500000000    0.4337834100000000    0.9512489700000000 O
   0.6953180500000000    0.9337834100000000    0.0487510300000000 O
   0.6953180500000000    0.5662165900000000    0.0487510300000000 O
   0.3046819500000000    0.0662165900000000    0.9512489700000000 O
   0.9817515200000000    0.2500000000000000    0.9256814200000000 O
   0.0182484800000000    0.7500000000000000    0.0743185800000000 O
   0.1627994900000000    0.2500000000000000    0.1859411500000000 O
   0.8372005100000000    0.7500000000000000    0.8140588500000000 O
   0.2033154000000000    0.5724664500000000    0.3534325000000000 O
   0.7966846000000000    0.0724664500000000    0.6465675000000000 O
   0.7966846000000000    0.4275335500000000    0.6465675000000000 O
   0.2033154000000000    0.9275335500000000    0.3534325000000000 O
   0.8791732300000000    0.7500000000000000    0.3740799700000000 O
   0.1208267700000000    0.2500000000000000    0.6259200300000000 O
