Cs2 Y2 Hg2 Se6
1.0
   2.1079472699999999   -7.9111529200000001    0.0000000000000000
   2.1079472699999999    7.9111529200000001    0.0000000000000000
   0.0000000000000000    0.0000000000000000   10.9129151800000006
Cs Y Hg Se
2 2 2 6
direct
   0.7459935800000000    0.2540064200000000    0.2500000000000000 Cs
   0.2540064200000000    0.7459935800000000    0.7500000000000000 Cs
   0.0000000000000000    0.0000000000000000    0.0000000000000000 Y
   0.0000000000000000    0.0000000000000000    0.5000000000000000 Y
   0.4550583200000000    0.5449416800000000    0.2500000000000000 Hg
   0.5449416800000000    0.4550583200000000    0.7500000000000000 Hg
   0.0631645800000000    0.9368354200000000    0.2500000000000000 Se
   0.9368354200000000    0.0631645800000000    0.7500000000000000 Se
   0.6215353000000000    0.3784647000000000    0.5399340600000000 Se
   0.6215353000000000    0.3784647000000000    0.9600659400000000 Se
   0.3784647000000000    0.6215353000000000    0.0399340600000000 Se
   0.3784647000000000    0.6215353000000000    0.4600659400000000 Se
