Sr2 La4 Se8
1.0
  -4.5117294899999996    4.5117294899999996    4.4994988600000001
   4.5117294899999996   -4.5117294899999996    4.4994988600000001
   4.5117294899999996    4.5117294899999996   -4.4994988600000001
Sr La Se
2 4 8
direct
   0.7500000000000000    0.2500000000000000    0.5000000000000000 Sr
   0.0000000000000000    0.0000000000000000    0.0000000000000000 Sr
   0.8750000000000000    0.7537098500000000    0.3787098500000000 La
   0.3750000000000000    0.4962901500000000    0.6212901500000000 La
   0.2462901500000000    0.6250000000000000    0.1212901500000000 La
   0.5037098500000000    0.1250000000000000    0.8787098500000000 La
   0.1310088800000000    0.7257262100000000    0.7491075300000000 Se
   0.7733813200000000    0.5242737900000000    0.9052826700000000 Se
   0.9766186800000000    0.3819013400000000    0.2508924700000000 Se
   0.1319013400000000    0.2266186800000000    0.7508924700000000 Se
   0.2742737900000000    0.0233813200000000    0.4052826700000000 Se
   0.6180986600000000    0.8689911200000000    0.5947173300000000 Se
   0.4757262100000000    0.3810088800000000    0.2491075300000000 Se
   0.6189911200000000    0.8680986600000000    0.0947173300000000 Se
