Ca1 V2 O6
1.0
   5.1413888600000002   -1.8275443400000000   -0.0001444500000000
   5.1413888600000002    1.8275443400000000   -0.0001444500000000
  -1.5758542300000000    0.0000000000000000    6.9712074199999998
Ca V O
1 2 6
direct
   0.0000000000000000    0.0000000000000000    0.0000000000000000 Ca
   0.2426050900000000    0.2426050900000000    0.6726390500000000 V
   0.7573949100000000    0.7573949100000000    0.3273609500000000 V
   0.7595617300000000    0.7595617300000000    0.6060601400000000 O
   0.2404382700000000    0.2404382700000000    0.3939398600000000 O
   0.3683908500000000    0.3683908500000000    0.8712480900000000 O
   0.1000593500000000    0.1000593500000000    0.7402273400000000 O
   0.6316091500000000    0.6316091500000000    0.1287519100000000 O
   0.8999406500000000    0.8999406500000000    0.2597726600000000 O
