Cs3 N3 O6
1.0
   5.8770857200000002    0.0000000200000000    0.0000000000000000
  -2.9385433299999999    5.0897058399999997    0.0000000000000000
   0.0000000000000000    0.0000000000000000    7.8629772400000002
Cs N O
3 3 6
direct
   1.0000000000000000    0.6978803700000000    0.6666670000000000 Cs
   0.6978803700000000    0.0000000000000000    0.3333330000000000 Cs
   0.3021196300000000    0.3021196300000000    0.0000000000000000 Cs
   0.6900811800000000    1.0000000000000000    0.8333330000000000 N
   0.0000000000000000    0.6900811800000000    0.1666670000000000 N
   0.3099188200000000    0.3099188200000000    0.5000000000000000 N
   0.8925962900000000    0.5206884400000000    0.0498665800000000 O
   0.4793115600000000    0.3719078500000000    0.3832005800000000 O
   0.6280921500000000    0.1074037100000000    0.7165335800000000 O
   0.3719078500000000    0.4793115600000000    0.6167994200000000 O
   0.5206884400000000    0.8925962900000000    0.9501334200000000 O
   0.1074037100000000    0.6280921500000000    0.2834664200000000 O
