Mo2 Pb2 O8
1.0
  -2.7085465100000001    2.7085466399999998    5.9679282999999996
   2.7085465100000001   -2.7085466399999998    5.9679282999999996
   2.7085466399999998    2.7085465100000001   -5.9679282999999996
Mo Pb O
2 2 8
direct
   0.2500000000000000    0.7500000000000000    0.5000000000000000 Mo
   0.5000000000000000    0.5000000000000000    0.0000000000000000 Mo
   0.7500000000000000    0.2500000000000000    0.5000000000000000 Pb
   0.0000000000000000    0.0000000000000000    0.0000000000000000 Pb
   0.5693063100000000    0.9775984200000000    0.8810148600000000 O
   0.0965835600000000    0.6882924400000000    0.1189851400000000 O
   0.4382924400000000    0.8193063100000000    0.0917088900000000 O
   0.7275984200000000    0.3465835600000000    0.9082911100000000 O
   0.1806936900000000    0.2724015800000000    0.6189851400000000 O
   0.6534164400000000    0.5617075600000000    0.3810148600000000 O
   0.3117075600000000    0.4306936900000000    0.4082911100000000 O
   0.0224015800000000    0.9034164400000000    0.5917088900000000 O
