Tl8 O6
1.0
   7.5434131899999999    0.0000000000000000    0.0111522000000000
   0.0000000000000000    3.4731246800000002    0.0000000000000000
  -3.5832784200000001    0.0000000000000000   10.2583756699999995
Tl O
8 6
direct
   0.4253071100000000    0.7500000000000000    0.6098979900000000 Tl
   0.5746928900000000    0.2500000000000000    0.3901020100000000 Tl
   0.0659048000000000    0.2500000000000000    0.3661250800000000 Tl
   0.9340952000000000    0.7500000000000000    0.6338749200000000 Tl
   0.3021891500000000    0.2500000000000000    0.8552652700000000 Tl
   0.6978108500000000    0.7500000000000000    0.1447347300000000 Tl
   0.7776058500000000    0.2500000000000000    0.8678883900000000 Tl
   0.2223941500000000    0.7500000000000000    0.1321116100000000 Tl
   0.2202207200000000    0.2500000000000000    0.5994280600000000 O
   0.7797792800000000    0.7500000000000000    0.4005719400000000 O
   0.4758210700000000    0.2500000000000000    0.1712357700000000 O
   0.5241789300000000    0.7500000000000000    0.8287642300000000 O
   0.6361024900000000    0.2500000000000000    0.6117526800000000 O
   0.3638975100000000    0.7500000000000000    0.3882473200000000 O
