Rb2 Ti4 P6 O24
1.0
   4.2080575700000002    2.4295231500000001    7.9070420400000003
  -4.2080575700000002    2.4295231500000001    7.9070420400000003
   0.0000000000000000   -4.8590463100000001    7.9070420400000003
Rb Ti P O
2 4 6 24
direct
   0.5000000000000000    0.5000000000000000    0.5000000000000000 Rb
   0.0000000000000000    0.0000000000000000    0.0000000000000000 Rb
   0.3489414000000000    0.3489414000000000    0.3489414000000000 Ti
   0.1510586000000000    0.1510586000000000    0.1510586000000000 Ti
   0.6510586000000000    0.6510586000000000    0.6510586000000000 Ti
   0.8489414000000000    0.8489414000000000    0.8489414000000000 Ti
   0.5302656300000000    0.2500000000000000    0.9697343700000000 P
   0.2500000000000000    0.9697343700000000    0.5302656300000000 P
   0.9697343700000000    0.5302656300000000    0.2500000000000000 P
   0.4697343700000000    0.7500000000000000    0.0302656300000000 P
   0.7500000000000000    0.0302656300000000    0.4697343700000000 P
   0.0302656300000000    0.4697343700000000    0.7500000000000000 P
   0.1521734200000000    0.5137254700000000    0.2366571000000000 O
   0.5137254700000000    0.2366571000000000    0.1521734200000000 O
   0.2366571000000000    0.1521734200000000    0.5137254700000000 O
   0.2633429000000000    0.9862745300000000    0.3478265800000000 O
   0.9862745300000000    0.3478265800000000    0.2633429000000000 O
   0.3478265800000000    0.2633429000000000    0.9862745300000000 O
   0.8478265800000000    0.4862745300000000    0.7633429000000000 O
   0.4862745300000000    0.7633429000000000    0.8478265800000000 O
   0.7633429000000000    0.8478265800000000    0.4862745300000000 O
   0.7366571000000000    0.0137254700000000    0.6521734200000000 O
   0.0137254700000000    0.6521734200000000    0.7366571000000000 O
   0.6521734200000000    0.7366571000000000    0.0137254700000000 O
   0.4305284600000000    0.5683619700000000    0.1986374400000000 O
   0.1986374400000000    0.4305284600000000    0.5683619700000000 O
   0.5683619700000000    0.1986374400000000    0.4305284600000000 O
   0.9316380300000000    0.0694715400000000    0.3013625600000000 O
   0.3013625600000000    0.9316380300000000    0.0694715400000000 O
   0.0694715400000000    0.3013625600000000    0.9316380300000000 O
   0.5694715400000000    0.4316380300000000    0.8013625599999999 O
   0.8013625599999999    0.5694715400000000    0.4316380300000000 O
   0.4316380300000000    0.8013625599999999    0.5694715400000000 O
   0.0683619700000000    0.9305284600000000    0.6986374400000001 O
   0.6986374400000001    0.0683619700000000    0.9305284600000000 O
   0.9305284600000000    0.6986374400000001    0.0683619700000000 O
