Cs2 N2 O6
1.0
   5.5539359299999997    0.0000000000000000    0.0000000000000000
   0.0000000000000000    6.1097239800000001    0.0000000000000000
   0.0000000000000000    0.0000000000000000    5.0645659500000004
Cs N O
2 2 6
direct
   0.5000000000000000    0.0000000000000000    0.5996673500000000 Cs
   0.0000000000000000    0.5000000000000000    0.4003326500000000 Cs
   0.0000000000000000    0.0000000000000000    0.0100620200000000 N
   0.5000000000000000    0.5000000000000000    0.9899379800000000 N
   0.5000000000000000    0.6791471000000000    0.1145581500000000 O
   0.0000000000000000    0.8208529000000000    0.8854418500000000 O
   0.5000000000000000    0.5000000000000000    0.7398299699999999 O
   0.0000000000000000    0.0000000000000000    0.2601700300000000 O
   0.5000000000000000    0.3208529000000000    0.1145581500000000 O
   0.0000000000000000    0.1791471000000000    0.8854418500000000 O
