Ba2 Zr1 O4
1.0
  -2.1018879199999998    2.1018879199999998    6.7293929800000001
   2.1018879199999998   -2.1018879199999998    6.7293929800000001
   2.1018879199999998    2.1018879199999998   -6.7293929800000001
Ba Zr O
2 1 4
direct
   0.6473211800000001    0.6473211800000001    0.0000000000000000 Ba
   0.3526788200000000    0.3526788200000000    0.0000000000000000 Ba
   0.0000000000000000    0.0000000000000000    0.0000000000000000 Zr
   0.5000000000000000    0.0000000000000000    0.5000000000000000 O
   0.0000000000000000    0.5000000000000000    0.5000000000000000 O
   0.8417522400000000    0.8417522400000000    0.0000000000000000 O
   0.1582477600000000    0.1582477600000000    0.0000000000000000 O
