Na4 Te1 Se1
1.0
   4.9269724799999999    0.0000000000000000    0.0000000000000000
   0.0000000000000000    4.9269724799999999    0.0000000000000000
   0.0000000000000000    0.0000000000000000    7.0278936900000000
Na Te Se
4 1 1
direct
   0.5000000000000000    0.0000000000000000    0.7626868600000000 Na
   0.0000000000000000    0.5000000000000000    0.2373131400000000 Na
   0.5000000000000000    0.0000000000000000    0.2373131400000000 Na
   0.0000000000000000    0.5000000000000000    0.7626868600000000 Na
   0.5000000000000000    0.5000000000000000    0.5000000000000000 Te
   0.0000000000000000    0.0000000000000000    0.0000000000000000 Se
