Cs8 Pb4 O8
1.0
   7.8120194600000001   -0.0017451200000000    0.0328902300000000
   3.8860148400000001    7.0526052100000003    0.0574254700000000
   3.6578724199999999   -0.8275959500000000   10.1886542999999996
Cs Pb O
8 4 8
direct
   0.2466714600000000    0.2551586700000000    0.4964673500000000 Cs
   0.0640469400000000    0.9419934800000000    0.1826071500000000 Cs
   0.9355608700000000    0.5507329100000000    0.8260658400000001 Cs
   0.9359530600000000    0.0580065200000000    0.8173928499999999 Cs
   0.6007789300000000    0.4335873500000000    0.1410956000000000 Cs
   0.0644391300000000    0.4492670900000000    0.1739341600000000 Cs
   0.3992210700000000    0.5664126500000000    0.8589044000000000 Cs
   0.7533285400000000    0.7448413300000000    0.5035326500000000 Cs
   0.5944372200000000    0.9425978000000000    0.1230549400000000 Pb
   0.3082321300000000    0.6975615900000000    0.4709381600000000 Pb
   0.6917678700000000    0.3024384100000000    0.5290618400000000 Pb
   0.4055627800000000    0.0574022000000000    0.8769450600000001 Pb
   0.4915874400000000    0.8138043600000000    0.0085857100000000 O
   0.7989110300000000    0.4148054100000000    0.6409657000000000 O
   0.9228619100000000    0.7894804800000000    0.0233838400000000 O
   0.5084125600000000    0.1861956400000000    0.9914142900000000 O
   0.0771380900000000    0.2105195200000000    0.9766161600000000 O
   0.2010889700000000    0.5851945900000000    0.3590343000000000 O
   0.6530585200000000    0.5143389000000000    0.3760277600000000 O
   0.3469414800000000    0.4856611000000000    0.6239722400000000 O
