Ba4 Si2 Se8
1.0
   6.8587840299999998    0.0000000000000000   -0.0616389300000000
   0.0000000000000000    6.9911445399999996    0.0000000000000000
  -2.9257645200000000    0.0000000000000000    8.6801168200000003
Ba Si Se
4 2 8
direct
   0.2907406300000000    0.7500000000000000    0.0793361900000000 Ba
   0.7092593699999999    0.2500000000000000    0.9206638100000000 Ba
   0.2112680800000000    0.7500000000000000    0.5431529700000000 Ba
   0.7887319200000000    0.2500000000000000    0.4568470300000000 Ba
   0.8006889600000000    0.7500000000000000    0.7140736700000000 Si
   0.1993110400000000    0.2500000000000000    0.2859263300000000 Si
   0.0131255400000000    0.0071186100000000    0.7761034000000000 Se
   0.9868744600000000    0.5071186100000000    0.2238966000000000 Se
   0.3551882000000000    0.2500000000000000    0.5484794000000000 Se
   0.6448118000000000    0.7500000000000000    0.4515206000000000 Se
   0.4088662500000000    0.2500000000000000    0.1375495800000000 Se
   0.5911337500000000    0.7500000000000000    0.8624504200000001 Se
   0.0131255400000000    0.4928813900000000    0.7761034000000000 Se
   0.9868744600000000    0.9928813900000000    0.2238966000000000 Se
