Cs2 Au2 S2
1.0
   3.4603545300000000   -4.1943146699999998    0.0000000000000000
   3.4603545300000000    4.1943146699999998    0.0000000000000000
   0.0000000000000000    0.0000000000000000    6.6399757900000003
Cs Au S
2 2 2
direct
   0.6263013800000000    0.3736986200000000    0.7500000000000000 Cs
   0.3736986200000000    0.6263013800000000    0.2500000000000000 Cs
   0.0000000000000000    0.0000000000000000    0.5000000000000000 Au
   0.0000000000000000    0.0000000000000000    0.0000000000000000 Au
   0.1899409700000000    0.8100590300000000    0.7500000000000000 S
   0.8100590300000000    0.1899409700000000    0.2500000000000000 S
