Li6 Au2 S4
1.0
  -2.8603955399999998    5.5878573999999999    3.1177731400000002
   2.8603955399999998   -5.5878573999999999    3.1177731400000002
   2.8603955399999998    5.5878573999999999   -3.1177731400000002
Li Au S
6 2 4
direct
   0.9762459100000001    0.7500000000000000    0.2262459100000000 Li
   0.5237540899999999    0.7500000000000000    0.7737540899999999 Li
   0.0237540900000000    0.2500000000000000    0.7737540899999999 Li
   0.4762459100000000    0.2500000000000000    0.2262459100000000 Li
   0.7500000000000000    0.2500000000000000    0.5000000000000000 Li
   0.2500000000000000    0.7500000000000000    0.5000000000000000 Li
   0.5000000000000000    0.5000000000000000    0.0000000000000000 Au
   0.0000000000000000    0.0000000000000000    0.0000000000000000 Au
   0.6410868199999999    0.2059737700000000    0.8470605900000000 S
   0.8589131800000001    0.7059737699999999    0.5648859500000000 S
   0.1410868200000000    0.2940262300000000    0.4351140500000000 S
   0.3589131800000000    0.7940262300000001    0.1529394100000000 S
