Tl4 Ag6 P6 O24
1.0
   6.3577602799999999   -6.5349361300000002    0.0083273400000000
   6.3577602799999999    6.5349361300000002    0.0083273400000000
  -2.8428427599999999    0.0000000000000000    6.1110318799999996
Tl Ag P O
4 6 6 24
direct
   0.6199346900000000    0.9278285300000000    0.8411473100000000 Tl
   0.0721714700000000    0.3800653100000000    0.6588526900000000 Tl
   0.3800653100000000    0.0721714700000000    0.1588526900000000 Tl
   0.9278285300000000    0.6199346900000000    0.3411473100000000 Tl
   0.2899006800000000    0.7100993200000000    0.2500000000000000 Ag
   0.7100993200000000    0.2899006800000000    0.7500000000000000 Ag
   0.5000000000000000    0.5000000000000000    0.5000000000000000 Ag
   0.5000000000000000    0.5000000000000000    0.0000000000000000 Ag
   0.0162176800000000    0.9837823200000000    0.7500000000000000 Ag
   0.9837823200000000    0.0162176800000000    0.2500000000000000 Ag
   0.2793899000000000    0.7206101000000000    0.7500000000000000 P
   0.7206101000000000    0.2793899000000000    0.2500000000000000 P
   0.1283741800000000    0.3341916700000000    0.1316778800000000 P
   0.6658083299999999    0.8716258200000000    0.3683221200000000 P
   0.8716258200000000    0.6658083299999999    0.8683221200000000 P
   0.3341916700000000    0.1283741800000000    0.6316778800000000 P
   0.4438179200000000    0.7328312000000000    0.7244864000000000 O
   0.2671688000000000    0.5561820800000000    0.7755136000000000 O
   0.5561820800000000    0.2671688000000000    0.2755136000000000 O
   0.7328312000000000    0.4438179200000000    0.2244864000000000 O
   0.2801285700000000    0.4269764500000000    0.1641932300000000 O
   0.5730235500000000    0.7198714300000000    0.3358067700000000 O
   0.7198714300000000    0.5730235500000000    0.8358067700000000 O
   0.4269764500000000    0.2801285700000000    0.6641932300000000 O
   0.2585146900000000    0.8361447200000000    0.9568648400000000 O
   0.1638552800000000    0.7414853100000000    0.5431351600000000 O
   0.7414853100000000    0.1638552800000000    0.0431351600000000 O
   0.8361447200000000    0.2585146900000000    0.4568648400000000 O
   0.6700351000000000    0.9997098700000000    0.5831264000000000 O
   0.0002901300000000    0.3299649000000000    0.9168736000000000 O
   0.3299649000000000    0.0002901300000000    0.4168736000000000 O
   0.9997098700000000    0.6700351000000000    0.0831264000000000 O
   0.8505787900000000    0.8396034600000000    0.8813342700000000 O
   0.1603965400000000    0.1494212100000000    0.6186657300000000 O
   0.1494212100000000    0.1603965400000000    0.1186657300000000 O
   0.8396034600000000    0.8505787900000000    0.3813342700000000 O
   0.0594611800000000    0.4016774700000000    0.3214802200000000 O
   0.5983225300000000    0.9405388200000000    0.1785197800000000 O
   0.9405388200000000    0.5983225300000000    0.6785197800000000 O
   0.4016774700000000    0.0594611800000000    0.8214802200000000 O
