Cs8 Ge8 S20
1.0
   7.9234066500000004   -7.9379141600000001    0.0823004900000000
   7.9234066500000004    7.9379141600000001    0.0823004900000000
  -2.4182019600000002    0.0000000000000000    9.1380323600000004
Cs Ge S
8 8 20
direct
   0.0550009200000000    0.2083468000000000    0.1303874400000000 Cs
   0.9449990800000000    0.7916531999999999    0.8696125600000000 Cs
   0.5204453200000000    0.7912353100000000    0.8673171400000000 Cs
   0.2087646900000000    0.4795546800000000    0.6326828600000000 Cs
   0.7916531999999999    0.9449990800000000    0.3696125600000000 Cs
   0.2083468000000000    0.0550009200000000    0.6303874400000000 Cs
   0.7912353100000000    0.5204453200000000    0.3673171400000000 Cs
   0.4795546800000000    0.2087646900000000    0.1326828600000000 Cs
   0.8617180200000000    0.2696657200000000    0.6177625800000000 Ge
   0.4706013200000000    0.7327594400000000    0.3943398200000000 Ge
   0.1382819800000000    0.7303342800000000    0.3822374200000000 Ge
   0.7303342800000000    0.1382819800000000    0.8822374200000000 Ge
   0.5293986800000000    0.2672405600000000    0.6056601800000000 Ge
   0.7327594400000000    0.4706013200000000    0.8943398200000000 Ge
   0.2672405600000000    0.5293986800000000    0.1056601800000000 Ge
   0.2696657200000000    0.8617180200000000    0.1177625800000000 Ge
   0.4540486500000000    0.8829189600000000    0.2585988800000000 S
   0.6413905400000000    0.7553676600000000    0.5383203400000000 S
   0.1182442900000000    0.8817557100000000    0.2500000000000000 S
   0.2446323400000000    0.3586094600000000    0.9616796600000000 S
   0.0069925500000000    0.7535111900000000    0.5237208800000001 S
   0.7543411400000000    0.3213167900000000    0.0304945500000000 S
   0.4514541200000000    0.5485458800000000    0.2500000000000000 S
   0.5485458800000000    0.4514541200000000    0.7500000000000000 S
   0.8829189600000000    0.4540486500000000    0.7585988800000000 S
   0.6786832100000000    0.2456588600000000    0.4695054500000000 S
   0.9930074500000000    0.2464888100000000    0.4762791200000000 S
   0.1170810400000000    0.5459513499999999    0.2414011200000000 S
   0.7535111900000000    0.0069925500000000    0.0237208800000000 S
   0.8817557100000000    0.1182442900000000    0.7500000000000000 S
   0.7553676600000000    0.6413905400000000    0.0383203400000000 S
   0.2464888100000000    0.9930074500000000    0.9762791199999999 S
   0.5459513499999999    0.1170810400000000    0.7414011200000000 S
   0.3586094600000000    0.2446323400000000    0.4616796600000000 S
   0.2456588600000000    0.6786832100000000    0.9695054500000000 S
   0.3213167900000000    0.7543411400000000    0.5304945500000000 S
