Cs4 Ba4 P4 S16
1.0
  11.6109265900000000    0.0000000000000000    0.0000000000000000
   0.0000000000000000    6.7690421100000000    0.0000000000000000
   0.0000000000000000    0.0000000000000000   10.0044498900000001
Cs Ba P S
4 4 4 16
direct
   0.9245890200000000    0.2500000000000000    0.8574409900000000 Cs
   0.4245890200000000    0.2500000000000000    0.6425590100000000 Cs
   0.0754109800000000    0.7500000000000000    0.1425590100000000 Cs
   0.5754109800000000    0.7500000000000000    0.3574409900000000 Cs
   0.8491467300000000    0.2500000000000000    0.4008149800000000 Ba
   0.3491467300000000    0.2500000000000000    0.0991850200000000 Ba
   0.1508532700000000    0.7500000000000000    0.5991850200000000 Ba
   0.6508532700000000    0.7500000000000000    0.9008149800000000 Ba
   0.6773462900000000    0.2500000000000000    0.1163165800000000 P
   0.1773462900000000    0.2500000000000000    0.3836834200000000 P
   0.3226537100000000    0.7500000000000000    0.8836834200000000 P
   0.8226537100000000    0.7500000000000000    0.6163165800000000 P
   0.7776842200000000    0.0026823500000000    0.1287940600000000 S
   0.2776842200000000    0.4973176500000000    0.3712059400000000 S
   0.2223157800000000    0.5026823499999999    0.8712059400000000 S
   0.7223157800000000    0.9973176500000001    0.6287940600000000 S
   0.2223157800000000    0.9973176500000001    0.8712059400000000 S
   0.7223157800000000    0.5026823499999999    0.6287940600000000 S
   0.7776842200000000    0.4973176500000000    0.1287940600000000 S
   0.2776842200000000    0.0026823500000000    0.3712059400000000 S
   0.5706759700000000    0.2500000000000000    0.2792812900000000 S
   0.0706759700000000    0.2500000000000000    0.2207187100000000 S
   0.4293240300000000    0.7500000000000000    0.7207187100000000 S
   0.9293240300000000    0.7500000000000000    0.7792812900000000 S
   0.5890103600000000    0.2500000000000000    0.9389439200000000 S
   0.0890103600000000    0.2500000000000000    0.5610560800000000 S
   0.4109896400000000    0.7500000000000000    0.0610560800000000 S
   0.9109896400000000    0.7500000000000000    0.4389439200000000 S
