Ca4 Al6 Te1 O12
1.0
  -4.5760204499999997    4.5760204499999997    4.5760204499999997
   4.5760204499999997   -4.5760204499999997    4.5760204499999997
   4.5760204499999997    4.5760204499999997   -4.5760204499999997
Ca Al Te O
4 6 1 12
direct
   0.0000000000000000    0.0000000000000000    0.3897527200000000 Ca
   0.6102472799999999    0.6102472799999999    0.6102472799999999 Ca
   0.3897527200000000    0.0000000000000000    0.0000000000000000 Ca
   0.0000000000000000    0.3897527200000000    0.0000000000000000 Ca
   0.2500000000000000    0.7500000000000000    0.5000000000000000 Al
   0.7500000000000000    0.2500000000000000    0.5000000000000000 Al
   0.5000000000000000    0.2500000000000000    0.7500000000000000 Al
   0.5000000000000000    0.7500000000000000    0.2500000000000000 Al
   0.2500000000000000    0.5000000000000000    0.7500000000000000 Al
   0.7500000000000000    0.5000000000000000    0.2500000000000000 Al
   0.0000000000000000    0.0000000000000000    0.0000000000000000 Te
   0.5832770900000001    0.2836919500000000    0.0000000000000000 O
   0.4167229100000000    0.4167229100000000    0.7004148700000000 O
   0.0000000000000000    0.2836919500000000    0.5832770900000001 O
   0.2836919500000000    0.0000000000000000    0.5832770900000001 O
   0.7004148700000000    0.4167229100000000    0.4167229100000000 O
   0.0000000000000000    0.5832770900000001    0.2836919500000000 O
   0.5832770900000001    0.0000000000000000    0.2836919500000000 O
   0.4167229100000000    0.7004148700000000    0.4167229100000000 O
   0.2836919500000000    0.5832770900000001    0.0000000000000000 O
   0.7163080500000000    0.2995851300000000    0.7163080500000000 O
   0.7163080500000000    0.7163080500000000    0.2995851300000000 O
   0.2995851300000000    0.7163080500000000    0.7163080500000000 O
