Ba2 La4 Zn2 S10
1.0
  -3.9396070000000001    3.9396070000000001    6.7349024699999998
   3.9396070000000001   -3.9396070000000001    6.7349024699999998
   3.9396070000000001    3.9396070000000001   -6.7349024699999998
Ba La Zn S
2 4 2 10
direct
   0.2500000000000000    0.2500000000000000    0.0000000000000000 Ba
   0.7500000000000000    0.7500000000000000    0.0000000000000000 Ba
   0.3382240100000000    0.1617759900000000    0.5000000000000000 La
   0.1617759900000000    0.6617759900000000    0.8235529700000001 La
   0.8382240100000000    0.3382240100000000    0.1764470300000000 La
   0.6617759900000000    0.8382240100000000    0.5000000000000000 La
   0.7500000000000000    0.2500000000000000    0.5000000000000000 Zn
   0.2500000000000000    0.7500000000000000    0.5000000000000000 Zn
   0.4869541500000000    0.9869541500000000    0.2001547800000000 S
   0.2131996300000000    0.7131996300000000    0.2001547800000000 S
   0.5130458500000000    0.0130458500000000    0.7998452200000000 S
   0.0130458500000000    0.2131996300000000    0.5000000000000000 S
   0.7131996300000000    0.5130458500000000    0.5000000000000000 S
   0.9869541500000000    0.7868003700000000    0.5000000000000000 S
   0.2868003700000000    0.4869541500000000    0.5000000000000000 S
   0.7868003700000000    0.2868003700000000    0.7998452200000000 S
   0.5000000000000000    0.5000000000000000    0.0000000000000000 S
   0.0000000000000000    0.0000000000000000    0.0000000000000000 S
