Ba4 Cd4 O8
1.0
   6.1440063000000000    0.0000000000000000    0.0000000000000000
   0.0000000000000000    3.6650414200000001    0.0000000000000000
   0.0000000000000000    0.0000000000000000   11.9619103899999999
Ba Cd O
4 4 8
direct
   0.6040346500000000    0.7500000000000000    0.1425563700000000 Ba
   0.3959653500000000    0.2500000000000000    0.8574436300000000 Ba
   0.1040346500000000    0.7500000000000000    0.3574436300000000 Ba
   0.8959653500000000    0.2500000000000000    0.6425563700000000 Ba
   0.9059551100000000    0.7500000000000000    0.8934193499999999 Cd
   0.4059551100000000    0.7500000000000000    0.6065806500000001 Cd
   0.0940448900000000    0.2500000000000000    0.1065806500000000 Cd
   0.5940448900000000    0.2500000000000000    0.3934193500000000 Cd
   0.7212911900000000    0.7500000000000000    0.4826126200000000 O
   0.2787088100000000    0.2500000000000000    0.5173873800000000 O
   0.2212911900000000    0.7500000000000000    0.0173873800000000 O
   0.7787088100000000    0.2500000000000000    0.9826126200000000 O
   0.8558377500000000    0.2500000000000000    0.2488672200000000 O
   0.6441622500000000    0.7500000000000000    0.7488672199999999 O
   0.3558377500000000    0.2500000000000000    0.2511327800000000 O
   0.1441622500000000    0.7500000000000000    0.7511327800000001 O
