Rb2 Na2 Ti2 O6
1.0
   2.9302769899999999   -5.5060490000000000   -0.0249914100000000
   2.9302769899999999    5.5060490000000000   -0.0249914100000000
  -0.2933339100000000    0.0000000000000000    5.5749024900000004
Rb Na Ti O
2 2 2 6
direct
   0.2658412400000000    0.7341587600000000    0.2500000000000000 Rb
   0.7341587600000000    0.2658412400000000    0.7500000000000000 Rb
   0.5752500800000000    0.4247499200000000    0.2500000000000000 Na
   0.4247499200000000    0.5752500800000000    0.7500000000000000 Na
   0.0517892800000000    0.9482107200000000    0.7500000000000000 Ti
   0.9482107200000000    0.0517892800000000    0.2500000000000000 Ti
   0.2315395200000000    0.2066887600000000    0.4992686200000000 O
   0.7933112400000000    0.7684604800000000    0.0007313800000000 O
   0.2159774200000000    0.7840225800000000    0.7500000000000000 O
   0.7684604800000000    0.7933112400000000    0.5007313799999999 O
   0.2066887600000000    0.2315395200000000    0.9992686200000001 O
   0.7840225800000000    0.2159774200000000    0.2500000000000000 O
