Cs2 Zr1 W3 O12
1.0
   6.3719877000000000   -3.6857057200000001   -0.0050223600000000
   6.3719877000000000    3.6857057200000001   -0.0050223600000000
  -4.2462400100000002    0.0000000000000000    6.1103615199999997
Cs Zr W O
2 1 3 12
direct
   0.8598171500000000    0.8870883200000000    0.1221406900000000 Cs
   0.1129116800000000    0.1401828500000000    0.8778593099999999 Cs
   0.5062444100000000    0.4937555900000000    0.0000000000000000 Zr
   0.9814034600000000    0.5143790600000000    0.5075518600000000 W
   0.4856209400000000    0.0185965400000000    0.4924481400000000 W
   0.4806128900000000    0.5193871100000000    0.5000000000000000 W
   0.1904709000000000    0.1942991600000000    0.4471603000000000 O
   0.5710402999999999    0.5600464000000001    0.7981183800000000 O
   0.1731781000000000    0.5605173800000000    0.7983759600000000 O
   0.5578738300000000    0.1957708600000000    0.4451380200000000 O
   0.5699693900000000    0.1615222200000000    0.7975740500000000 O
   0.1898343200000000    0.5668223400000000    0.4502377400000000 O
   0.8057008400000000    0.8095291000000000    0.5528397000000000 O
   0.4399536000000000    0.4289597000000000    0.2018816200000000 O
   0.8384777800000000    0.4300306100000000    0.2024259500000000 O
   0.4331776600000000    0.8101656800000000    0.5497622599999999 O
   0.4394826200000000    0.8268219000000000    0.2016240400000000 O
   0.8042291400000000    0.4421261700000000    0.5548619800000000 O
