Sr8 Si4 O16
1.0
   5.6659224300000002    0.0000000000000000    0.0030338500000000
   0.0000000000000000    7.0705550600000002    0.0000000000000000
  -5.0874035600000003    0.0000000000000000    9.6943208799999994
Sr Si O
8 4 16
direct
   0.0276860900000000    0.5002855500000000    0.8025730900000000 Sr
   0.9723139100000000    0.0002855500000000    0.6974269100000000 Sr
   0.9723139100000000    0.4997144500000000    0.1974269100000000 Sr
   0.0276860900000000    0.9997144500000000    0.3025730900000000 Sr
   0.3110779100000000    0.1570016800000000    0.0755652400000000 Sr
   0.6889220900000000    0.6570016800000000    0.4244347600000000 Sr
   0.6889220900000000    0.8429983200000000    0.9244347600000000 Sr
   0.3110779100000000    0.3429983200000000    0.5755652400000000 Sr
   0.3401708500000000    0.7206256000000000    0.0813860400000000 Si
   0.6598291500000000    0.2206256000000000    0.4186139600000000 Si
   0.6598291500000000    0.2793744000000000    0.9186139600000000 Si
   0.3401708500000000    0.7793744000000000    0.5813860400000000 Si
   0.6569632900000000    0.7663517000000000    0.1804196700000000 O
   0.3430367100000000    0.2663517000000000    0.3195803300000000 O
   0.3430367100000000    0.2336483000000000    0.8195803300000000 O
   0.6569632900000000    0.7336483000000000    0.6804196700000000 O
   0.1522443900000000    0.8243395000000000    0.1405197400000000 O
   0.8477556100000000    0.3243395000000000    0.3594802600000000 O
   0.8477556100000000    0.1756605000000000    0.8594802600000000 O
   0.1522443900000000    0.6756605000000000    0.6405197400000000 O
   0.2471889800000000    0.8198762800000000    0.9283855200000000 O
   0.7528110200000000    0.3198762800000000    0.5716144800000000 O
   0.7528110200000000    0.1801237200000000    0.0716144800000000 O
   0.2471889800000000    0.6801237200000000    0.4283855200000000 O
   0.2875078000000000    0.0063423200000000    0.5687124600000000 O
   0.7124922000000000    0.5063423200000000    0.9312875400000000 O
   0.7124922000000000    0.9936576800000000    0.4312875400000000 O
   0.2875078000000000    0.4936576800000000    0.0687124600000000 O
