Sr2 Li4 Nb4 O14
1.0
   9.0560660599999991   -2.8276438499999998    0.0000000000000000
   9.0560660599999991    2.8276438499999998    0.0000000000000000
   0.0000000000000000    0.0000000000000000    5.6395222499999997
Sr Li Nb O
2 4 4 14
direct
   0.2549139200000000    0.7450860800000000    0.7500000000000000 Sr
   0.7450860800000000    0.2549139200000000    0.2500000000000000 Sr
   0.7381214400000000    0.7381214400000000    0.5000000000000000 Li
   0.2618785600000000    0.2618785600000000    0.5000000000000000 Li
   0.2618785600000000    0.2618785600000000    0.0000000000000000 Li
   0.7381214400000000    0.7381214400000000    0.0000000000000000 Li
   0.1304717700000000    0.6391461300000000    0.2500000000000000 Nb
   0.6391461300000000    0.1304717700000000    0.7500000000000000 Nb
   0.8695282300000000    0.3608538700000000    0.7500000000000000 Nb
   0.3608538700000000    0.8695282300000000    0.2500000000000000 Nb
   0.3822051700000000    0.3822051700000000    0.5000000000000000 O
   0.0920446500000000    0.0920446500000000    0.0000000000000000 O
   0.6177948300000000    0.6177948300000000    0.0000000000000000 O
   0.0075598400000000    0.4310789500000000    0.7500000000000000 O
   0.3041584700000000    0.6958415300000000    0.2500000000000000 O
   0.0920446500000000    0.0920446500000000    0.5000000000000000 O
   0.3822051700000000    0.3822051700000000    0.0000000000000000 O
   0.4310789500000000    0.0075598400000000    0.2500000000000000 O
   0.6958415300000000    0.3041584700000000    0.7500000000000000 O
   0.5689210500000000    0.9924401600000000    0.7500000000000000 O
   0.6177948300000000    0.6177948300000000    0.5000000000000000 O
   0.9924401600000000    0.5689210500000000    0.2500000000000000 O
   0.9079553500000000    0.9079553500000000    0.5000000000000000 O
   0.9079553500000000    0.9079553500000000    0.0000000000000000 O
