Li4 Y4 O8
1.0
   6.1461886500000000    0.0000000000000000    0.0215519200000000
   0.0000000000000000    6.1039629700000004    0.0000000000000000
  -3.0770222700000001    0.0000000000000000    5.4266839800000000
Li Y O
4 4 8
direct
   0.2915742600000000    0.3443085400000000    0.0656759100000000 Li
   0.7084257400000000    0.8443085400000000    0.4343240900000000 Li
   0.7084257400000000    0.6556914600000000    0.9343240900000001 Li
   0.2915742600000000    0.1556914600000000    0.5656759099999999 Li
   0.2332782700000000    0.8691083600000000    0.9780255799999999 Y
   0.2332782700000000    0.6308916400000000    0.4780255800000000 Y
   0.7667217300000000    0.1308916400000000    0.0219744200000000 Y
   0.7667217300000000    0.3691083600000000    0.5219744200000001 Y
   0.4533791100000000    0.6084533300000000    0.2641143100000000 O
   0.9882015600000000    0.8274630600000000    0.1535484300000000 O
   0.5466208900000000    0.1084533300000000    0.2358856900000000 O
   0.5466208900000000    0.3915466700000000    0.7358856900000000 O
   0.0117984400000000    0.1725369400000000    0.8464515700000000 O
   0.0117984400000000    0.3274630600000000    0.3464515700000000 O
   0.9882015600000000    0.6725369400000000    0.6535484300000000 O
   0.4533791100000000    0.8915466700000000    0.7641143100000000 O
