Ba4 Y2 Ga2 Se10
1.0
   7.2599904300000002   -0.0027667300000000   -0.0096365400000000
  -2.5778408000000002    8.2359007700000006    0.0072519900000000
  -2.1279127099999999   -2.9542936700000002    8.5953566200000004
Ba Y Ga Se
4 2 2 10
direct
   0.6352094000000000    0.9785955000000000    0.2894417800000000 Ba
   0.3647906000000000    0.0214045000000000    0.7105582200000000 Ba
   0.3456146500000000    0.5117464900000001    0.7086619300000000 Ba
   0.6543853500000000    0.4882535100000000    0.2913380700000000 Ba
   0.9986264700000000    0.7314699800000000    0.9984979899999999 Y
   0.0013735300000000    0.2685300200000000    0.0015020100000000 Y
   0.8052953300000000    0.8716994900000000    0.6868925400000000 Ga
   0.1947046700000000    0.1283005100000000    0.3131074600000000 Ga
   0.9859535300000000    0.6792231300000000    0.6827202400000000 Se
   0.0140464700000000    0.3207768700000000    0.3172797600000000 Se
   0.9820634499999999    0.1549066300000000    0.6846544800000000 Se
   0.0179365500000000    0.8450933700000000    0.3153455200000000 Se
   0.7122398100000000    0.9093286300000000    0.9295466600000000 Se
   0.2877601900000000    0.0906713700000000    0.0704533400000000 Se
   0.7043490100000001    0.4109672100000000    0.9431953100000000 Se
   0.2956509900000000    0.5890327900000000    0.0568046900000000 Se
   0.4843433100000000    0.7402471800000000    0.4904393100000000 Se
   0.5156566900000000    0.2597528200000000    0.5095606900000000 Se
