Ge4 S4
1.0
  10.2372203800000001    0.0000000000000000    0.0000000000000000
   0.0000000000000000    3.6683081199999998   -0.0000000000000000
   0.0000000000000000    0.0000000000000000    4.1580230900000004
Ge S
4 4
direct
   0.1168134200000000    0.2500000000000000    0.1241748200000000 Ge
   0.8831865800000001    0.7500000000000000    0.8758251800000000 Ge
   0.3831865800000000    0.7500000000000000    0.6241748200000000 Ge
   0.6168134199999999    0.2500000000000000    0.3758251800000000 Ge
   0.8531687300000000    0.2500000000000000    0.4913559800000000 S
   0.1468312700000000    0.7500000000000000    0.5086440200000000 S
   0.6468312700000000    0.7500000000000000    0.9913559800000000 S
   0.3531687300000000    0.2500000000000000    0.0086440200000000 S
