Na8 Si8 Se20
1.0
   6.6438683699999999   -6.5517844500000004    0.0000000000000000
   6.6438683699999999    6.5517844500000004    0.0000000000000000
   0.0000000000000000    0.0000000000000000   10.8131328399999997
Na Si Se
8 8 20
direct
   0.5806051400000000    0.0715228000000000    0.7500000000000000 Na
   0.4193948600000000    0.9284772000000000    0.2500000000000000 Na
   0.9284772000000000    0.4193948600000000    0.7500000000000000 Na
   0.0715228000000000    0.5806051400000000    0.2500000000000000 Na
   0.1479232400000000    0.1479232400000000    0.5000000000000000 Na
   0.8520767600000000    0.8520767600000000    0.0000000000000000 Na
   0.8520767600000000    0.8520767600000000    0.5000000000000000 Na
   0.1479232400000000    0.1479232400000000    0.0000000000000000 Na
   0.5880417500000000    0.6830123200000000    0.7500000000000000 Si
   0.4119582500000000    0.3169876800000000    0.2500000000000000 Si
   0.3169876800000000    0.4119582500000000    0.7500000000000000 Si
   0.6830123200000000    0.5880417500000000    0.2500000000000000 Si
   0.2534934600000000    0.7465065400000001    0.9188643700000000 Si
   0.7465065400000001    0.2534934600000000    0.4188643700000000 Si
   0.2534934600000000    0.7465065400000001    0.5811356300000000 Si
   0.7465065400000001    0.2534934600000000    0.0811356300000000 Si
   0.7277035600000000    0.8206362100000000    0.2500000000000000 Se
   0.2722964400000000    0.1793637900000000    0.7500000000000000 Se
   0.1793637900000000    0.2722964400000000    0.2500000000000000 Se
   0.8206362100000000    0.7277035600000000    0.7500000000000000 Se
   0.1562389200000000    0.8437610800000001    0.0870160100000000 Se
   0.8437610800000001    0.1562389200000000    0.5870160100000000 Se
   0.1562389200000000    0.8437610800000001    0.4129839900000000 Se
   0.8437610800000001    0.1562389200000000    0.9129839900000000 Se
   0.1480168500000000    0.8519831500000000    0.7500000000000000 Se
   0.8519831500000000    0.1480168500000000    0.2500000000000000 Se
   0.5043979500000000    0.2082887100000000    0.0752178300000000 Se
   0.4956020500000000    0.7917112900000000    0.5752178300000000 Se
   0.7917112900000000    0.4956020500000000    0.4247821700000000 Se
   0.2082887100000000    0.5043979500000000    0.9247821700000000 Se
   0.4956020500000000    0.7917112900000000    0.9247821700000000 Se
   0.5043979500000000    0.2082887100000000    0.4247821700000000 Se
   0.2082887100000000    0.5043979500000000    0.5752178300000000 Se
   0.7917112900000000    0.4956020500000000    0.0752178300000000 Se
   0.5590272800000000    0.4409727200000000    0.7500000000000000 Se
   0.4409727200000000    0.5590272800000000    0.2500000000000000 Se
