Cd2 Se4 O10
1.0
   4.0483967500000002   -5.6722541599999996    0.0239131500000000
   4.0483967500000002    5.6722541599999996    0.0239131500000000
  -2.8104106400000002    0.0000000000000000    5.2050036600000000
Cd Se O
2 4 10
direct
   0.4086153700000000    0.5913846300000000    0.7500000000000000 Cd
   0.5913846300000000    0.4086153700000000    0.2500000000000000 Cd
   0.7105655000000000    0.9918727899999999    0.3862252100000000 Se
   0.0081272100000000    0.2894345000000000    0.1137747900000000 Se
   0.2894345000000000    0.0081272100000000    0.6137747900000000 Se
   0.9918727899999999    0.7105655000000000    0.8862252100000000 Se
   0.9153910700000000    0.0846089300000000    0.2500000000000000 O
   0.0846089300000000    0.9153910700000000    0.7500000000000000 O
   0.5934540100000000    0.7218098500000000    0.1829396600000000 O
   0.2781901500000000    0.4065459900000000    0.3170603400000000 O
   0.4065459900000000    0.2781901500000000    0.8170603400000001 O
   0.7218098500000000    0.5934540100000000    0.6829396599999999 O
   0.0760557600000000    0.5166581000000000    0.7761335000000000 O
   0.4833419000000000    0.9239442400000000    0.7238665000000000 O
   0.9239442400000000    0.4833419000000000    0.2238665000000000 O
   0.5166581000000000    0.0760557600000000    0.2761335000000000 O
