Ga1 Cu1 O2
1.0
   1.4882568100000000    0.8592450100000000    5.6851851800000004
  -1.4882568100000000    0.8592450100000000    5.6851851800000004
   0.0000000000000000   -1.7184910099999999    5.6851851800000004
Ga Cu O
1 1 2
direct
   0.5000000000000000    0.5000000000000000    0.5000000000000000 Ga
   0.0000000000000000    0.0000000000000000    0.0000000000000000 Cu
   0.8927027900000000    0.8927027900000000    0.8927027900000000 O
   0.1072972100000000    0.1072972100000000    0.1072972100000000 O
