Na2 In2 Si4 O12
1.0
   4.9947993500000001   -4.5903390300000000   -0.0078143800000000
   4.9947993500000001    4.5903390300000000   -0.0078143800000000
  -1.6391571300000001    0.0000000000000000    5.1563523699999996
Na In Si O
2 2 4 12
direct
   0.2996005700000000    0.7003994300000000    0.7500000000000000 Na
   0.7003994300000000    0.2996005700000000    0.2500000000000000 Na
   0.8954448699999999    0.1045551300000000    0.7500000000000000 In
   0.1045551300000000    0.8954448699999999    0.2500000000000000 In
   0.6211788499999999    0.7937449300000000    0.2458574000000000 Si
   0.2062550700000000    0.3788211500000000    0.2541426000000000 Si
   0.7937449300000000    0.6211788499999999    0.7458574000000000 Si
   0.3788211500000000    0.2062550700000000    0.7541426000000000 Si
   0.1120885000000000    0.6032535000000000    0.3279510200000000 O
   0.6615299600000000    0.6389927800000000    0.9740741600000000 O
   0.6389927800000000    0.6615299600000000    0.4740741600000000 O
   0.3384700400000000    0.3610072200000000    0.0259258400000000 O
   0.9619370300000000    0.7984808100000000    0.8424387300000000 O
   0.2015191900000000    0.0380629700000000    0.6575612700000000 O
   0.3967465000000000    0.8879115000000000    0.1720489800000000 O
   0.7984808100000000    0.9619370300000000    0.3424387300000000 O
   0.8879115000000000    0.3967465000000000    0.6720489800000000 O
   0.6032535000000000    0.1120885000000000    0.8279510200000000 O
   0.0380629700000000    0.2015191900000000    0.1575612700000000 O
   0.3610072200000000    0.3384700400000000    0.5259258400000000 O
