Pb4 W4 O16
1.0
   5.5313286599999998    0.0000000000000000    0.0360959100000000
   0.0000000000000000    5.0042853000000003    0.0000000000000000
  -4.4228894600000004    0.0000000000000000   12.7960890700000007
Pb W O
4 4 16
direct
   0.8376585300000000    0.7029263100000001    0.3457539600000000 Pb
   0.1623414700000000    0.2029263100000000    0.1542460400000000 Pb
   0.1623414700000000    0.2970736900000000    0.6542460400000000 Pb
   0.8376585300000000    0.7970736899999999    0.8457539600000000 Pb
   0.3963815200000000    0.2503101200000000    0.4237817600000000 W
   0.6036184800000000    0.7503101200000000    0.0762182400000000 W
   0.6036184800000000    0.7496898800000000    0.5762182400000000 W
   0.3963815200000000    0.2496898800000000    0.9237817600000000 W
   0.2686607900000000    0.5506298800000000    0.4780675800000000 O
   0.7313392100000000    0.0506298800000000    0.0219324200000000 O
   0.7313392100000000    0.4493701200000000    0.5219324200000000 O
   0.2686607900000000    0.9493701200000000    0.9780675800000000 O
   0.6149065100000000    0.9396272200000000    0.4404767800000000 O
   0.3850934900000000    0.4396272200000000    0.0595232200000000 O
   0.3850934900000000    0.0603727800000000    0.5595232200000000 O
   0.6149065100000000    0.5603727800000000    0.9404767800000000 O
   0.0922916500000000    0.1204375300000000    0.3457301300000000 O
   0.9077083500000001    0.6204375300000000    0.1542698700000000 O
   0.9077083500000001    0.8795624700000000    0.6542698700000000 O
   0.0922916500000000    0.3795624700000000    0.8457301300000000 O
   0.4747733600000000    0.3887839100000000    0.3139734900000000 O
   0.5252266400000000    0.8887839100000000    0.1860265100000000 O
   0.5252266400000000    0.6112160900000000    0.6860265100000000 O
   0.4747733600000000    0.1112160900000000    0.8139734900000000 O
