Ti8 N8 O4
1.0
   4.9764208099999996   -1.5040651599999999   -0.0003046500000000
   4.9764208099999996    1.5040651599999999   -0.0003046500000000
  -4.2574046299999999    0.0000000000000000   15.2046240600000004
Ti N O
8 8 4
direct
   0.2548171700000000    0.2548171700000000    0.9177086400000000 Ti
   0.0077585900000000    0.0077585900000000    0.6693618500000000 Ti
   0.7644430700000000    0.7644430700000000    0.4222102400000000 Ti
   0.9922414100000000    0.9922414100000000    0.3306381500000000 Ti
   0.7451828300000000    0.7451828300000000    0.0822913600000000 Ti
   0.7786200300000000    0.7786200300000000    0.7586861600000000 Ti
   0.2355569300000000    0.2355569300000000    0.5777897600000000 Ti
   0.2213799700000000    0.2213799700000000    0.2413138400000000 Ti
   0.1614139600000000    0.1614139600000000    0.7855605200000000 N
   0.8385860400000000    0.8385860400000000    0.2144394800000000 N
   0.8549959800000000    0.8549959800000000    0.5517367100000000 N
   0.6116051800000000    0.6116051800000000    0.2931290100000000 N
   0.3724901000000000    0.3724901000000000    0.3689341700000000 N
   0.6275099000000000    0.6275099000000000    0.6310658300000000 N
   0.1450040200000000    0.1450040200000000    0.4482632900000000 N
   0.3883948200000000    0.3883948200000000    0.7068709900000000 N
   0.3487535100000000    0.3487535100000000    0.0482962200000000 O
   0.6512464900000000    0.6512464900000000    0.9517037800000000 O
   0.8655087700000000    0.8655087700000000    0.8855036400000000 O
   0.1344912300000000    0.1344912300000000    0.1144963600000000 O
