Tl2 P2 O8
1.0
   2.7203475400000001   -4.0648154099999996    0.0000000000000000
   2.7203475400000001    4.0648154099999996    0.0000000000000000
   0.0000000000000000    0.0000000000000000    7.1452493700000002
Tl P O
2 2 8
direct
   0.0000000000000000    0.0000000000000000    0.5000000000000000 Tl
   0.0000000000000000    0.0000000000000000    0.0000000000000000 Tl
   0.6466742100000000    0.3533257900000000    0.2500000000000000 P
   0.3533257900000000    0.6466742100000000    0.7500000000000000 P
   0.2571936500000000    0.7428063499999999    0.5656693200000000 O
   0.7428063499999999    0.2571936500000000    0.0656693200000000 O
   0.7428063499999999    0.2571936500000000    0.4343306800000000 O
   0.2571936500000000    0.7428063499999999    0.9343306800000000 O
   0.7008919100000000    0.7675847099999999    0.7500000000000000 O
   0.2991080900000000    0.2324152900000000    0.2500000000000000 O
   0.7675847099999999    0.7008919100000000    0.2500000000000000 O
   0.2324152900000000    0.2991080900000000    0.7500000000000000 O
