Na6 P2 S8
1.0
   6.8554862900000000    0.0000000000000000    0.0000000000000000
   0.0000000000000000    6.8554862900000000    0.0000000000000000
   0.0000000000000000    0.0000000000000000    6.9999507300000001
Na P S
6 2 8
direct
   0.0000000000000000    0.5000000000000000    0.4244807200000000 Na
   0.5000000000000000    0.0000000000000000    0.5755192800000000 Na
   0.5000000000000000    0.0000000000000000    0.0755192800000000 Na
   0.0000000000000000    0.5000000000000000    0.9244807200000000 Na
   0.0000000000000000    0.0000000000000000    0.0000000000000000 Na
   0.5000000000000000    0.5000000000000000    0.5000000000000000 Na
   0.0000000000000000    0.0000000000000000    0.5000000000000000 P
   0.5000000000000000    0.5000000000000000    0.0000000000000000 P
   0.3078603100000000    0.3457136600000000    0.1682460600000000 S
   0.3457136600000000    0.6921396900000000    0.8317539400000000 S
   0.6542863400000000    0.3078603100000000    0.8317539400000000 S
   0.8078603100000000    0.1542863400000000    0.3317539400000000 S
   0.1921396900000000    0.8457136600000000    0.3317539400000000 S
   0.6921396900000000    0.6542863400000000    0.1682460600000000 S
   0.1542863400000000    0.1921396900000000    0.6682460600000000 S
   0.8457136600000000    0.8078603100000000    0.6682460600000000 S
