La1 Sb5 O12
1.0
   3.6545271000000001    2.1099423800000001    5.4878968800000001
  -3.6545271000000001    2.1099423800000001    5.4878968800000001
   0.0000000000000000   -4.2198847500000003    5.4878968800000001
La Sb O
1 5 12
direct
   0.5000000000000000    0.5000000000000000    0.5000000000000000 La
   0.0000000000000000    0.5000000000000000    0.5000000000000000 Sb
   0.5000000000000000    0.0000000000000000    0.5000000000000000 Sb
   0.5000000000000000    0.5000000000000000    0.0000000000000000 Sb
   0.8497618700000000    0.8497618700000000    0.8497618700000000 Sb
   0.1502381300000000    0.1502381300000000    0.1502381300000000 Sb
   0.0493705400000000    0.6522266600000000    0.6522266600000000 O
   0.6522266600000000    0.0493705400000000    0.6522266600000000 O
   0.6522266600000000    0.6522266600000000    0.0493705400000000 O
   0.9506294600000000    0.3477733400000000    0.3477733400000000 O
   0.3477733400000000    0.9506294600000000    0.3477733400000000 O
   0.3477733400000000    0.3477733400000000    0.9506294600000000 O
   0.2423675500000000    0.6200162800000000    0.2423675500000000 O
   0.6200162800000000    0.2423675500000000    0.2423675500000000 O
   0.2423675500000000    0.2423675500000000    0.6200162800000000 O
   0.3799837200000000    0.7576324500000000    0.7576324500000000 O
   0.7576324500000000    0.7576324500000000    0.3799837200000000 O
   0.7576324500000000    0.3799837200000000    0.7576324500000000 O
