Na4 Cd4 P4 O16
1.0
  10.8614930899999997    0.0000000000000000    0.0000000000000000
   0.0000000000000000    6.4955454699999997    0.0000000000000000
   0.0000000000000000    0.0000000000000000    5.0276438199999998
Na Cd P O
4 4 4 16
direct
   0.5000000000000000    0.5000000000000000    0.0000000000000000 Na
   0.5000000000000000    0.0000000000000000    0.0000000000000000 Na
   0.0000000000000000    0.0000000000000000    0.5000000000000000 Na
   0.0000000000000000    0.5000000000000000    0.5000000000000000 Na
   0.2154646600000000    0.7500000000000000    0.9822784200000000 Cd
   0.7845353400000000    0.2500000000000000    0.0177215800000000 Cd
   0.2845353400000000    0.2500000000000000    0.4822784200000000 Cd
   0.7154646600000000    0.7500000000000000    0.5177215800000000 Cd
   0.3986350400000000    0.7500000000000000    0.4295642800000000 P
   0.6013649599999999    0.2500000000000000    0.5704357200000000 P
   0.1013649600000000    0.2500000000000000    0.9295642800000000 P
   0.8986350400000001    0.7500000000000000    0.0704357200000000 P
   0.3962831500000000    0.7500000000000000    0.7357922900000000 O
   0.6037168500000000    0.2500000000000000    0.2642077100000000 O
   0.1037168500000000    0.2500000000000000    0.2357922900000000 O
   0.8962831500000000    0.7500000000000000    0.7642077100000000 O
   0.3308844100000000    0.5601820000000000    0.3039459800000000 O
   0.6691155900000000    0.0601820000000000    0.6960540200000001 O
   0.1691155900000000    0.0601820000000000    0.8039459799999999 O
   0.8308844100000000    0.5601820000000000    0.1960540200000000 O
   0.3308844100000000    0.9398180000000000    0.3039459800000000 O
   0.6691155900000000    0.4398180000000000    0.6960540200000001 O
   0.1691155900000000    0.4398180000000000    0.8039459799999999 O
   0.8308844100000000    0.9398180000000000    0.1960540200000000 O
   0.0320352300000000    0.7500000000000000    0.1809192200000000 O
   0.9679647700000000    0.2500000000000000    0.8190807800000000 O
   0.4679647700000000    0.2500000000000000    0.6809192200000000 O
   0.5320352300000000    0.7500000000000000    0.3190807800000000 O
