In6 Te3 O18
1.0
   8.9857215900000007    0.0000000000000000    0.0000000000000000
  -4.4928612899999996    7.7818628399999996    0.0000000000000000
   0.0000000000000000    0.0000000000000000    4.8797056500000000
In Te O
6 3 18
direct
   0.6301457900000000    0.0000000000000000    0.0000000000000000 In
   0.0000000000000000    0.6301457900000000    0.0000000000000000 In
   0.3698542100000000    0.3698542100000000    0.0000000000000000 In
   0.2933027800000000    0.0000000000000000    0.5000000000000000 In
   0.0000000000000000    0.2933027800000000    0.5000000000000000 In
   0.7066972200000000    0.7066972200000000    0.5000000000000000 In
   0.0000000000000000    0.0000000000000000    0.0000000000000000 Te
   0.3333330000000000    0.6666670000000000    0.5089829000000000 Te
   0.6666670000000000    0.3333330000000000    0.4910171000000000 Te
   0.0831321000000000    0.8781966800000000    0.7792031500000000 O
   0.1218033200000000    0.2049354100000000    0.7792031500000000 O
   0.7950645900000000    0.9168679000000000    0.7792031500000000 O
   0.2049354100000000    0.1218033200000000    0.2207968500000000 O
   0.9168679000000000    0.7950645900000000    0.2207968500000000 O
   0.8781966800000000    0.0831321000000000    0.2207968500000000 O
   0.4620000400000000    0.5915274800000000    0.7339819700000000 O
   0.4084725200000000    0.8704725600000000    0.7339819700000000 O
   0.1295274400000000    0.5379999600000001    0.7339819700000000 O
   0.8704725600000000    0.4084725200000000    0.2660180300000000 O
   0.5379999600000001    0.1295274400000000    0.2660180300000000 O
   0.5915274800000000    0.4620000400000000    0.2660180300000000 O
   0.2208754000000000    0.7602349800000000    0.2842310300000000 O
   0.2397650200000000    0.4606394200000000    0.2842310300000000 O
   0.5393605800000000    0.7791245999999999    0.2842310300000000 O
   0.4606394200000000    0.2397650200000000    0.7157689699999999 O
   0.7791245999999999    0.5393605800000000    0.7157689699999999 O
   0.7602349800000000    0.2208754000000000    0.7157689699999999 O
