Ba2 Na2 B2 O6
1.0
   4.7717200499999999   -2.7715721900000001    0.0034226700000000
   4.7717200499999999    2.7715721900000001    0.0034226700000000
  -0.9642371199999999    0.0000000000000000    6.0357524500000004
Ba Na B O
2 2 2 6
direct
   0.8337370200000001    0.8337370200000001    0.7575941100000000 Ba
   0.1662629800000000    0.1662629800000000    0.2424058900000000 Ba
   0.5000000000000000    0.5000000000000000    0.5000000000000000 Na
   0.5000000000000000    0.5000000000000000    0.0000000000000000 Na
   0.8320595600000000    0.8320595600000000    0.2483819400000000 B
   0.1679404400000000    0.1679404400000000    0.7516180600000000 B
   0.8858597100000000    0.3178410500000000    0.7905026600000000 O
   0.6821589500000000    0.1141402900000000    0.2094973400000000 O
   0.1141402900000000    0.6821589500000000    0.2094973400000000 O
   0.3178410500000000    0.8858597100000000    0.7905026600000000 O
   0.7006508600000000    0.7006508600000000    0.3207803300000000 O
   0.2993491400000000    0.2993491400000000    0.6792196700000001 O
