Na4 Sb2 P2 C2 O14
1.0
   5.4245794700000003    0.0000000000000000    0.0002481400000000
   0.0000000000000000    6.7039473699999999    0.0000000000000000
  -0.2917646800000000    0.0000000000000000    9.2355085100000007
Na Sb P C O
4 2 2 2 14
direct
   0.7289653900000000    0.4894699700000000    0.7823078100000000 Na
   0.7289653900000000    0.0105300300000000    0.7823078100000000 Na
   0.2710346100000000    0.5105300300000000    0.2176921900000000 Na
   0.2710346100000000    0.9894699700000000    0.2176921900000000 Na
   0.1751714900000000    0.7500000000000000    0.6191326100000000 Sb
   0.8248285100000000    0.2500000000000000    0.3808673900000000 Sb
   0.2462866400000000    0.2500000000000000    0.6065673800000000 P
   0.7537133600000000    0.7500000000000000    0.3934326200000000 P
   0.2370505700000000    0.7500000000000000    0.9056086500000000 C
   0.7629494300000000    0.2500000000000000    0.0943913500000000 C
   0.7587751300000000    0.2500000000000000    0.9597926200000000 O
   0.0249694400000000    0.7500000000000000    0.8271064900000000 O
   0.4323034500000000    0.7500000000000000    0.8251276800000000 O
   0.1023243000000000    0.0661792300000000    0.6634628800000000 O
   0.1023243000000000    0.4338207700000000    0.6634628800000000 O
   0.7863127400000000    0.7500000000000000    0.5652500800000000 O
   0.5164569900000000    0.2500000000000000    0.6514394400000000 O
   0.4835430100000000    0.7500000000000000    0.3485605600000000 O
   0.2136872600000000    0.2500000000000000    0.4347499200000000 O
   0.8976757000000000    0.5661792300000000    0.3365371200000000 O
   0.8976757000000000    0.9338207700000000    0.3365371200000000 O
   0.5676965500000000    0.2500000000000000    0.1748723200000000 O
   0.9750305600000000    0.2500000000000000    0.1728935100000000 O
   0.2412248700000000    0.7500000000000000    0.0402073800000000 O
