Sc1 Ag1 Se2
1.0
   3.8322901400000000    0.0000000000000000    0.0000000000000000
  -1.9161450700000000    3.3188613299999998    0.0000000000000000
   0.0000000000000000    0.0000000000000000    6.4694715900000004
Sc Ag Se
1 1 2
direct
   0.0000000000000000    0.0000000000000000    0.0000000000000000 Sc
   0.0000000000000000    0.0000000000000000    0.5000000000000000 Ag
   0.3333330000000000    0.6666670000000000    0.2361223000000000 Se
   0.6666670000000000    0.3333330000000000    0.7638777000000000 Se
