Ti1 Bi6 P2 O16
1.0
   7.6618568600000003   -2.6893693000000001   -0.0440294900000000
   7.6618568600000003    2.6893693000000001   -0.0440294900000000
  -7.6721879299999998    0.0000000000000000    8.3431790600000006
Ti Bi P O
1 6 2 16
direct
   0.2188455200000000    0.7811544800000000    0.5000000000000000 Ti
   0.9497006400000000    0.3724979600000000    0.4819687900000000 Bi
   0.6275020400000000    0.0502993600000000    0.5180312100000000 Bi
   0.2624603400000000    0.7542258100000000    0.1755489300000000 Bi
   0.2457741900000000    0.7375396600000000    0.8244510700000000 Bi
   0.5908752000000000    0.0813402600000000    0.8453082600000000 Bi
   0.9186597399999999    0.4091248000000000    0.1546917400000000 Bi
   0.5698235900000000    0.1422607000000000    0.2279184200000000 P
   0.8577393000000000    0.4301764100000000    0.7720815800000000 P
   0.6625218100000000    0.2089891900000000    0.1899317000000000 O
   0.7910108100000000    0.3374781900000000    0.8100683000000000 O
   0.6728403200000000    0.6706489400000000    0.3248571500000000 O
   0.3293510600000000    0.3271596800000000    0.6751428500000000 O
   0.5070153200000000    0.4929846800000000    0.0000000000000000 O
   0.5855992100000000    0.6326473200000000    0.6660034800000000 O
   0.3673526800000000    0.4144007900000000    0.3339965200000000 O
   0.4199251100000000    0.0244467900000000    0.0831151100000000 O
   0.9755532099999999    0.5800748900000000    0.9168848900000000 O
   0.0993116300000000    0.7266546000000000    0.5606859900000000 O
   0.2733454000000000    0.9006883700000000    0.4393140100000000 O
   0.8245238400000000    0.9402881400000001    0.3345551300000000 O
   0.0597118600000000    0.1754761600000000    0.6654448700000000 O
   0.1682220700000000    0.1763005100000000    0.3205565100000000 O
   0.8236994900000000    0.8317779300000000    0.6794434900000000 O
   0.9964376000000000    0.0035624000000000    0.0000000000000000 O
