V2 P6 O18
1.0
   6.6121040300000002   -3.2755779600000001   -0.0209679400000000
   6.6121040300000002    3.2755779600000001   -0.0209679400000000
  -5.7411845000000001    0.0000000000000000    7.5765495500000002
V P O
2 6 18
direct
   0.5055725900000000    0.9902876300000000    0.3963096500000000 V
   0.9902876300000000    0.5055725900000000    0.8963096500000000 V
   0.7122699400000000    0.5096446900000000    0.0743162500000000 P
   0.5096446900000000    0.7122699400000000    0.5743162500000000 P
   0.9480217200000000    0.0573069900000000    0.1559910800000000 P
   0.0573069900000000    0.9480217200000000    0.6559910799999999 P
   0.4763417600000000    0.2932797200000000    0.2175903200000000 P
   0.2932797200000000    0.4763417600000000    0.7175903200000000 P
   0.6028508400000000    0.6580541100000000    0.2189599600000000 O
   0.6580541100000000    0.6028508400000000    0.7189599600000000 O
   0.5231589100000000    0.4461019600000000    0.8875205300000000 O
   0.4461019600000000    0.5231589100000000    0.3875205300000000 O
   0.2448569500000000    0.8927335500000000    0.5890467200000000 O
   0.8927335500000000    0.2448569500000000    0.0890467200000000 O
   0.3304361000000000    0.3717552600000000    0.0565380300000000 O
   0.3717552600000000    0.3304361000000000    0.5565380300000000 O
   0.1812048000000000    0.7561952300000000    0.7474528400000000 O
   0.7561952300000000    0.1812048000000000    0.2474528400000000 O
   0.9306492800000000    0.8429549900000000    0.9959197400000001 O
   0.8429549900000000    0.9306492800000000    0.4959197400000000 O
   0.1844006200000000    0.0126810800000000    0.3016110600000000 O
   0.0126810800000000    0.1844006200000000    0.8016110600000000 O
   0.4368903800000000    0.1195232800000000    0.2213093700000000 O
   0.1195232800000000    0.4368903800000000    0.7213093699999999 O
   0.5919849800000000    0.8508426400000000    0.5704344400000000 O
   0.8508426400000000    0.5919849800000000    0.0704344400000000 O
