Hf4 B8 O20
1.0
   4.4060679800000004    0.0000000000000000   -0.0054489600000000
   0.0000000000000000    6.9300328599999999    0.0000000000000000
  -0.1191473400000000    0.0000000000000000    9.0088112500000008
Hf B O
4 8 20
direct
   0.0014559800000000    0.8864257000000000    0.6712158800000000 Hf
   0.9985440200000000    0.1135743000000000    0.3287841200000000 Hf
   0.0014559800000000    0.6135743000000000    0.1712158800000000 Hf
   0.9985440200000000    0.3864257000000000    0.8287841200000000 Hf
   0.4647261300000000    0.5873967000000000    0.6655557000000000 B
   0.5352738700000000    0.4126033000000000    0.3344443000000000 B
   0.5352738700000000    0.0873967000000000    0.8344443000000000 B
   0.5265268700000000    0.7290292600000000    0.9229045100000000 B
   0.4647261300000000    0.9126033000000000    0.1655557000000000 B
   0.4734731300000000    0.2709707400000000    0.0770954900000000 B
   0.5265268700000000    0.7709707400000000    0.4229045100000000 B
   0.4734731300000000    0.2290292600000000    0.5770954900000000 B
   0.3315246600000000    0.1044578500000000    0.1502471400000000 O
   0.7668102200000000    0.5967827700000000    0.9665118200000000 O
   0.3315246600000000    0.3955421500000000    0.6502471399999999 O
   0.6960102000000000    0.1557618000000000    0.6931233700000000 O
   0.2331897800000000    0.0967827700000000    0.5334881800000000 O
   0.2130893800000000    0.0915407400000000    0.8218051300000000 O
   0.3470637900000000    0.7214614100000000    0.5535617900000001 O
   0.6684753400000000    0.8955421500000000    0.8497528600000001 O
   0.6684753400000000    0.6044578500000000    0.3497528600000000 O
   0.3470637900000000    0.7785385900000000    0.0535617900000000 O
   0.7869106200000000    0.9084592600000000    0.1781948700000000 O
   0.7869106200000000    0.5915407400000000    0.6781948700000000 O
   0.6529362100000000    0.2785385900000000    0.4464382100000000 O
   0.3039898000000000    0.6557618000000000    0.8068766300000000 O
   0.3039898000000000    0.8442382000000000    0.3068766300000000 O
   0.6960102000000000    0.3442382000000000    0.1931233700000000 O
   0.7668102200000000    0.9032172300000000    0.4665118200000000 O
   0.6529362100000000    0.2214614100000000    0.9464382099999999 O
   0.2130893800000000    0.4084592600000000    0.3218051300000000 O
   0.2331897800000000    0.4032172300000000    0.0334881800000000 O
