Li2 Sb2 P8 O24
1.0
   8.1337688900000007   -3.5070696699999999   -0.0174107800000000
   8.1337688900000007    3.5070696699999999   -0.0174107800000000
  -5.6722558799999998    0.0000000000000000    7.9012596500000001
Li Sb P O
2 2 8 24
direct
   0.3063274300000000    0.6936725700000000    0.2500000000000000 Li
   0.6936725700000000    0.3063274300000000    0.7500000000000000 Li
   0.8219434600000000    0.1780565400000000    0.2500000000000000 Sb
   0.1780565400000000    0.8219434600000000    0.7500000000000000 Sb
   0.7090195800000000    0.0031169700000000    0.8089344000000001 P
   0.3040397000000000    0.4192528000000000    0.8806884400000000 P
   0.5807472000000000    0.6959603000000000    0.6193115600000000 P
   0.9968830300000000    0.2909804200000000    0.6910655999999999 P
   0.0031169700000000    0.7090195800000000    0.3089344000000000 P
   0.4192528000000000    0.3040397000000000    0.3806884400000000 P
   0.6959603000000000    0.5807472000000000    0.1193115600000000 P
   0.2909804200000000    0.9968830300000000    0.1910656000000000 P
   0.1546193700000000    0.6007113400000000    0.8017338700000000 O
   0.4754500700000000    0.2182343900000000    0.7718184800000000 O
   0.7710243400000000    0.9801083700000000    0.9768136300000000 O
   0.6759216300000001    0.8215030200000000    0.6551517400000000 O
   0.1520606000000000    0.9817560200000000    0.2223348000000000 O
   0.1784969800000000    0.3240783700000000    0.8448482600000000 O
   0.0198916300000000    0.2289756600000000    0.5231863700000000 O
   0.5475789400000000    0.5839635300000000    0.4337195700000000 O
   0.4160364700000000    0.4524210600000000    0.0662804300000000 O
   0.7817656100000000    0.5245499300000001    0.7281815200000000 O
   0.3992886600000000    0.8453806300000000    0.6982661300000000 O
   0.0182439800000000    0.8479394000000000    0.2776652000000000 O
   0.9817560200000000    0.1520606000000000    0.7223348000000001 O
   0.6007113400000000    0.1546193700000000    0.3017338700000000 O
   0.2182343900000000    0.4754500700000000    0.2718184800000000 O
   0.5839635300000000    0.5475789400000000    0.9337195700000001 O
   0.4524210600000000    0.4160364700000000    0.5662804299999999 O
   0.9801083700000000    0.7710243400000000    0.4768136300000000 O
   0.8215030200000000    0.6759216300000001    0.1551517400000000 O
   0.8479394000000000    0.0182439800000000    0.7776651999999999 O
   0.3240783700000000    0.1784969800000000    0.3448482600000000 O
   0.2289756600000000    0.0198916300000000    0.0231863700000000 O
   0.5245499300000001    0.7817656100000000    0.2281815200000000 O
   0.8453806300000000    0.3992886600000000    0.1982661300000000 O
