Cs4 S12
1.0
   4.6452090799999999    0.0001119600000000    0.0003814800000000
  -0.0291135300000000    9.1477808799999991   -0.0036007500000000
  -1.0304760900000001   -0.7785981000000000   11.2980626399999995
Cs S
4 12
direct
   0.0433004800000000    0.3276492700000000    0.0939846500000000 Cs
   0.9566995200000000    0.6723507300000000    0.9060153500000000 Cs
   0.1128326100000000    0.6919204799999999    0.3886652800000000 Cs
   0.8871673900000000    0.3080795200000000    0.6113347200000000 Cs
   0.5395618500000000    0.6455672900000000    0.1514922600000000 S
   0.4604381500000000    0.3544327100000000    0.8485077400000000 S
   0.5747505400000000    0.3942413500000000    0.3261865500000000 S
   0.4252494600000000    0.6057586500000000    0.6738134500000000 S
   0.5156802800000000    0.8575484700000000    0.1024460500000000 S
   0.4843197200000000    0.1424515300000000    0.8975539500000000 S
   0.8045275900000000    0.9874579300000000    0.2106977100000000 S
   0.1954724100000000    0.0125420700000000    0.7893022900000000 S
   0.6419096300000000    0.0350210400000000    0.3744558600000000 S
   0.3580903700000000    0.9649789600000001    0.6255441400000000 S
   0.3608960600000000    0.2110964400000000    0.3637089800000000 S
   0.6391039400000000    0.7889035599999999    0.6362910200000000 S
