Na4 Zn2 Se4
1.0
  -3.2676980900000001    5.7947974599999998    3.0025412899999999
   3.2676980900000001   -5.7947974599999998    3.0025412899999999
   3.2676980900000001    5.7947974599999998   -3.0025412899999999
Na Zn Se
4 2 4
direct
   0.8615855400000000    0.3399736600000000    0.2015592000000000 Na
   0.1384144600000000    0.6600263400000000    0.7984408000000000 Na
   0.6384144600000000    0.8399736600000000    0.4783891300000000 Na
   0.3615855400000000    0.1600263400000000    0.5216108699999999 Na
   0.7500000000000000    0.7500000000000000    0.0000000000000000 Zn
   0.2500000000000000    0.2500000000000000    0.0000000000000000 Zn
   0.3847420900000000    0.7138884000000000    0.0986294900000000 Se
   0.6152579100000000    0.2861116000000000    0.9013705100000000 Se
   0.1152579100000000    0.2138884000000000    0.3291463100000000 Se
   0.8847420900000000    0.7861116000000000    0.6708536899999999 Se
