Ti4 P8 O28
1.0
   8.7912967900000005    0.0000000000000000   -0.0000957900000000
   0.0000000000000000    5.1940574499999999    0.0000000000000000
  -5.8954065800000004    0.0000000000000000   11.9149442600000004
Ti P O
4 8 28
direct
   0.2703661000000000    0.2513884500000000    0.5328548800000000 Ti
   0.7296338999999999    0.7513884500000000    0.9671451200000000 Ti
   0.2703661000000000    0.2486115500000000    0.0328548800000000 Ti
   0.7296338999999999    0.7486115500000000    0.4671451200000000 Ti
   0.1618150800000000    0.7393492200000000    0.6378678600000000 P
   0.6842167100000000    0.2635810500000000    0.1160997000000000 P
   0.8381849200000000    0.2393492200000000    0.8621321400000000 P
   0.6842167100000000    0.2364189500000000    0.6160997000000000 P
   0.3157832900000000    0.7635810500000000    0.3839003000000000 P
   0.1618150800000000    0.7606507800000000    0.1378678600000000 P
   0.3157832900000000    0.7364189500000000    0.8839003000000000 P
   0.8381849200000000    0.2606507800000000    0.3621321400000000 P
   0.2358394900000000    0.4720745300000000    0.6410068300000000 O
   0.2675125500000000    0.9508175900000000    0.6197520300000000 O
   0.4833576400000000    0.7735623200000000    0.8777001300000000 O
   0.7025124600000000    0.5359138300000000    0.0803067200000000 O
   0.8312150100000000    0.2198676000000000    0.2408168300000000 O
   0.7207366200000001    0.0616978900000000    0.0474619000000000 O
   0.0243836900000000    0.2363864600000000    0.4432644300000000 O
   0.5166423600000000    0.2735623200000000    0.6222998700000000 O
   0.7324874500000000    0.4508175900000000    0.8802479700000000 O
   0.7641605100000000    0.9720745300000000    0.8589931700000000 O
   0.9756163100000000    0.7363864600000000    0.0567355700000000 O
   0.7025124600000000    0.9640861700000000    0.5803067200000001 O
   0.2792633800000000    0.5616978900000000    0.4525381000000000 O
   0.1687849900000000    0.7198676000000001    0.2591831700000000 O
   0.8312150100000000    0.2801324000000000    0.7408168300000000 O
   0.7207366200000001    0.4383021100000000    0.5474618999999999 O
   0.2974875400000000    0.0359138300000000    0.4196932800000000 O
   0.0243836900000000    0.2636135400000000    0.9432644300000000 O
   0.2358394900000000    0.0279254700000000    0.1410068300000000 O
   0.2675125500000000    0.5491824100000000    0.1197520300000000 O
   0.4833576400000000    0.7264376800000000    0.3777001300000000 O
   0.9756163100000000    0.7636135400000000    0.5567355700000000 O
   0.2792633800000000    0.9383021100000000    0.9525381000000001 O
   0.1687849900000000    0.7801323999999999    0.7591831700000000 O
   0.2974875400000000    0.4640861700000000    0.9196932799999999 O
   0.5166423600000000    0.2264376800000000    0.1222998700000000 O
   0.7324874500000000    0.0491824100000000    0.3802479700000000 O
   0.7641605100000000    0.5279254700000000    0.3589931700000000 O
