Li1 Zn1 P1 S4
1.0
  -2.8618206300000000    2.8618206900000001    4.4024269900000004
   2.8618206300000000   -2.8618206900000001    4.4024269900000004
   2.8618206900000001    2.8618206300000000   -4.4024269900000004
Li Zn P S
1 1 1 4
direct
   0.5000000000000000    0.5000000000000000    0.0000000000000000 Li
   0.0000000000000000    0.0000000000000000    0.0000000000000000 Zn
   0.2500000000000000    0.7500000000000000    0.5000000000000000 P
   0.9228366099999999    0.8628194300000001    0.5167738800000000 S
   0.5939372800000000    0.0771633900000000    0.9399828200000000 S
   0.1371805700000000    0.6539554500000000    0.0600171800000000 S
   0.3460445500000000    0.4060627200000000    0.4832261200000000 S
