Tl2 V6 Cd8 O24
1.0
   6.5177774399999997   -6.7721354099999997   -0.0092253500000000
   6.5177774399999997    6.7721354099999997   -0.0092253500000000
  -3.0080109099999999    0.0000000000000000    6.4093571200000001
Tl V Cd O
2 6 8 24
direct
   0.0253171300000000    0.9688151000000000    0.7487018300000000 Tl
   0.9688151000000000    0.0253171300000000    0.2487018300000000 Tl
   0.2962935400000000    0.7003923500000000    0.7492363700000000 V
   0.7003923500000000    0.2962935400000000    0.2492363700000000 V
   0.8770284600000000    0.6481071100000000    0.8589850999999999 V
   0.3499289000000000    0.1281804600000000    0.6376723000000000 V
   0.1281804600000000    0.3499289000000000    0.1376723000000000 V
   0.6481071100000000    0.8770284600000000    0.3589851000000000 V
   0.0598882000000000    0.3789093300000000    0.6400677100000000 Cd
   0.6206823299999999    0.9345157600000000    0.8514572200000000 Cd
   0.9345157600000000    0.6206823299999999    0.3514572200000000 Cd
   0.3789093300000000    0.0598882000000000    0.1400677100000000 Cd
   0.7385469500000000    0.2646531200000000    0.7564983500000000 Cd
   0.2646531200000000    0.7385469500000000    0.2564983500000000 Cd
   0.4839002000000000    0.4715866300000000    0.5384265700000000 Cd
   0.4715866300000000    0.4839002000000000    0.0384265700000000 Cd
   0.2861271200000000    0.5180105600000000    0.7677805599999999 O
   0.4753909500000000    0.7135562600000001    0.7280169600000000 O
   0.7135562600000001    0.4753909500000000    0.2280169600000000 O
   0.5180105600000000    0.2861271200000000    0.2677805600000000 O
   0.7197782200000000    0.5127865100000000    0.7832357300000000 O
   0.4799450700000000    0.2957894900000000    0.7138757400000000 O
   0.2957894900000000    0.4799450700000000    0.2138757400000000 O
   0.5127865100000000    0.7197782200000000    0.2832357300000000 O
   0.0102848400000000    0.6656900500000000    0.0993779400000000 O
   0.3294942700000000    0.9955852900000000    0.3981275500000000 O
   0.9955852900000000    0.3294942700000000    0.8981275500000000 O
   0.6656900500000000    0.0102848400000000    0.5993779400000000 O
   0.1801111200000000    0.7303661000000000    0.5281055500000000 O
   0.2685788700000000    0.8182735600000000    0.9695745000000000 O
   0.8182735600000000    0.2685788700000000    0.4695745000000000 O
   0.7303661000000000    0.1801111200000000    0.0281055500000000 O
   0.9690326300000000    0.6050702000000000    0.6766960900000000 O
   0.3994252600000000    0.0392310200000000    0.8213955100000000 O
   0.0392310200000000    0.3994252600000000    0.3213955100000000 O
   0.6050702000000000    0.9690326300000000    0.1766960900000000 O
   0.8260933499999999    0.8232138800000000    0.8719493600000000 O
   0.1756883000000000    0.1757885400000000    0.6300200400000000 O
   0.1757885400000000    0.1756883000000000    0.1300200400000000 O
   0.8232138800000000    0.8260933499999999    0.3719493600000000 O
