Tl4 Mo2 O8
1.0
   5.1841001300000000   -3.2264359400000000   -0.0508512800000000
   5.1841001300000000    3.2264359400000000   -0.0508512800000000
  -0.2030182100000000    0.0000000000000000    7.9606682900000001
Tl Mo O
4 2 8
direct
   0.6658557600000000    0.6598723300000000    0.8228130100000000 Tl
   0.3401276700000000    0.3341442400000000    0.1771869900000000 Tl
   0.0478307500000000    0.9521692500000000    0.5000000000000000 Tl
   0.9987372500000000    0.0012627500000000    0.0000000000000000 Tl
   0.3619361800000000    0.3145906400000000    0.6924445299999999 Mo
   0.6854093600000000    0.6380638199999999    0.3075554700000000 Mo
   0.2306013000000000    0.6029357000000000    0.8035487000000000 O
   0.3970643000000000    0.7693987000000000    0.1964513000000000 O
   0.2956351300000000    0.0965413200000000    0.7996805700000000 O
   0.9034586800000000    0.7043648700000000    0.2003194300000000 O
   0.6844423200000000    0.2222633200000000    0.6983250000000000 O
   0.7777366800000000    0.3155576800000000    0.3016750000000000 O
   0.6443360200000000    0.7625714000000000    0.5166760000000000 O
   0.2374286000000000    0.3556639800000000    0.4833240000000000 O
