Na12 Tl4 O8
1.0
  11.3800778400000002    0.0000000000000000    0.0000000000000000
   0.0000000000000000    6.6549076800000000    0.0000000000000000
   0.0000000000000000    0.0000000000000000    5.3014435899999999
Na Tl O
12 4 8
direct
   0.6661043500000000    0.0015646600000000    0.7469873700000000 Na
   0.8338956500000000    0.5015646600000000    0.2469873700000000 Na
   0.1661043500000000    0.0015646600000000    0.7530126300000000 Na
   0.3338956500000000    0.9984353400000000    0.2530126300000000 Na
   0.9232009100000000    0.2500000000000000    0.7485737300000000 Na
   0.5767990900000000    0.7500000000000000    0.2485737300000000 Na
   0.0767990900000000    0.7500000000000000    0.2514262700000000 Na
   0.4232009100000000    0.2500000000000000    0.7514262700000000 Na
   0.3338956500000000    0.5015646600000000    0.2530126300000000 Na
   0.1661043500000000    0.4984353400000000    0.7530126300000000 Na
   0.6661043500000000    0.4984353400000000    0.7469873700000000 Na
   0.8338956500000000    0.9984353400000000    0.2469873700000000 Na
   0.4089404400000000    0.7500000000000000    0.7405626199999999 Tl
   0.0910595600000000    0.2500000000000000    0.2405626200000000 Tl
   0.5910595600000000    0.2500000000000000    0.2594373800000000 Tl
   0.9089404400000000    0.7500000000000000    0.7594373800000001 Tl
   0.2416059600000000    0.7500000000000000    0.4911830800000000 O
   0.2583940400000000    0.2500000000000000    0.9911830800000000 O
   0.7583940400000000    0.2500000000000000    0.5088169200000000 O
   0.7416059600000000    0.7500000000000000    0.0088169200000000 O
   0.5000000000000000    0.5000000000000000    0.5000000000000000 O
   0.0000000000000000    0.5000000000000000    0.0000000000000000 O
   0.5000000000000000    0.0000000000000000    0.5000000000000000 O
   0.0000000000000000    0.0000000000000000    0.0000000000000000 O
