Li2 In2 Mo4 O16
1.0
   4.7957320399999999   -5.7764875199999999    0.0029178000000000
   4.7957320399999999    5.7764875199999999    0.0029178000000000
  -0.1511070500000000    0.0000000000000000    5.0274183299999997
Li In Mo O
2 2 4 16
direct
   0.4152859000000000    0.5847141000000000    0.7500000000000000 Li
   0.5847141000000000    0.4152859000000000    0.2500000000000000 Li
   0.0916141500000000    0.9083858500000001    0.2500000000000000 In
   0.9083858500000001    0.0916141500000000    0.7500000000000000 In
   0.8902619800000000    0.5721224300000000    0.7509642399999999 Mo
   0.4278775700000000    0.1097380200000000    0.7490357600000001 Mo
   0.1097380200000000    0.4278775700000000    0.2490357600000000 Mo
   0.5721224300000000    0.8902619800000000    0.2509642400000000 Mo
   0.3191108100000000    0.4363181400000000    0.4056693000000000 O
   0.5636818600000000    0.6808891900000000    0.0943307000000000 O
   0.8335286300000000    0.4422595800000000    0.0469544200000000 O
   0.5577404200000000    0.1664713700000000    0.4530455800000000 O
   0.6808891900000000    0.5636818600000000    0.5943307000000000 O
   0.4363181400000000    0.3191108100000000    0.9056693000000000 O
   0.8128420200000001    0.9395996300000000    0.3869683000000000 O
   0.0604003700000000    0.1871579800000000    0.1130317000000000 O
   0.1871579800000000    0.0604003700000000    0.6130317000000000 O
   0.9395996300000000    0.8128420200000001    0.8869683000000000 O
   0.3487873200000000    0.9476454800000000    0.0652087500000000 O
   0.0523545200000000    0.6512126800000000    0.4347912500000000 O
   0.6512126800000000    0.0523545200000000    0.9347912500000000 O
   0.9476454800000000    0.3487873200000000    0.5652087500000000 O
   0.4422595800000000    0.8335286300000000    0.5469544200000001 O
   0.1664713700000000    0.5577404200000000    0.9530455799999999 O
