Na12 As4 Se12
1.0
   8.7855284800000000    0.0000000000000000    0.0000000000000000
   0.0000000000000000    8.7855284800000000    0.0000000000000000
   0.0000000000000000    0.0000000000000000    8.7855284800000000
Na As Se
12 4 12
direct
   0.8226851300000000    0.1773148700000000    0.6773148700000000 Na
   0.6773148700000000    0.8226851300000000    0.1773148700000000 Na
   0.1773148700000000    0.6773148700000000    0.8226851300000000 Na
   0.3226851300000000    0.3226851300000000    0.3226851300000000 Na
   0.1848127500000000    0.3151872500000000    0.6848127500000000 Na
   0.3151872500000000    0.6848127500000000    0.1848127500000000 Na
   0.6848127500000000    0.1848127500000000    0.3151872500000000 Na
   0.8151872500000000    0.8151872500000000    0.8151872500000000 Na
   0.4168544700000000    0.0831455300000000    0.9168544700000000 Na
   0.0831455300000000    0.9168544700000000    0.4168544700000000 Na
   0.9168544700000000    0.4168544700000000    0.0831455300000000 Na
   0.5831455300000000    0.5831455300000000    0.5831455300000000 Na
   0.0314963400000000    0.0314963400000000    0.0314963400000000 As
   0.4685036600000000    0.9685036600000000    0.5314963400000000 As
   0.9685036600000000    0.5314963400000000    0.4685036600000000 As
   0.5314963400000000    0.4685036600000000    0.9685036600000000 As
   0.2703263100000000    0.3866538400000000    0.9997397300000000 Se
   0.7703263100000000    0.1133461600000000    0.0002602700000000 Se
   0.7296736900000000    0.8866538400000000    0.5002602700000000 Se
   0.1133461600000000    0.0002602700000000    0.7703263100000000 Se
   0.5002602700000000    0.7296736900000000    0.8866538400000000 Se
   0.0002602700000000    0.7703263100000000    0.1133461600000000 Se
   0.3866538400000000    0.9997397300000000    0.2703263100000000 Se
   0.9997397300000000    0.2703263100000000    0.3866538400000000 Se
   0.8866538400000000    0.5002602700000000    0.7296736900000000 Se
   0.6133461600000000    0.4997397300000000    0.2296736900000000 Se
   0.4997397300000000    0.2296736900000000    0.6133461600000000 Se
   0.2296736900000000    0.6133461600000000    0.4997397300000000 Se
