Sr6 B4 O12
1.0
   4.5129632400000004    2.6055609400000002    4.1475690800000002
  -4.5129632400000004    2.6055609400000002    4.1475690800000002
   0.0000000000000000   -5.2111218700000004    4.1475690800000002
Sr B O
6 4 12
direct
   0.1047894700000000    0.3952105300000000    0.7500000000000000 Sr
   0.7500000000000000    0.1047894700000000    0.3952105300000000 Sr
   0.3952105300000000    0.7500000000000000    0.1047894700000000 Sr
   0.8952105299999999    0.6047894700000001    0.2500000000000000 Sr
   0.2500000000000000    0.8952105299999999    0.6047894700000001 Sr
   0.6047894700000001    0.2500000000000000    0.8952105299999999 Sr
   0.3849871400000000    0.3849871400000000    0.3849871400000000 B
   0.6150128600000000    0.6150128600000000    0.6150128600000000 B
   0.8849871400000000    0.8849871400000000    0.8849871400000000 B
   0.1150128600000000    0.1150128600000000    0.1150128600000000 B
   0.8962490100000000    0.0354110400000000    0.7268482300000000 O
   0.7268482300000000    0.8962490100000000    0.0354110400000000 O
   0.0354110400000000    0.7268482300000000    0.8962490100000000 O
   0.7731517700000000    0.4645889600000000    0.6037509900000000 O
   0.4645889600000000    0.6037509900000000    0.7731517700000000 O
   0.6037509900000000    0.7731517700000000    0.4645889600000000 O
   0.2731517700000000    0.1037509900000000    0.9645889600000001 O
   0.1037509900000000    0.9645889600000001    0.2731517700000000 O
   0.9645889600000001    0.2731517700000000    0.1037509900000000 O
   0.5354110399999999    0.3962490100000000    0.2268482300000000 O
   0.3962490100000000    0.2268482300000000    0.5354110399999999 O
   0.2268482300000000    0.5354110399999999    0.3962490100000000 O
