Li2 As2 S4
1.0
   5.8675327700000004   -2.6041605699999999   -0.0187604600000000
   5.8675327700000004    2.6041605699999999   -0.0187604600000000
  -2.0945825500000002    0.0000000000000000    4.7903316399999998
Li As S
2 2 4
direct
   0.2619241000000000    0.7451789100000000    0.5108029500000000 Li
   0.7451789100000000    0.2619241000000000    0.0108029500000000 Li
   0.0123902800000000    0.5529668400000000    0.8255762400000000 As
   0.5529668400000000    0.0123902800000000    0.3255762400000000 As
   0.9756223100000000    0.5149925900000000    0.2377720400000000 S
   0.5149925900000000    0.9756223100000000    0.7377720400000000 S
   0.2297537200000000    0.7443302500000000    0.9911397800000000 S
   0.7443302500000000    0.2297537200000000    0.4911397800000000 S
