Na10 Mo2 N2 O8
1.0
   4.8702244099999996   -2.8623649800000002    0.0000000000000000
   4.8702244099999996    2.8623649800000002    0.0000000000000000
   0.0000000000000000    0.0000000000000000   10.6097298299999991
Na Mo N O
10 2 2 8
direct
   0.1911507500000000    0.1911507500000000    0.5000000000000000 Na
   0.1911507500000000    0.1911507500000000    0.0000000000000000 Na
   0.8300287100000000    0.5480933000000000    0.7500000000000000 Na
   0.4519067000000000    0.1699712900000000    0.7500000000000000 Na
   0.5000000000000000    0.5000000000000000    0.0000000000000000 Na
   0.8088492500000000    0.8088492500000000    0.5000000000000000 Na
   0.8088492500000000    0.8088492500000000    0.0000000000000000 Na
   0.5000000000000000    0.5000000000000000    0.5000000000000000 Na
   0.1699712900000000    0.4519067000000000    0.2500000000000000 Na
   0.5480933000000000    0.8300287100000000    0.2500000000000000 Na
   0.7913883400000000    0.2086116600000000    0.2500000000000000 Mo
   0.2086116600000000    0.7913883400000000    0.7500000000000000 Mo
   0.0975907900000000    0.9024092100000000    0.2500000000000000 N
   0.9024092100000000    0.0975907900000000    0.7500000000000000 N
   0.4445988800000000    0.8339764100000000    0.6260630200000000 O
   0.1660235900000000    0.5554011200000000    0.6260630200000000 O
   0.5554011200000000    0.1660235900000000    0.3739369800000000 O
   0.8339764100000000    0.4445988800000000    0.3739369800000000 O
   0.8339764100000000    0.4445988800000000    0.1260630200000000 O
   0.5554011200000000    0.1660235900000000    0.1260630200000000 O
   0.1660235900000000    0.5554011200000000    0.8739369800000000 O
   0.4445988800000000    0.8339764100000000    0.8739369800000000 O
