Ca4 Te8 O20
1.0
   9.3788066899999993    0.0000000000000000   -0.0645978600000000
   0.0000000000000000    5.6736668500000000    0.0000000000000000
  -4.5571349300000001    0.0000000000000000   10.0248475700000004
Ca Te O
4 8 20
direct
   0.0203894700000000    0.1993971900000000    0.6393526000000000 Ca
   0.9796105300000000    0.6993971900000000    0.8606474000000000 Ca
   0.9796105300000000    0.8006028100000000    0.3606474000000000 Ca
   0.0203894700000000    0.3006028100000000    0.1393526000000000 Ca
   0.2653879800000000    0.8200909100000000    0.2249378600000000 Te
   0.7346120200000000    0.3200909100000000    0.2750621400000000 Te
   0.7346120200000000    0.1799090900000000    0.7750621400000000 Te
   0.2653879800000000    0.6799090900000000    0.7249378600000000 Te
   0.3484056700000000    0.3522847200000000    0.4887939400000000 Te
   0.6515943300000000    0.8522847200000000    0.0112060600000000 Te
   0.6515943300000000    0.6477152800000000    0.5112060600000000 Te
   0.3484056700000000    0.1477152800000000    0.9887939400000000 Te
   0.4796224500000000    0.8944487900000000    0.0941920600000000 O
   0.5203775500000000    0.3944487900000000    0.4058079400000000 O
   0.5203775500000000    0.1055512100000000    0.9058079400000000 O
   0.4796224500000000    0.6055512100000000    0.5941920600000000 O
   0.2013648800000000    0.5297357300000000    0.3445981800000000 O
   0.7986351200000000    0.0297357300000000    0.1554018200000000 O
   0.7986351200000000    0.4702642700000000    0.6554018200000000 O
   0.2013648800000000    0.9702642700000000    0.8445981800000000 O
   0.2258681600000000    0.0959678400000000    0.0996639900000000 O
   0.7741318400000000    0.5959678400000000    0.4003360100000000 O
   0.7741318400000000    0.9040321600000000    0.9003360100000000 O
   0.2258681600000000    0.4040321600000000    0.5996639900000000 O
   0.1462369500000000    0.4993005600000000    0.7929587000000000 O
   0.8537630500000000    0.9993005600000000    0.7070413000000000 O
   0.8537630500000000    0.5006994400000000    0.2070413000000000 O
   0.1462369500000000    0.0006994400000000    0.2929587000000000 O
   0.1154408700000000    0.8541571600000000    0.5869535800000000 O
   0.8845591300000000    0.3541571600000000    0.9130464200000000 O
   0.8845591300000000    0.1458428400000000    0.4130464200000000 O
   0.1154408700000000    0.6458428400000000    0.0869535800000000 O
