Cs2 Ti1 W3 O12
1.0
   3.6462163300000001    2.1051439799999998    5.9233350700000003
  -3.6462163300000001    2.1051439799999998    5.9233350700000003
   0.0000000000000000   -4.2102879700000004    5.9233350700000003
Cs Ti W O
2 1 3 12
direct
   0.6297044700000000    0.6297044700000000    0.6297044700000000 Cs
   0.3702955300000000    0.3702955300000000    0.3702955300000000 Cs
   0.0000000000000000    0.0000000000000000    0.0000000000000000 Ti
   0.5000000000000000    0.0000000000000000    0.0000000000000000 W
   0.0000000000000000    0.0000000000000000    0.5000000000000000 W
   0.0000000000000000    0.5000000000000000    0.0000000000000000 W
   0.9406343200000000    0.3113359200000000    0.3113359200000000 O
   0.3167952100000000    0.9395180900000000    0.9395180900000000 O
   0.3113359200000000    0.3113359200000000    0.9406343200000000 O
   0.9395180900000000    0.9395180900000000    0.3167952100000000 O
   0.9395180900000000    0.3167952100000000    0.9395180900000000 O
   0.3113359200000000    0.9406343200000000    0.3113359200000000 O
   0.0593656800000000    0.6886640800000000    0.6886640800000000 O
   0.6832047900000000    0.0604819100000000    0.0604819100000000 O
   0.6886640800000000    0.6886640800000000    0.0593656800000000 O
   0.0604819100000000    0.0604819100000000    0.6832047900000000 O
   0.0604819100000000    0.6832047900000000    0.0604819100000000 O
   0.6886640800000000    0.0593656800000000    0.6886640800000000 O
