Sr2 Be6 O8
1.0
   4.5894289700000002   -0.0000000000000000    0.0000000000000000
  -2.2947139900000000    3.9745614200000001    0.0000000000000000
   0.0000000000000000    0.0000000000000000    8.9106584200000007
Sr Be O
2 6 8
direct
   0.6666670000000000    0.3333330000000000    0.7500000000000000 Sr
   0.3333330000000000    0.6666670000000000    0.2500000000000000 Sr
   0.0000000000000000    0.0000000000000000    0.0000000000000000 Be
   0.0000000000000000    0.0000000000000000    0.5000000000000000 Be
   0.3333330000000000    0.6666670000000000    0.5711112000000000 Be
   0.3333330000000000    0.6666670000000000    0.9288888000000000 Be
   0.6666670000000000    0.3333330000000000    0.4288888000000000 Be
   0.6666670000000000    0.3333330000000000    0.0711112000000000 Be
   0.6649275700000000    0.0000000000000000    0.5000000000000000 O
   0.3350724300000000    0.3350724300000000    0.0000000000000000 O
   0.6666670000000000    0.3333330000000000    0.2500000000000000 O
   0.3333330000000000    0.6666670000000000    0.7500000000000000 O
   0.6649275700000000    0.0000000000000000    0.0000000000000000 O
   0.3350724300000000    0.3350724300000000    0.5000000000000000 O
   1.0000000000000000    0.6649275700000000    0.5000000000000000 O
   1.0000000000000000    0.6649275700000000    0.0000000000000000 O
