Cs4 Si2 Se8
1.0
   7.5668826800000000   -3.7801101699999999    0.0249650600000000
   7.5668826800000000    3.7801101699999999    0.0249650600000000
  -5.3148662800000004    0.0000000000000000    8.4938356200000005
Cs Si Se
4 2 8
direct
   0.4081104900000000    0.4081104900000000    0.1434883800000000 Cs
   0.8414239900000000    0.8414239900000000    0.7148304500000000 Cs
   0.5918895100000000    0.5918895100000000    0.8565116200000000 Cs
   0.1585760100000000    0.1585760100000000    0.2851695500000000 Cs
   0.1549432600000000    0.1549432600000000    0.7004004900000000 Si
   0.8450567400000000    0.8450567400000000    0.2995995100000000 Si
   0.6883368100000000    0.6883368100000000    0.2714912700000000 Se
   0.3356069100000000    0.8434680200000000    0.5374572600000000 Se
   0.3116631900000000    0.3116631900000000    0.7285087300000000 Se
   0.1565319800000000    0.6643930900000000    0.4625427400000000 Se
   0.1249834100000000    0.1249834100000000    0.8935917900000000 Se
   0.8750165900000000    0.8750165900000000    0.1064082100000000 Se
   0.6643930900000000    0.1565319800000000    0.4625427400000000 Se
   0.8434680200000000    0.3356069100000000    0.5374572600000000 Se
