Li4 Ta4 Si4 O20
1.0
   7.4590580500000003    0.0000000000000000    0.0041249500000000
   0.0000000000000000    7.9554241699999997    0.0000000000000000
  -3.6580799499999999    0.0000000000000000    6.5079357499999997
Li Ta Si O
4 4 4 20
direct
   0.2508001200000000    0.4327232800000000    0.7005285100000000 Li
   0.7491998800000000    0.5672767200000000    0.2994714900000000 Li
   0.2508001200000000    0.0672767200000000    0.2005285100000000 Li
   0.7491998800000000    0.9327232800000000    0.7994714900000000 Li
   0.2511075300000000    0.7439138800000000    0.9992993700000000 Ta
   0.2511075300000000    0.7560861200000000    0.4992993700000000 Ta
   0.7488924700000000    0.2560861200000000    0.0007006300000000 Ta
   0.7488924700000000    0.2439138800000000    0.5007006300000000 Ta
   0.7493961500000000    0.6090096000000000    0.7414691100000000 Si
   0.7493961500000000    0.8909904000000000    0.2414691100000000 Si
   0.2506038500000000    0.1090096000000000    0.7585308900000000 Si
   0.2506038500000000    0.3909904000000000    0.2585308900000000 Si
   0.5577227200000000    0.7579225500000000    0.1457384400000000 O
   0.7508809600000000    0.3278148300000000    0.2509560600000000 O
   0.0560950100000000    0.2615361700000000    0.1476118800000000 O
   0.2491190400000000    0.6721851700000000    0.7490439400000000 O
   0.2655009800000000    0.5123170600000000    0.0901159900000000 O
   0.2407588100000000    0.9922892600000000    0.9339340900000001 O
   0.7344990200000000    0.4876829400000000    0.9098840100000000 O
   0.0560950100000000    0.2384638300000000    0.6476118800000000 O
   0.5577227200000000    0.7420774500000000    0.6457384400000000 O
   0.2655009800000000    0.9876829400000000    0.5901159900000000 O
   0.9439049900000001    0.7615361700000000    0.3523881200000000 O
   0.7592411900000000    0.4922892600000000    0.5660659099999999 O
   0.2491190400000000    0.8278148300000000    0.2490439400000000 O
   0.2407588100000000    0.5077107400000000    0.4339340900000000 O
   0.7508809600000000    0.1721851700000000    0.7509560600000000 O
   0.7344990200000000    0.0123170600000000    0.4098840100000000 O
   0.9439049900000001    0.7384638300000000    0.8523881200000000 O
   0.7592411900000000    0.0077107400000000    0.0660659100000000 O
   0.4422772800000000    0.2420774500000000    0.8542615600000000 O
   0.4422772800000000    0.2579225500000000    0.3542615600000000 O
