Ga8 Bi4 Se16
1.0
   7.6931125900000001    0.0000000000000000    0.0000000000000000
   0.0000000000000000    7.6931125900000001    0.0000000000000000
   0.0000000000000000    0.0000000000000000   12.4914222600000002
Ga Bi Se
8 4 16
direct
   0.5000000000000000    0.0000000000000000    0.7500000000000000 Ga
   0.0000000000000000    0.5000000000000000    0.7500000000000000 Ga
   0.0000000000000000    0.5000000000000000    0.0000000000000000 Ga
   0.0000000000000000    0.5000000000000000    0.2500000000000000 Ga
   0.5000000000000000    0.0000000000000000    0.5000000000000000 Ga
   0.5000000000000000    0.0000000000000000    0.2500000000000000 Ga
   0.0000000000000000    0.5000000000000000    0.5000000000000000 Ga
   0.5000000000000000    0.0000000000000000    0.0000000000000000 Ga
   0.0000000000000000    0.0000000000000000    0.1264791700000000 Bi
   0.0000000000000000    0.0000000000000000    0.8735208300000000 Bi
   0.5000000000000000    0.5000000000000000    0.3735208300000000 Bi
   0.5000000000000000    0.5000000000000000    0.6264791700000000 Bi
   0.6619071900000000    0.8204190600000000    0.8755247500000000 Se
   0.1619071900000000    0.3204190600000000    0.6244752500000000 Se
   0.8380928100000000    0.6795809400000000    0.6244752500000000 Se
   0.1619071900000000    0.6795809400000000    0.3755247500000000 Se
   0.6795809400000000    0.1619071900000000    0.6244752500000000 Se
   0.8204190600000000    0.3380928100000000    0.8755247500000000 Se
   0.6795809400000000    0.8380928100000000    0.3755247500000000 Se
   0.6619071900000000    0.1795809400000000    0.1244752500000000 Se
   0.1795809400000000    0.3380928100000000    0.1244752500000000 Se
   0.3204190600000000    0.8380928100000000    0.6244752500000000 Se
   0.1795809400000000    0.6619071900000000    0.8755247500000000 Se
   0.8380928100000000    0.3204190600000000    0.3755247500000000 Se
   0.8204190600000000    0.6619071900000000    0.1244752500000000 Se
   0.3380928100000000    0.1795809400000000    0.8755247500000000 Se
   0.3204190600000000    0.1619071900000000    0.3755247500000000 Se
   0.3380928100000000    0.8204190600000000    0.1244752500000000 Se
