Tl4 V4 Se4 O20
1.0
   7.0490724100000000    0.0000000000000000    0.0000000000000000
   0.0000000000000000    8.5985051299999995    0.0000000000000000
   0.0000000000000000    0.0000000000000000    7.8558692800000003
Tl V Se O
4 4 4 20
direct
   0.9737060100000000    0.3946000600000000    0.8153935000000000 Tl
   0.0262939900000000    0.6053999400000000    0.3153935000000000 Tl
   0.4737060100000000    0.1053999400000000    0.8153935000000000 Tl
   0.5262939900000000    0.8946000600000000    0.3153935000000000 Tl
   0.7884491400000000    0.7574757200000000    0.7055406600000000 V
   0.2115508600000000    0.2425242800000000    0.2055406600000000 V
   0.2884491400000000    0.7425242800000000    0.7055406600000000 V
   0.7115508600000000    0.2574757200000000    0.2055406600000000 V
   0.9640210900000000    0.9778710400000000    0.9990025300000001 Se
   0.0359789100000000    0.0221289600000000    0.4990025300000000 Se
   0.4640210900000000    0.5221289600000000    0.9990025300000001 Se
   0.5359789100000000    0.4778710400000000    0.4990025300000000 Se
   0.8818690900000000    0.8713521100000000    0.4705334700000000 O
   0.1181309100000000    0.1286478900000000    0.9705334700000000 O
   0.3818690900000000    0.6286478900000000    0.4705334700000000 O
   0.6181309100000000    0.3713521100000000    0.9705334700000000 O
   0.7466048600000000    0.5733772300000000    0.5635838300000000 O
   0.2533951400000000    0.4266227700000000    0.0635838300000000 O
   0.2466048600000000    0.9266227700000000    0.5635838300000000 O
   0.7533951400000000    0.0733772300000000    0.0635838300000000 O
   0.8940655100000000    0.9560038300000000    0.7850232400000000 O
   0.1059344900000000    0.0439961700000000    0.2850232400000000 O
   0.3940655100000000    0.5439961700000000    0.7850232400000000 O
   0.6059344900000000    0.4560038300000000    0.2850232400000000 O
   0.5614983800000000    0.8229612400000000    0.6712380600000000 O
   0.4385016200000000    0.1770387600000000    0.1712380600000000 O
   0.0614983800000000    0.6770387600000000    0.6712380600000000 O
   0.9385016200000000    0.3229612400000000    0.1712380600000000 O
   0.7783998100000000    0.6793364100000000    0.8982347200000000 O
   0.2216001900000000    0.3206635900000000    0.3982347200000000 O
   0.2783998100000000    0.8206635900000000    0.8982347200000000 O
   0.7216001900000000    0.1793364100000000    0.3982347200000000 O
