Rb12 Te4 O18
1.0
   6.0171232699999999   -6.3347889100000003    0.0028857900000000
   6.0171232699999999    6.3347889100000003    0.0028857900000000
  -5.9999846400000001    0.0000000000000000    9.2017987699999999
Rb Te O
12 4 18
direct
   0.6955963800000000    0.4976990300000000    0.4749612500000000 Rb
   0.5023009700000000    0.3044036200000000    0.0250387500000000 Rb
   0.3044036200000000    0.5023009700000000    0.5250387500000000 Rb
   0.4976990300000000    0.6955963800000000    0.9749612500000000 Rb
   0.7053777800000000    0.9997092600000000    0.4705990800000000 Rb
   0.0002907400000000    0.2946222200000000    0.0294009200000000 Rb
   0.2946222200000000    0.0002907400000000    0.5294009200000001 Rb
   0.9997092600000000    0.7053777800000000    0.9705990799999999 Rb
   0.3212688000000000    0.0970724000000000    0.2373731900000000 Rb
   0.9029276000000001    0.6787312000000000    0.2626268100000000 Rb
   0.6787312000000000    0.9029276000000001    0.7626268100000000 Rb
   0.0970724000000000    0.3212688000000000    0.7373731900000000 Rb
   0.6262267200000000    0.3737732800000000    0.7500000000000000 Te
   0.3737732800000000    0.6262267200000000    0.2500000000000000 Te
   0.8534908200000000    0.1465091800000000    0.2500000000000000 Te
   0.1465091800000000    0.8534908200000000    0.7500000000000000 Te
   0.6293181000000000    0.0928641200000000    0.2135922600000000 O
   0.9071358800000000    0.3706819000000000    0.2864077400000000 O
   0.3706819000000000    0.9071358800000000    0.7864077400000000 O
   0.0928641200000000    0.6293181000000000    0.7135922600000000 O
   0.0127867900000000    0.8859392500000000    0.5904405600000000 O
   0.1140607500000000    0.9872132100000000    0.9095594400000000 O
   0.9872132100000000    0.1140607500000000    0.4095594400000000 O
   0.8859392500000000    0.0127867900000000    0.0904405600000000 O
   0.5847134600000000    0.6684905300000000    0.2432243500000000 O
   0.3315094700000000    0.4152865400000000    0.2567756500000000 O
   0.4152865400000000    0.3315094700000000    0.7567756500000000 O
   0.6684905300000000    0.5847134600000000    0.7432243500000000 O
   0.2611430500000000    0.5189056900000000    0.0393723900000000 O
   0.4810943100000000    0.7388569500000000    0.4606276100000000 O
   0.7388569500000000    0.4810943100000000    0.9606276100000000 O
   0.5189056900000000    0.2611430500000000    0.5393723900000000 O
   0.7765097500000000    0.2234902500000000    0.7500000000000000 O
   0.2234902500000000    0.7765097500000000    0.2500000000000000 O
