Mg2 C2 O6
1.0
   2.3242131700000002    1.3418854200000001    4.9616546499999998
  -2.3242131700000002    1.3418854200000001    4.9616546499999998
   0.0000000000000000   -2.6837708400000002    4.9616546499999998
Mg C O
2 2 6
direct
   0.5000000000000000    0.5000000000000000    0.5000000000000000 Mg
   0.0000000000000000    0.0000000000000000    0.0000000000000000 Mg
   0.7500000000000000    0.7500000000000000    0.7500000000000000 C
   0.2500000000000000    0.2500000000000000    0.2500000000000000 C
   0.4719121000000000    0.7500000000000000    0.0280879000000000 O
   0.7500000000000000    0.0280879000000000    0.4719121000000000 O
   0.9719120999999999    0.5280879000000001    0.2500000000000000 O
   0.5280879000000001    0.2500000000000000    0.9719120999999999 O
   0.2500000000000000    0.9719120999999999    0.5280879000000001 O
   0.0280879000000000    0.4719121000000000    0.7500000000000000 O
