Rb4 Na2 N6 O18
1.0
   5.3136828200000004    0.0000000000000000    0.0000000000000000
   0.0000000000000000    8.9699472999999994    0.0000000000000000
   0.0000000000000000    0.0000000000000000    9.5339912200000008
Rb Na N O
4 2 6 18
direct
   0.5000000000000000    0.9242320400000000    0.8286641500000000 Rb
   0.5000000000000000    0.0757679600000000    0.3286641500000000 Rb
   0.5000000000000000    0.6236410600000000    0.1570439500000000 Rb
   0.5000000000000000    0.3763589400000000    0.6570439500000000 Rb
   0.0000000000000000    0.3039428400000000    0.1205991900000000 Na
   0.0000000000000000    0.6960571600000000    0.6205991900000000 Na
   0.0000000000000000    0.9499227400000000    0.1256021300000000 N
   0.0000000000000000    0.0500772600000000    0.6256021300000000 N
   0.0000000000000000    0.5898917700000000    0.9176221600000000 N
   0.0000000000000000    0.4101082300000000    0.4176221600000000 N
   0.5000000000000000    0.7456292300000000    0.4836439000000000 N
   0.5000000000000000    0.2543707700000000    0.9836439000000000 N
   0.0000000000000000    0.0650133900000000    0.2039150700000000 O
   0.0000000000000000    0.9349866100000001    0.7039150700000000 O
   0.7937333500000000    0.8942688300000000    0.0881643600000000 O
   0.2062666500000000    0.8942688300000000    0.0881643600000000 O
   0.2062666500000000    0.1057311700000000    0.5881643600000001 O
   0.7937333500000000    0.1057311700000000    0.5881643600000001 O
   0.0000000000000000    0.5451007300000000    0.0436700600000000 O
   0.0000000000000000    0.4548992700000000    0.5436700600000000 O
   0.2054315600000000    0.6124886899999999    0.8550404300000000 O
   0.7945684400000000    0.6124886899999999    0.8550404300000000 O
   0.7945684400000000    0.3875113100000000    0.3550404300000000 O
   0.2054315600000000    0.3875113100000000    0.3550404300000000 O
   0.5000000000000000    0.6981923600000000    0.6088992000000000 O
   0.5000000000000000    0.3018076400000000    0.1088992000000000 O
   0.7064748800000000    0.7691469900000000    0.4220553100000000 O
   0.2935251200000000    0.7691469900000000    0.4220553100000000 O
   0.2935251200000000    0.2308530100000000    0.9220553100000000 O
   0.7064748800000000    0.2308530100000000    0.9220553100000000 O
