Na4 Sc4 Ti4 O16
1.0
   3.0443422500000001    0.0000000000000000    0.0000000000000000
   0.0000000000000000   10.9081976399999991    0.0000000000000000
   0.0000000000000000    0.0000000000000000    9.2742680699999998
Na Sc Ti O
4 4 4 16
direct
   0.5000000000000000    0.1003436800000000    0.2523852600000000 Na
   0.5000000000000000    0.8996563200000000    0.7523852599999999 Na
   0.0000000000000000    0.4015245100000000    0.7393641100000000 Na
   0.0000000000000000    0.5984754900000000    0.2393641100000000 Na
   0.5000000000000000    0.8585196300000000    0.4263316100000000 Sc
   0.5000000000000000    0.1414803700000000    0.9263316100000000 Sc
   0.5000000000000000    0.3510602400000000    0.4215159200000000 Sc
   0.5000000000000000    0.6489397600000000    0.9215159200000000 Sc
   0.0000000000000000    0.6352423699999999    0.5612664900000000 Ti
   0.0000000000000000    0.3647576300000000    0.0612664900000000 Ti
   0.0000000000000000    0.1406480200000000    0.5823142100000001 Ti
   0.0000000000000000    0.8593519800000000    0.0823142100000000 Ti
   0.5000000000000000    0.3993600900000000    0.1998338300000000 O
   0.5000000000000000    0.6006399100000001    0.6998338300000000 O
   0.0000000000000000    0.0882824800000000    0.7870857200000000 O
   0.0000000000000000    0.9117175199999999    0.2870857200000000 O
   0.5000000000000000    0.7417377800000000    0.1248466100000000 O
   0.5000000000000000    0.2582622200000000    0.6248466100000000 O
   0.0000000000000000    0.7775861600000000    0.8921809600000000 O
   0.0000000000000000    0.2224138400000000    0.3921809600000000 O
   0.5000000000000000    0.6658700700000000    0.4219647200000000 O
   0.5000000000000000    0.3341299300000000    0.9219647200000000 O
   0.0000000000000000    0.8133755800000000    0.5729872800000000 O
   0.0000000000000000    0.1866244200000000    0.0729872800000000 O
   0.5000000000000000    0.9684474000000000    0.0292731400000000 O
   0.5000000000000000    0.0315526000000000    0.5292731400000000 O
   0.0000000000000000    0.5351631500000000    0.9886501500000000 O
   0.0000000000000000    0.4648368500000000    0.4886501500000000 O
