Cs8 C8 O16
1.0
   6.5422914900000002    0.0000000000000000   -0.0496949100000000
   0.0000000000000000   10.8926463099999999    0.0000000000000000
  -1.0923300199999999    0.0000000000000000    8.5163284400000006
Cs C O
8 8 16
direct
   0.2874805600000000    0.7974032800000000    0.4819825900000000 Cs
   0.2874805600000000    0.7025967200000000    0.9819825900000000 Cs
   0.7125194400000000    0.2025967200000000    0.5180174100000000 Cs
   0.7697227100000000    0.9123243000000000    0.1666765300000000 Cs
   0.7697227100000000    0.5876757000000000    0.6666765300000000 Cs
   0.7125194400000000    0.2974032800000000    0.0180174100000000 Cs
   0.2302772900000000    0.0876757000000000    0.8333234700000000 Cs
   0.2302772900000000    0.4123243000000000    0.3333234700000000 Cs
   0.8326026200000000    0.8912921700000001    0.6646388600000001 C
   0.6904819900000000    0.9437461600000000    0.7751407900000000 C
   0.8326026200000000    0.6087078299999999    0.1646388600000000 C
   0.1673973800000000    0.1087078300000000    0.3353611400000000 C
   0.3095180100000000    0.4437461600000000    0.7248592100000000 C
   0.1673973800000000    0.3912921700000000    0.8353611399999999 C
   0.3095180100000000    0.0562538400000000    0.2248592100000000 C
   0.6904819900000000    0.5562538400000000    0.2751407900000000 C
   0.2699278600000000    0.9490402400000000    0.1697016900000000 O
   0.2699278600000000    0.5509597600000000    0.6697016900000000 O
   0.7300721400000000    0.4490402400000000    0.3302983100000000 O
   0.7300721400000000    0.0509597600000000    0.8302983100000000 O
   0.7705775300000000    0.8938287200000000    0.5183304800000000 O
   0.5447187200000000    0.6251279800000000    0.3063048500000000 O
   0.0019567100000000    0.8464089100000000    0.7307713000000000 O
   0.9980432900000000    0.1535910900000000    0.2692287000000000 O
   0.4552812800000000    0.1251279800000000    0.1936951500000000 O
   0.2294224700000000    0.3938287200000000    0.9816695200000000 O
   0.7705775300000000    0.6061712800000000    0.0183304800000000 O
   0.2294224700000000    0.1061712800000000    0.4816695200000000 O
   0.0019567100000000    0.6535910900000000    0.2307713000000000 O
   0.4552812800000000    0.3748720200000000    0.6936951500000000 O
   0.9980432900000000    0.3464089100000000    0.7692287000000000 O
   0.5447187200000000    0.8748720200000000    0.8063048500000000 O
