Nb4 O10
1.0
   6.4917444599999996   -2.4691230800000001    0.0030040200000000
   6.4917444599999996    2.4691230800000001    0.0030040200000000
  -1.3756745399999999    0.0000000000000000    5.4289018300000000
Nb O
4 10
direct
   0.3850432900000000    0.8962734400000000    0.7642178400000000 Nb
   0.1037265600000000    0.6149567100000000    0.7357821600000000 Nb
   0.6149567100000000    0.1037265600000000    0.2357821600000000 Nb
   0.8962734400000000    0.3850432900000000    0.2642178400000000 Nb
   0.7217146700000000    0.8675662700000000    0.8731593200000000 O
   0.1324337300000000    0.2782853300000000    0.6268406800000000 O
   0.2782853300000000    0.1324337300000000    0.1268406800000000 O
   0.8675662700000000    0.7217146700000000    0.3731593200000000 O
   0.9004964000000000    0.0995036000000000    0.2500000000000000 O
   0.0995036000000000    0.9004964000000000    0.7500000000000000 O
   0.3352777900000000    0.4456968000000000    0.0267536500000000 O
   0.5543032000000000    0.6647222100000000    0.4732463500000000 O
   0.6647222100000000    0.5543032000000000    0.9732463500000000 O
   0.4456968000000000    0.3352777900000000    0.5267536500000000 O
