Li4 Ga4 Se8 O24
1.0
  -5.2906613499999997    5.2906613499999997    4.9422505100000000
   5.2906613499999997   -5.2906613499999997    4.9422505100000000
   5.2906613499999997    5.2906613499999997   -4.9422505100000000
Li Ga Se O
4 4 8 24
direct
   0.4392279000000000    0.1250000000000000    0.8142279000000000 Li
   0.3107721000000000    0.6250000000000000    0.1857721000000000 Li
   0.3750000000000000    0.5607721000000000    0.6857721000000000 Li
   0.8750000000000000    0.6892279000000000    0.3142279000000000 Li
   0.1627892300000000    0.1250000000000000    0.5377892300000000 Ga
   0.5872107700000000    0.6250000000000000    0.4622107700000000 Ga
   0.3750000000000000    0.8372107700000000    0.9622107700000000 Ga
   0.8750000000000000    0.4127892300000000    0.0377892300000000 Ga
   0.6053420800000000    0.3847498600000000    0.6714360900000000 Se
   0.0366862200000000    0.8652501400000000    0.7205912100000000 Se
   0.7133137800000000    0.9339059900000000    0.3285639100000000 Se
   0.1446579200000000    0.3160940100000000    0.2794087900000000 Se
   0.0660940100000000    0.3946579200000000    0.7794087900000000 Se
   0.1347498600000000    0.8553420800000000    0.1714360900000000 Se
   0.6152501400000000    0.2866862200000000    0.2205912100000000 Se
   0.6839059900000000    0.9633137800000000    0.8285639100000000 Se
   0.4303822200000000    0.2984398800000000    0.7237376300000000 O
   0.1752987500000000    0.9515601200000000    0.6319423400000000 O
   0.5747012500000001    0.7066435900000000    0.2762623700000000 O
   0.3196177800000000    0.5433564100000000    0.3680576600000000 O
   0.2933564100000000    0.5696177800000000    0.8680576600000000 O
   0.0484398800000000    0.6803822200000000    0.2237376300000000 O
   0.7015601200000000    0.4252987500000000    0.1319423400000000 O
   0.4566435900000000    0.8247012500000001    0.7762623700000000 O
   0.5895842200000000    0.5687997800000000    0.6602005200000000 O
   0.8414007400000000    0.6812002200000000    0.5207844400000000 O
   0.9085992600000000    0.9293837000000000    0.3397994800000000 O
   0.1604157800000000    0.3206163000000000    0.4792155600000000 O
   0.0706163000000000    0.4104157800000000    0.9792155600000000 O
   0.3187997800000000    0.8395842200000000    0.1602005200000000 O
   0.4312002200000000    0.0914007400000000    0.0207844400000000 O
   0.6793837000000000    0.1585992600000000    0.8397994800000000 O
   0.7960361400000000    0.5073002599999999    0.8782500100000000 O
   0.1209497500000000    0.7426997400000001    0.7887358799999999 O
   0.6290502500000000    0.9177861400000000    0.1217499900000000 O
   0.9539638600000000    0.3322138600000000    0.2112641200000000 O
   0.0822138600000000    0.2039638600000000    0.7112641200000001 O
   0.2573002600000000    0.0460361400000000    0.3782500100000000 O
   0.4926997400000000    0.3709497500000000    0.2887358800000000 O
   0.6677861400000000    0.8790502500000000    0.6217499900000000 O
