Cs2 Ta2 Ge2 S10
1.0
   6.9847615500000000    0.0126885400000000    0.0212657700000000
   1.9582818000000000    6.9746133800000001   -0.0619989500000000
   2.0906000100000002    3.0696602700000000    8.5619721700000007
Cs Ta Ge S
2 2 2 10
direct
   0.6075439100000000    0.3581074700000000    0.3101765000000000 Cs
   0.3924560900000000    0.6418925300000000    0.6898235000000000 Cs
   0.2481356200000000    0.0020938100000000    0.0028595600000000 Ta
   0.7518643800000000    0.9979061900000000    0.9971404400000000 Ta
   0.9762395400000000    0.7042121700000000    0.3726841600000000 Ge
   0.0237604600000000    0.2957878300000000    0.6273158400000000 Ge
   0.0697104700000000    0.7499114000000000    0.0177814500000000 S
   0.4303725900000000    0.2251913700000000    0.0342648100000000 S
   0.6824278300000000    0.8625220700000000    0.2903934500000000 S
   0.2074638100000000    0.8910598199999999    0.2913884800000000 S
   0.0833266600000000    0.3850235100000000    0.3619470800000000 S
   0.9166733400000000    0.6149764900000000    0.6380529200000000 S
   0.7925361900000000    0.1089401800000000    0.7086115200000001 S
   0.3175721700000000    0.1374779300000000    0.7096065499999999 S
   0.5696274099999999    0.7748086300000000    0.9657351900000000 S
   0.9302895300000000    0.2500886000000000    0.9822185500000000 S
