Rb6 P6 Se18
1.0
   7.3449316299999996    0.0000000200000000    0.0000000000000000
  -3.6724662900000000    6.3608976799999999    0.0000000000000000
   0.0000000000000000    0.0000000000000000   19.1550442499999996
Rb P Se
6 6 18
direct
   0.5749275100000000    0.2648603600000000    0.2488191000000000 Rb
   0.3100671500000000    0.7351396400000000    0.4178479000000000 Rb
   0.4250724900000000    0.6899328500000000    0.0845139000000000 Rb
   0.7351396400000000    0.3100671500000000    0.5821521000000000 Rb
   0.6899328500000000    0.4250724900000000    0.9154861000000000 Rb
   0.2648603600000000    0.5749275100000000    0.7511809000000000 Rb
   0.9247721400000000    0.8888740300000000    0.7198206900000000 P
   0.1111259700000000    0.0358981100000000    0.0531546900000000 P
   0.0358981100000000    0.1111259700000000    0.9468453100000001 P
   0.0752278600000000    0.9641018900000000    0.6135123099999999 P
   0.8888740300000000    0.9247721400000000    0.2801793100000000 P
   0.9641018900000000    0.0752278600000000    0.3864876900000000 P
   0.2999997800000000    0.2667680300000000    0.3912409000000000 Se
   0.7000002200000000    0.9667672600000000    0.9420921000000000 Se
   0.8361292200000000    0.7509749500000000    0.4455035800000000 Se
   0.1638707800000000    0.9148457300000000    0.8878294200000000 Se
   0.2197740200000000    0.7797225900000000    0.5903518700000000 Se
   0.0851542700000000    0.2490250500000000    0.2211634200000000 Se
   0.9667672600000000    0.7000002200000000    0.0579079000000000 Se
   0.2490250500000000    0.0851542700000000    0.7788365800000000 Se
   0.7797225900000000    0.2197740200000000    0.4096481300000000 Se
   0.7802259800000000    0.5599485800000000    0.7429811300000000 Se
   0.0332327400000000    0.7332319700000000    0.2754251000000000 Se
   0.4400514200000000    0.2202774100000000    0.0763151300000000 Se
   0.2202774100000000    0.4400514200000000    0.9236848700000000 Se
   0.2667680300000000    0.2999997800000000    0.6087591000000000 Se
   0.5599485800000000    0.7802259800000000    0.2570188700000000 Se
   0.9148457300000000    0.1638707800000000    0.1121705800000000 Se
   0.7509749500000000    0.8361292200000000    0.5544964200000000 Se
   0.7332319700000000    0.0332327400000000    0.7245749000000000 Se
