Nb4 P4 O20
1.0
  11.4588801399999998    0.0000000000000000    0.0000000000000000
   0.0000000000000000    5.4232131800000003    0.0000000000000000
   0.0000000000000000    0.0000000000000000    6.7949293300000004
Nb P O
4 4 20
direct
   0.9366581000000000    0.2500000000000000    0.1701618400000000 Nb
   0.0633419000000000    0.7500000000000000    0.8298381600000000 Nb
   0.5633419000000000    0.7500000000000000    0.6701618400000000 Nb
   0.4366581000000000    0.2500000000000000    0.3298381600000000 Nb
   0.6538558900000000    0.2500000000000000    0.9725333700000000 P
   0.3461441100000000    0.7500000000000000    0.0274666300000000 P
   0.8461441100000000    0.7500000000000000    0.4725333700000000 P
   0.1538558900000000    0.2500000000000000    0.5274666300000000 P
   0.7838581100000001    0.2500000000000000    0.0295824500000000 O
   0.2161418900000000    0.7500000000000000    0.9704175500000000 O
   0.7161418899999999    0.7500000000000000    0.5295824500000000 O
   0.2838581100000000    0.2500000000000000    0.4704175500000000 O
   0.3718749800000000    0.5167675800000000    0.1461313800000000 O
   0.6281250200000000    0.0167675800000000    0.8538686200000000 O
   0.1281250200000000    0.4832324200000000    0.6461313800000000 O
   0.8718749800000000    0.9832324200000000    0.3538686200000000 O
   0.0000000000000000    0.0000000000000000    0.0000000000000000 O
   0.0000000000000000    0.5000000000000000    0.0000000000000000 O
   0.5000000000000000    0.0000000000000000    0.5000000000000000 O
   0.5000000000000000    0.5000000000000000    0.5000000000000000 O
   0.0814501800000000    0.2500000000000000    0.3367369400000000 O
   0.9185498200000000    0.7500000000000000    0.6632630600000000 O
   0.4185498200000000    0.7500000000000000    0.8367369400000000 O
   0.5814501800000000    0.2500000000000000    0.1632630600000000 O
   0.1281250200000000    0.0167675800000000    0.6461313800000000 O
   0.8718749800000000    0.5167675800000000    0.3538686200000000 O
   0.3718749800000000    0.9832324200000000    0.1461313800000000 O
   0.6281250200000000    0.4832324200000000    0.8538686200000000 O
