Na2 Sr6 Nb2 O12
1.0
   4.8905089899999998    2.8235368400000000    3.8535530200000001
  -4.8905089899999998    2.8235368400000000    3.8535530200000001
   0.0000000000000000   -5.6470736800000001    3.8535530200000001
Na Sr Nb O
2 6 2 12
direct
   0.7500000000000000    0.7500000000000000    0.7500000000000000 Na
   0.2500000000000000    0.2500000000000000    0.2500000000000000 Na
   0.1015534500000000    0.3984465500000000    0.7500000000000000 Sr
   0.7500000000000000    0.1015534500000000    0.3984465500000000 Sr
   0.3984465500000000    0.7500000000000000    0.1015534500000000 Sr
   0.8984465500000000    0.6015534500000000    0.2500000000000000 Sr
   0.2500000000000000    0.8984465500000000    0.6015534500000000 Sr
   0.6015534500000000    0.2500000000000000    0.8984465500000000 Sr
   0.0000000000000000    0.0000000000000000    0.0000000000000000 Nb
   0.5000000000000000    0.5000000000000000    0.5000000000000000 Nb
   0.0539021700000000    0.7173534700000000    0.9257732400000001 O
   0.9257732400000001    0.0539021700000000    0.7173534700000000 O
   0.7173534700000000    0.9257732400000001    0.0539021700000000 O
   0.7826465300000000    0.4460978300000000    0.5742267599999999 O
   0.5742267599999999    0.7826465300000000    0.4460978300000000 O
   0.4460978300000000    0.5742267599999999    0.7826465300000000 O
   0.9460978300000000    0.2826465300000000    0.0742267600000000 O
   0.0742267600000000    0.9460978300000000    0.2826465300000000 O
   0.2826465300000000    0.0742267600000000    0.9460978300000000 O
   0.2173534700000000    0.5539021700000000    0.4257732400000000 O
   0.5539021700000000    0.4257732400000000    0.2173534700000000 O
   0.4257732400000000    0.2173534700000000    0.5539021700000000 O
