Re2 Ag2 O8
1.0
  -2.6704342300000001    2.6704343000000001    5.7097363400000001
   2.6704342300000001   -2.6704343000000001    5.7097363400000001
   2.6704343000000001    2.6704342300000001   -5.7097363400000001
Re Ag O
2 2 8
direct
   0.5000000000000000    0.5000000000000000    0.0000000000000000 Re
   0.2500000000000000    0.7500000000000000    0.5000000000000000 Re
   0.7500000000000000    0.2500000000000000    0.5000000000000000 Ag
   0.0000000000000000    0.0000000000000000    0.0000000000000000 Ag
   0.6457031800000000    0.5526216500000000    0.3721350300000000 O
   0.0235681400000000    0.8957031800000000    0.5930815300000000 O
   0.3026216500000000    0.4304866100000000    0.4069184700000000 O
   0.1804866100000000    0.2735681400000000    0.6278649700000000 O
   0.5695133900000000    0.9764318600000000    0.8721350300000000 O
   0.4473783500000000    0.8195133900000000    0.0930815300000000 O
   0.7264318600000000    0.3542968200000000    0.9069184700000000 O
   0.1042968200000000    0.6973783500000000    0.1278649700000000 O
