Na2 Ge1 Te1 O6
1.0
   2.5689033399999999    1.4831570000000001    5.2593255399999999
  -2.5689033499999998    1.4831569899999999    5.2593255399999999
   0.0000000100000000   -2.9663139900000002    5.2593255399999999
Na Ge Te O
2 1 1 6
direct
   0.1412232200000000    0.1412232200000000    0.1412232200000000 Na
   0.8604267500000000    0.8604267500000000    0.8604267500000000 Na
   0.3385878500000000    0.3385878500000000    0.3385878500000000 Ge
   0.6617992000000000    0.6617992000000000    0.6617992000000000 Te
   0.5404350900000000    0.9410271700000000    0.3083248100000000 O
   0.9410271700000000    0.3083248100000000    0.5404350900000000 O
   0.3083248100000000    0.5404350900000000    0.9410271700000000 O
   0.4565739500000000    0.0634378400000000    0.6881651200000000 O
   0.0634378400000000    0.6881651200000000    0.4565739500000000 O
   0.6881651200000000    0.4565739500000000    0.0634378400000000 O
