Cd1 Sb2 O6
1.0
   5.2789711400000003    0.0000000000000000    0.0000000000000000
  -2.6394855700000002    4.5717233999999998    0.0000000000000000
   0.0000000000000000    0.0000000000000000    4.8156770499999997
Cd Sb O
1 2 6
direct
   0.0000000000000000    0.0000000000000000    0.0000000000000000 Cd
   0.3333330000000000    0.6666670000000000    0.5000000000000000 Sb
   0.6666670000000000    0.3333330000000000    0.5000000000000000 Sb
   0.3653006500000000    0.3653006500000000    0.7266669600000000 O
   0.6346993500000000    0.0000000000000000    0.7266669600000000 O
   0.0000000000000000    0.6346993500000000    0.7266669600000000 O
   0.3653006500000000    0.0000000000000000    0.2733330400000000 O
   1.0000000000000000    0.3653006500000000    0.2733330400000000 O
   0.6346993500000000    0.6346993500000000    0.2733330400000000 O
