Ba1 Ti1 B2 O6
1.0
   2.5215492899999998    1.4558189200000000    5.5510523599999999
  -2.5215509699999998    1.4558160200000001    5.5510523599999999
   0.0000016700000000   -2.9116349399999999    5.5510523599999999
Ba Ti B O
1 1 2 6
direct
   0.0000000000000000    0.0000000000000000    0.0000000000000000 Ba
   0.5000000000000000    0.5000000000000000    0.5000000000000000 Ti
   0.7669219600000000    0.7669219600000000    0.7669219600000000 B
   0.2330780400000000    0.2330780400000000    0.2330780400000000 B
   0.0711179000000000    0.5507185600000000    0.6682326000000000 O
   0.6682326000000000    0.0711179000000000    0.5507185600000000 O
   0.4492814400000000    0.3317674000000000    0.9288821000000000 O
   0.9288821000000000    0.4492814400000000    0.3317674000000000 O
   0.3317674000000000    0.9288821000000000    0.4492814400000000 O
   0.5507185600000000    0.6682326000000000    0.0711179000000000 O
