Ca2 Mg2 Si4 O12
1.0
   4.8867877200000001   -4.4439068300000004    0.0166446900000000
   4.8867877200000001    4.4439068300000004    0.0166446900000000
  -1.4703388700000000    0.0000000000000000    5.0564897699999998
Ca Mg Si O
2 2 4 12
direct
   0.3007937100000000    0.6992062900000000    0.7500000000000000 Ca
   0.6992062900000000    0.3007937100000000    0.2500000000000000 Ca
   0.9091737700000000    0.0908262300000000    0.7500000000000000 Mg
   0.0908262300000000    0.9091737700000000    0.2500000000000000 Mg
   0.1919830400000000    0.3807633700000000    0.2315483600000000 Si
   0.8080169600000000    0.6192366300000000    0.7684516400000000 Si
   0.6192366300000000    0.8080169600000000    0.2684516400000000 Si
   0.3807633700000000    0.1919830400000000    0.7315483600000000 Si
   0.6304501500000000    0.6664952100000000    0.5023148000000000 O
   0.3335047900000000    0.3695498500000000    0.9976852000000000 O
   0.3695498500000000    0.3335047900000000    0.4976852000000000 O
   0.6664952100000000    0.6304501500000000    0.0023148000000000 O
   0.3851587900000000    0.8899720000000000    0.1767273100000000 O
   0.1100280000000000    0.6148412100000000    0.3232726900000000 O
   0.6148412100000000    0.1100280000000000    0.8232726900000000 O
   0.8899720000000000    0.3851587900000000    0.6767273100000000 O
   0.9741511400000000    0.7965352999999999    0.8573807800000000 O
   0.2034647000000000    0.0258488600000000    0.6426192200000000 O
   0.0258488600000000    0.2034647000000000    0.1426192200000000 O
   0.7965352999999999    0.9741511400000000    0.3573807800000000 O
