Ba4 Zr4 Se12
1.0
   8.9569878900000006    0.0000000000000000    0.0000000000000000
   0.0000000000000000    4.0431337899999997    0.0000000000000000
   0.0000000000000000    0.0000000000000000   14.9539867199999996
Ba Zr Se
4 4 12
direct
   0.0687642700000000    0.7500000000000000    0.6744554200000000 Ba
   0.9312357300000000    0.2500000000000000    0.3255445800000000 Ba
   0.5687642700000000    0.7500000000000000    0.8255445800000000 Ba
   0.4312357300000000    0.2500000000000000    0.1744554200000000 Ba
   0.1629224400000000    0.2500000000000000    0.9408068900000000 Zr
   0.8370775600000000    0.7500000000000000    0.0591931100000000 Zr
   0.6629224400000000    0.2500000000000000    0.5591931100000000 Zr
   0.3370775600000000    0.7500000000000000    0.4408068900000000 Zr
   0.3350374500000000    0.7500000000000000    0.0046290700000000 Se
   0.6649625500000000    0.2500000000000000    0.9953709300000000 Se
   0.8350374500000000    0.7500000000000000    0.4953709300000000 Se
   0.1649625500000000    0.2500000000000000    0.5046290700000000 Se
   0.0296012600000000    0.2500000000000000    0.1074682900000000 Se
   0.9703987400000000    0.7500000000000000    0.8925317100000000 Se
   0.5296012600000000    0.2500000000000000    0.3925317100000000 Se
   0.4703987400000000    0.7500000000000000    0.6074682900000000 Se
   0.2891741800000000    0.2500000000000000    0.7844317300000000 Se
   0.7108258200000001    0.7500000000000000    0.2155682700000000 Se
   0.7891741799999999    0.2500000000000000    0.7155682700000000 Se
   0.2108258200000000    0.7500000000000000    0.2844317300000000 Se
