Bi6 P4 Pb1 O20
1.0
   6.9692949999999998    0.0102360600000000   -0.0272719800000000
  -2.8510256699999998    7.0628339499999999    0.0129925300000000
  -0.5504661900000000   -3.1082916500000000    8.5427423099999995
Bi P Pb O
6 4 1 20
direct
   0.1899739900000000    0.6968826299999999    0.6703417300000000 Bi
   0.8100260100000000    0.3031173700000000    0.3296582700000000 Bi
   0.5601823300000000    0.2089125100000000    0.9110642100000000 Bi
   0.4398176700000000    0.7910874900000000    0.0889357900000000 Bi
   0.6713434300000000    0.8742515199999999    0.4963428300000000 Bi
   0.3286565700000000    0.1257484800000000    0.5036571700000000 Bi
   0.9502196000000001    0.7296054300000000    0.2456772000000000 P
   0.0497804000000000    0.2703945700000000    0.7543228000000000 P
   0.3480672600000000    0.4018523100000000    0.2594973000000000 P
   0.6519327400000000    0.5981476900000000    0.7405027000000000 P
   0.0000000000000000    0.0000000000000000    0.0000000000000000 Pb
   0.1265524700000000    0.8318542100000000    0.1646053500000000 O
   0.8734475300000000    0.1681457900000000    0.8353946500000000 O
   0.1320161200000000    0.2642467000000000    0.2837563700000000 O
   0.8679838800000000    0.7357533000000001    0.7162436300000000 O
   0.7825098800000000    0.8192703700000000    0.2427261200000000 O
   0.2174901200000000    0.1807296300000000    0.7572738800000000 O
   0.6802421000000000    0.0922580300000000    0.0964823600000000 O
   0.3197579000000000    0.9077419700000000    0.9035176400000000 O
   0.3748071200000000    0.6240937600000001    0.3171017700000000 O
   0.6251928800000000    0.3759062400000000    0.6828982300000001 O
   0.3528394900000000    0.3318155600000000    0.0832471200000000 O
   0.6471605100000000    0.6681844400000000    0.9167528800000000 O
   0.5543938800000000    0.0273969800000000    0.3626961800000000 O
   0.4456061200000000    0.9726030200000000    0.6373038200000000 O
   0.5228233100000000    0.3799065100000000    0.3578046300000000 O
   0.4771766900000000    0.6200934900000000    0.6421953700000000 O
   0.0426775000000000    0.7875629300000000    0.4227166800000000 O
   0.9573225000000000    0.2124370700000000    0.5772833200000000 O
   0.8522087100000000    0.4977811900000000    0.1670512300000000 O
   0.1477912900000000    0.5022188100000000    0.8329487700000000 O
