Zn2 Cr2 O8
1.0
   2.7368000800000001   -4.1179526500000003    0.0000000000000000
   2.7368000800000001    4.1179526500000003    0.0000000000000000
   0.0000000000000000    0.0000000000000000    6.1871461300000004
Zn Cr O
2 2 8
direct
   0.0000000000000000    0.0000000000000000    0.0000000000000000 Zn
   0.0000000000000000    0.0000000000000000    0.5000000000000000 Zn
   0.6412415400000000    0.3587584600000000    0.2500000000000000 Cr
   0.3587584600000000    0.6412415400000000    0.7500000000000000 Cr
   0.2192093400000000    0.2693135400000000    0.7500000000000000 O
   0.2693135400000000    0.2192093400000000    0.2500000000000000 O
   0.2437730900000000    0.7562269100000000    0.5371746300000000 O
   0.7562269100000000    0.2437730900000000    0.0371746300000000 O
   0.2437730900000000    0.7562269100000000    0.9628253700000000 O
   0.7562269100000000    0.2437730900000000    0.4628253700000000 O
   0.7807906600000000    0.7306864600000000    0.2500000000000000 O
   0.7306864600000000    0.7807906600000000    0.7500000000000000 O
