Al1 P1 O4
1.0
  -2.5255606700000000    2.5255606899999998    3.7080415400000000
   2.5255606700000000   -2.5255606899999998    3.7080415400000000
   2.5255606899999998    2.5255606700000000   -3.7080415400000000
Al P O
1 1 4
direct
   0.0000000000000000    0.0000000000000000    0.0000000000000000 Al
   0.7500000000000000    0.2500000000000000    0.5000000000000000 P
   0.8632684500000000    0.2268289500000000    0.8254843900000000 O
   0.7731710500000000    0.5986554400000000    0.6364395000000000 O
   0.4013445600000000    0.0377840600000000    0.1745156100000000 O
   0.9622159400000000    0.1367315500000000    0.3635605000000000 O
