Li8 Ca2 B4 O12
1.0
   8.0385050400000004    0.0000000000000000    0.0000000000000000
   0.0000000000000000    9.2321724500000002    0.0000000000000000
   0.0000000000000000    0.0000000000000000    3.4662007799999999
Li Ca B O
8 2 4 12
direct
   0.4866766500000000    0.1986667700000000    0.0000000000000000 Li
   0.5133233500000000    0.8013332300000000    0.0000000000000000 Li
   0.0133233500000000    0.6986667700000000    0.5000000000000000 Li
   0.9866766500000000    0.3013332300000000    0.5000000000000000 Li
   0.6684229500000000    0.9505834800000000    0.5000000000000000 Li
   0.3315770500000000    0.0494165200000000    0.5000000000000000 Li
   0.8315770500000000    0.4505834800000000    0.0000000000000000 Li
   0.1684229500000000    0.5494165200000000    0.0000000000000000 Li
   0.5000000000000000    0.5000000000000000    0.5000000000000000 Ca
   0.0000000000000000    0.0000000000000000    0.0000000000000000 Ca
   0.7273354600000000    0.2085968500000000    0.5000000000000000 B
   0.2726645400000000    0.7914031500000001    0.5000000000000000 B
   0.7726645400000000    0.7085968499999999    0.0000000000000000 B
   0.2273354600000000    0.2914031500000000    0.0000000000000000 B
   0.7516138000000000    0.3577085000000000    0.5000000000000000 O
   0.2483862000000000    0.6422915000000000    0.5000000000000000 O
   0.7483862000000000    0.8577085000000000    0.0000000000000000 O
   0.2516138000000000    0.1422915000000000    0.0000000000000000 O
   0.5702385700000000    0.1480609500000000    0.5000000000000000 O
   0.4297614300000000    0.8519390500000000    0.5000000000000000 O
   0.9297614300000000    0.6480609500000000    0.0000000000000000 O
   0.0702385700000000    0.3519390500000000    0.0000000000000000 O
   0.3659562800000000    0.3823042100000000    0.0000000000000000 O
   0.6340437200000000    0.6176957900000000    0.0000000000000000 O
   0.1340437200000000    0.8823042100000000    0.5000000000000000 O
   0.8659562800000000    0.1176957900000000    0.5000000000000000 O
