Mg8 Ti4 O16
1.0
   6.0068308000000004    0.0000000000000000    0.0000000000000000
   0.0000000000000000    6.0068308000000004    0.0000000000000000
   0.0000000000000000    0.0000000000000000    8.4450274099999998
Mg Ti O
8 4 16
direct
   0.0000000000000000    0.2458947300000000    0.0000000000000000 Mg
   0.0000000000000000    0.7541052700000000    0.5000000000000000 Mg
   0.2458947300000000    0.0000000000000000    0.7500000000000000 Mg
   0.2508795300000000    0.2508795300000000    0.3750000000000000 Mg
   0.2508795300000000    0.7491204700000000    0.1250000000000000 Mg
   0.7491204700000000    0.2508795300000000    0.6250000000000000 Mg
   0.7491204700000000    0.7491204700000000    0.8750000000000000 Mg
   0.7541052700000000    0.0000000000000000    0.2500000000000000 Mg
   0.2397318300000000    0.5000000000000000    0.7500000000000000 Ti
   0.5000000000000000    0.2397318300000000    0.0000000000000000 Ti
   0.5000000000000000    0.7602681700000000    0.5000000000000000 Ti
   0.7602681700000000    0.5000000000000000    0.2500000000000000 Ti
   0.0241525400000000    0.2607448000000000    0.7534543299999999 O
   0.0241525400000000    0.7392552000000000    0.7465456700000001 O
   0.2598012300000000    0.4821162300000000    0.9855888300000000 O
   0.2598012300000000    0.5178837700000000    0.5144111700000000 O
   0.2607448000000000    0.0241525400000000    0.9965456700000001 O
   0.2607448000000000    0.9758474600000000    0.5034543299999999 O
   0.4821162300000000    0.2598012300000000    0.7644111700000000 O
   0.4821162300000000    0.7401987700000000    0.7355888300000000 O
   0.5178837700000000    0.2598012300000000    0.2355888300000000 O
   0.5178837700000000    0.7401987700000000    0.2644111700000000 O
   0.7392552000000000    0.9758474600000000    0.4965456700000000 O
   0.7392552000000000    0.0241525400000000    0.0034543300000000 O
   0.7401987700000000    0.4821162300000000    0.0144111700000000 O
   0.7401987700000000    0.5178837700000000    0.4855888300000000 O
   0.9758474600000000    0.2607448000000000    0.2465456700000000 O
   0.9758474600000000    0.7392552000000000    0.2534543300000000 O
