Li12 Ga4 Si4 O20
1.0
   5.3940524400000003    0.0000000000000000    0.0000000000000000
   0.0000000000000000   15.6065172000000008    0.0000000000000000
   0.0000000000000000    0.0000000000000000    4.8556459700000003
Li Ga Si O
12 4 4 20
direct
   0.3323355900000000    0.4071061700000000    0.5005918300000000 Li
   0.6676644100000000    0.5928938300000000    0.0005918300000000 Li
   0.1676644100000000    0.9071061700000000    0.0005918300000000 Li
   0.8323355900000000    0.0928938300000000    0.5005918300000000 Li
   0.8353538200000000    0.5050734900000000    0.5038030999999999 Li
   0.1646461800000000    0.4949265100000000    0.0038031000000000 Li
   0.6646461800000000    0.0050734900000000    0.0038031000000000 Li
   0.3353538200000000    0.9949265100000000    0.5038030999999999 Li
   0.8236155600000000    0.6952389300000000    0.5008736700000000 Li
   0.1763844400000000    0.3047610700000000    0.0008736700000000 Li
   0.6763844400000000    0.1952389300000000    0.0008736700000000 Li
   0.3236155600000000    0.8047610700000000    0.5008736700000000 Li
   0.8302993800000000    0.3006661000000000    0.4989674200000000 Ga
   0.1697006200000000    0.6993339000000000    0.9989674200000001 Ga
   0.6697006200000000    0.8006661000000000    0.9989674200000001 Ga
   0.3302993800000000    0.1993339000000000    0.4989674200000000 Ga
   0.6657606400000000    0.4022629400000000    0.0044853600000000 Si
   0.3342393600000000    0.5977370600000000    0.5044853600000000 Si
   0.8342393600000000    0.9022629400000000    0.5044853600000000 Si
   0.1657606400000000    0.0977370600000000    0.0044853600000000 Si
   0.1585929800000000    0.2967942200000000    0.5962495500000000 O
   0.8187378300000000    0.8949145400000000    0.1597739400000000 O
   0.3187378300000000    0.6050854600000000    0.1597739400000000 O
   0.1812621700000000    0.1050854600000000    0.6597739400000000 O
   0.3167988800000000    0.0140257400000000    0.1044946500000000 O
   0.6832011200000000    0.9859742600000000    0.6044946500000000 O
   0.1832011200000000    0.5140257400000000    0.6044946500000000 O
   0.8167988800000000    0.4859742600000000    0.1044946500000000 O
   0.8791557000000000    0.1014725600000000    0.1022532300000000 O
   0.1208443000000000    0.8985274400000000    0.6022532300000000 O
   0.6208443000000000    0.6014725600000000    0.6022532300000000 O
   0.3791557000000000    0.3985274400000000    0.1022532300000000 O
   0.3126963100000000    0.1873672100000000    0.1155092600000000 O
   0.6873036900000000    0.8126327900000000    0.6155092599999999 O
   0.1873036900000000    0.6873672100000000    0.6155092599999999 O
   0.8126963100000000    0.3126327900000000    0.1155092600000000 O
   0.3414070200000000    0.7967942200000000    0.0962495500000000 O
   0.6585929800000000    0.2032057800000000    0.5962495500000000 O
   0.6812621700000000    0.3949145400000000    0.6597739400000000 O
   0.8414070200000000    0.7032057800000000    0.0962495500000000 O
