Li2 Ga10 O16
1.0
   5.8779070000000004    0.0000000000000000    0.0000000000000000
   0.0000000000000000    5.7787534300000001    0.0000000000000000
   0.0000000000000000    0.0000000000000000    8.1891096099999992
Li Ga O
2 10 16
direct
   0.5000000000000000    0.5000000000000000    0.0000000000000000 Li
   0.0000000000000000    0.5000000000000000    0.5000000000000000 Li
   0.0000000000000000    0.7571365700000000    0.1158717400000000 Ga
   0.0000000000000000    0.0000000000000000    0.5000000000000000 Ga
   0.7500000000000000    0.2701727600000000    0.2500000000000000 Ga
   0.2500000000000000    0.7298272400000000    0.7500000000000000 Ga
   0.0000000000000000    0.2428634300000000    0.8841282600000000 Ga
   0.5000000000000000    0.7571365700000000    0.3841282600000000 Ga
   0.7500000000000000    0.7298272400000000    0.7500000000000000 Ga
   0.2500000000000000    0.2701727600000000    0.2500000000000000 Ga
   0.5000000000000000    0.0000000000000000    0.0000000000000000 Ga
   0.5000000000000000    0.2428634300000000    0.6158717400000000 Ga
   0.0000000000000000    0.9810576000000000    0.7432550900000000 O
   0.7373519700000000    0.2411207800000000    0.0114401800000000 O
   0.5000000000000000    0.4916295000000000    0.2543513200000000 O
   0.2373519700000000    0.7588792200000000    0.5114401800000000 O
   0.5000000000000000    0.5083704999999999    0.7456486800000000 O
   0.7626480300000000    0.2411207800000000    0.4885598200000000 O
   0.0000000000000000    0.0189424000000000    0.2567449100000000 O
   0.2626480300000000    0.7588792200000000    0.9885598200000000 O
   0.2373519700000000    0.2411207800000000    0.4885598200000000 O
   0.5000000000000000    0.9810576000000000    0.7567449100000000 O
   0.7373519700000000    0.7588792200000000    0.9885598200000000 O
   0.0000000000000000    0.4916295000000000    0.2456486800000000 O
   0.2626480300000000    0.2411207800000000    0.0114401800000000 O
   0.0000000000000000    0.5083704999999999    0.7543513200000000 O
   0.7626480300000000    0.7588792200000000    0.5114401800000000 O
   0.5000000000000000    0.0189424000000000    0.2432550900000000 O
