Na9 Re3 O15
1.0
   5.4680753600000003    0.0000000100000000    0.0000000000000000
  -2.7340381699999998    4.7354921100000000    0.0000000000000000
   0.0000000000000000    0.0000000000000000   13.5475047800000006
Na Re O
9 3 15
direct
   0.6224291000000000    0.9273234700000000    0.5828078900000000 Na
   0.3048943700000000    0.3775709000000000    0.2494738900000000 Na
   0.0726765300000000    0.6951056300000000    0.9161408900000000 Na
   0.6951056300000000    0.0726765300000000    0.0838591100000000 Na
   0.3775709000000000    0.3048943700000000    0.7505261100000000 Na
   0.9273234700000000    0.6224291000000000    0.4171921100000000 Na
   0.0000000000000000    0.7223360100000000    0.1666670000000000 Na
   0.7223360100000000    0.0000000000000000    0.8333330000000000 Na
   0.2776639900000000    0.2776639900000000    0.5000000000000000 Na
   1.0000000000000000    0.6245144600000000    0.6666670000000000 Re
   0.6245144600000000    1.0000000000000000    0.3333330000000000 Re
   0.3754855400000000    0.3754855400000000    0.0000000000000000 Re
   0.1616361300000000    0.5055319400000000    0.0629245400000000 O
   0.3438968100000000    0.8383638700000000    0.7295915400000000 O
   0.4944680600000000    0.6561031899999999    0.3962575400000000 O
   0.0000000000000000    0.2968364300000000    0.6666670000000000 O
   0.2968364300000000    0.0000000000000000    0.3333330000000000 O
   0.7031635700000000    0.7031635700000000    0.0000000000000000 O
   0.6561031899999999    0.4944680600000000    0.6037424600000000 O
   0.8383638700000000    0.3438968100000000    0.2704084600000000 O
   0.5055319400000000    0.1616361300000000    0.9370754600000000 O
   0.3231244300000000    0.1581239400000000    0.1090070400000000 O
   0.8350005000000000    0.6768755700000000    0.7756740400000000 O
   0.8418760600000000    0.1649995000000000    0.4423410400000000 O
   0.1649995000000000    0.8418760600000000    0.5576589600000000 O
   0.1581239400000000    0.3231244300000000    0.8909929599999999 O
   0.6768755700000000    0.8350005000000000    0.2243259600000000 O
