Rb2 Au2 Se2
1.0
   3.3662564000000001   -4.1528005900000000    0.0000000000000000
   3.3662564000000001    4.1528005900000000    0.0000000000000000
   0.0000000000000000    0.0000000000000000    6.7402025800000001
Rb Au Se
2 2 2
direct
   0.6340947200000000    0.3659052800000000    0.2500000000000000 Rb
   0.3659052800000000    0.6340947200000000    0.7500000000000000 Rb
   0.0000000000000000    0.0000000000000000    0.0000000000000000 Au
   0.0000000000000000    0.0000000000000000    0.5000000000000000 Au
   0.2090060200000000    0.7909939800000000    0.2500000000000000 Se
   0.7909939800000000    0.2090060200000000    0.7500000000000000 Se
