Li8 Te8 O20
1.0
  10.3166118800000000    0.0000000000000000   -0.0001812100000000
   0.0000000000000000    4.5876821699999999    0.0000000000000000
  -6.7034183000000001    0.0000000000000000   10.2003385899999994
Li Te O
8 8 20
direct
   0.0775099800000000    0.2007359100000000    0.8278012700000000 Li
   0.9224900200000000    0.7007359100000000    0.6721987300000000 Li
   0.9224900200000000    0.7992640900000000    0.1721987300000000 Li
   0.0775099800000000    0.2992640900000000    0.3278012700000000 Li
   0.9239584300000000    0.2799301400000000    0.5120407500000000 Li
   0.0760415700000000    0.7799301400000000    0.9879592500000000 Li
   0.0760415700000000    0.7200698600000000    0.4879592500000000 Li
   0.9239584300000000    0.2200698600000000    0.0120407500000000 Li
   0.6891368900000000    0.1882428000000000    0.6213369000000000 Te
   0.3108631100000000    0.6882428000000000    0.8786631000000000 Te
   0.3108631100000000    0.8117572000000000    0.3786631000000000 Te
   0.6891368900000000    0.3117572000000000    0.1213369000000000 Te
   0.3097542600000000    0.1957887700000000    0.6545037400000000 Te
   0.6902457400000001    0.6957887699999999    0.8454962600000000 Te
   0.6902457400000001    0.8042112300000001    0.3454962600000000 Te
   0.3097542600000000    0.3042112300000000    0.1545037400000000 Te
   0.3898489500000000    0.0187151500000000    0.5491355800000000 O
   0.6101510500000000    0.5187151500000000    0.9508644200000000 O
   0.6101510500000000    0.9812848500000000    0.4508644200000000 O
   0.3898489500000000    0.4812848500000000    0.0491355800000000 O
   0.2447728700000000    0.1848226600000000    0.2925879900000000 O
   0.7552271300000000    0.6848226600000000    0.2074120100000000 O
   0.7552271300000000    0.8151773400000000    0.7074120100000000 O
   0.2447728700000000    0.3151773400000000    0.7925879900000000 O
   0.8878831900000000    0.2323396200000000    0.1568643300000000 O
   0.1121168100000000    0.7323396200000000    0.3431356700000000 O
   0.1121168100000000    0.7676603800000000    0.8431356700000000 O
   0.8878831900000000    0.2676603800000000    0.6568643300000000 O
   0.7460846300000000    0.3121682600000000    0.8243910300000000 O
   0.2539153700000000    0.8121682600000000    0.6756089700000000 O
   0.2539153700000000    0.6878317400000000    0.1756089700000000 O
   0.7460846300000000    0.1878317400000000    0.3243910300000000 O
   0.1117872500000000    0.2777017100000000    0.5074256000000000 O
   0.8882127500000000    0.7777017100000000    0.9925744000000000 O
   0.8882127500000000    0.7222982900000000    0.4925744000000000 O
   0.1117872500000000    0.2222982900000000    0.0074256000000000 O
