Ba3 Nb2 Cd1 O9
1.0
   5.9134238899999998    0.0000000000000000    0.0000000000000000
  -2.9567119499999999    5.1211751999999997    0.0000000000000000
   0.0000000000000000    0.0000000000000000    7.3038019099999998
Ba Nb Cd O
3 2 1 9
direct
   0.0000000000000000    0.0000000000000000    0.0000000000000000 Ba
   0.3333330000000000    0.6666670000000000    0.6625622400000000 Ba
   0.6666670000000000    0.3333330000000000    0.3374377600000000 Ba
   0.3333330000000000    0.6666670000000000    0.1681608900000000 Nb
   0.6666670000000000    0.3333330000000000    0.8318391100000000 Nb
   0.0000000000000000    0.0000000000000000    0.5000000000000000 Cd
   0.1750544400000000    0.8249455600000000    0.3157248500000000 O
   0.8249455600000000    0.1750544400000000    0.6842751500000001 O
   0.1750544400000000    0.3501078800000000    0.3157248500000000 O
   0.8249455600000000    0.6498921200000000    0.6842751500000001 O
   0.6498921200000000    0.8249455600000000    0.3157248500000000 O
   0.3501078800000000    0.1750544400000000    0.6842751500000001 O
   0.5000000000000000    0.0000000000000000    0.0000000000000000 O
   0.0000000000000000    0.5000000000000000    0.0000000000000000 O
   0.5000000000000000    0.5000000000000000    0.0000000000000000 O
