In2 P6 O18
1.0
   6.8452322399999996   -3.3247097299999999   -0.0182194000000000
   6.8452322399999996    3.3247097299999999   -0.0182194000000000
  -5.9235530000000001    0.0000000000000000    7.7499700699999998
In P O
2 6 18
direct
   0.5125929500000000    0.9834448500000000    0.5006182200000000 In
   0.9834448500000000    0.5125929500000000    0.0006182200000000 In
   0.1865488400000000    0.0190930000000000    0.6722044300000000 P
   0.9970452800000000    0.7891974899999999    0.8299121300000000 P
   0.4212054000000000    0.5637200500000000    0.7309953200000000 P
   0.0190930000000000    0.1865488400000000    0.1722044300000000 P
   0.7891974899999999    0.9970452800000000    0.3299121300000000 P
   0.5637200500000000    0.4212054000000000    0.2309953200000000 P
   0.2380654300000000    0.5976366100000000    0.7872869000000000 O
   0.4918908500000000    0.3266701800000000    0.5986979000000000 O
   0.2689098700000000    0.7476160800000000    0.6277137500000000 O
   0.7476160800000000    0.2689098700000000    0.1277137500000000 O
   0.1563030100000000    0.1317769800000000    0.3386204100000000 O
   0.6220966900000000    0.6075112499999999    0.3923257400000000 O
   0.6643618200000000    0.9034918700000000    0.3294704300000000 O
   0.9341289100000000    0.8372418100000000    0.2107905100000000 O
   0.1317769800000000    0.1563030100000000    0.8386204100000000 O
   0.0403376800000000    0.3616632400000000    0.1622652100000000 O
   0.3616632400000000    0.0403376800000000    0.6622652100000000 O
   0.0896710500000000    0.9451808200000000    0.0203990500000000 O
   0.3266701800000000    0.4918908500000000    0.0986979000000000 O
   0.8372418100000000    0.9341289100000000    0.7107905100000000 O
   0.9034918700000000    0.6643618200000000    0.8294704300000000 O
   0.6075112499999999    0.6220966900000000    0.8923257400000000 O
   0.5976366100000000    0.2380654300000000    0.2872869000000000 O
   0.9451808200000000    0.0896710500000000    0.5203990500000000 O
