Ba2 B4 S8
1.0
   3.3256872400000002   -7.8194567099999999   -0.0373955400000000
   3.3256872400000002    7.8194567099999999   -0.0373955400000000
  -2.0634758299999998    0.0000000000000000    5.6413194799999999
Ba B S
2 4 8
direct
   0.1994616100000000    0.8910090000000001    0.9594220500000000 Ba
   0.8910090000000001    0.1994616100000000    0.4594220500000000 Ba
   0.4927185000000000    0.4534122000000000    0.5584303400000000 B
   0.4534122000000000    0.4927185000000000    0.0584303400000000 B
   0.6011138000000000    0.8686314700000000    0.8730179200000000 B
   0.8686314700000000    0.6011138000000000    0.3730179200000000 B
   0.3063685700000000    0.2802380500000000    0.7436736500000000 S
   0.4294570300000000    0.7028673300000000    0.0549992300000000 S
   0.1468714700000000    0.7129927900000000    0.4236194800000000 S
   0.7129927900000000    0.1468714700000000    0.9236194800000000 S
   0.6845888200000000    0.7810693500000000    0.6689163200000000 S
   0.7810693500000000    0.6845888200000000    0.1689163200000000 S
   0.7028673300000000    0.4294570300000000    0.5549992300000000 S
   0.2802380500000000    0.3063685700000000    0.2436736500000000 S
