Cs4 Cu4 S16
1.0
   5.1600479200000002    0.0000000000000000    0.0000000000000000
   0.0000000000000000    8.6965817800000007    0.0000000000000000
   0.0000000000000000    0.0000000000000000   13.5063243800000006
Cs Cu S
4 4 16
direct
   0.6703938500000000    0.9261447600000000    0.1683955700000000 Cs
   0.1703938500000000    0.5738552400000000    0.8316044300000000 Cs
   0.3296061500000000    0.4261447600000000    0.3316044300000000 Cs
   0.8296061500000000    0.0738552400000000    0.6683955700000000 Cs
   0.9606552200000000    0.1392936200000000    0.9407058400000000 Cu
   0.5393447800000000    0.8607063800000000    0.4407058400000000 Cu
   0.0393447800000000    0.6392936200000000    0.5592941600000000 Cu
   0.4606552200000000    0.3607063800000000    0.0592941600000000 Cu
   0.5742377900000000    0.4320348400000000    0.5693504000000000 S
   0.9257622100000000    0.5679651600000000    0.0693504000000000 S
   0.4257622100000000    0.9320348400000000    0.9306496000000000 S
   0.0742377900000000    0.0679651600000000    0.4306496000000000 S
   0.8475677000000000    0.3643184600000000    0.1483447500000000 S
   0.3475677000000000    0.1356815400000000    0.8516552500000000 S
   0.1524323000000000    0.8643184600000000    0.3516552500000000 S
   0.6524323000000000    0.6356815400000000    0.6483447500000000 S
   0.6854676900000000    0.1023109500000000    0.4080251200000000 S
   0.1854676900000000    0.3976890500000000    0.5919748800000000 S
   0.3145323100000000    0.6023109500000000    0.0919748800000000 S
   0.8145323100000000    0.8976890500000000    0.9080251200000000 S
   0.1173439800000000    0.2078832400000000    0.0928273200000000 S
   0.6173439800000000    0.2921167600000000    0.9071726800000000 S
   0.8826560200000000    0.7078832400000000    0.4071726800000000 S
   0.3826560200000000    0.7921167600000000    0.5928273200000000 S
