Sr3 As2 O8
1.0
   2.7933830300000002    1.6127605500000000    6.6766207599999996
  -2.7933830300000002    1.6127605500000000    6.6766207599999996
   0.0000000000000000   -3.2255211099999999    6.6766207599999996
Sr As O
3 2 8
direct
   0.0000000000000000    0.0000000000000000    0.0000000000000000 Sr
   0.7968774900000000    0.7968774900000000    0.7968774900000000 Sr
   0.2031225100000000    0.2031225100000000    0.2031225100000000 Sr
   0.4064396800000000    0.4064396800000000    0.4064396800000000 As
   0.5935603200000000    0.5935603200000000    0.5935603200000000 As
   0.7323589600000000    0.7323589600000000    0.2308548800000000 O
   0.2676410400000000    0.7691451200000000    0.2676410400000000 O
   0.3216557800000000    0.3216557800000000    0.3216557800000000 O
   0.6783442200000001    0.6783442200000001    0.6783442200000001 O
   0.7691451200000000    0.2676410400000000    0.2676410400000000 O
   0.2308548800000000    0.7323589600000000    0.7323589600000000 O
   0.7323589600000000    0.2308548800000000    0.7323589600000000 O
   0.2676410400000000    0.2676410400000000    0.7691451200000000 O
