Na8 P4 Se12
1.0
   5.8125297600000003   -6.5337683200000001    0.0000000000000000
   5.8125297600000003    6.5337683200000001    0.0000000000000000
   0.0000000000000000    0.0000000000000000    7.9328839699999998
Na P Se
8 4 12
direct
   0.7236832700000000    0.7763167300000000    0.2500000000000000 Na
   0.7763167300000000    0.7236832700000000    0.7500000000000000 Na
   0.1854027300000000    0.8145972700000000    0.1583404000000000 Na
   0.8145972700000000    0.1854027300000000    0.8416596000000000 Na
   0.2236832700000000    0.2763167300000000    0.2500000000000000 Na
   0.6854027300000000    0.3145972700000000    0.3416596000000000 Na
   0.3145972700000000    0.6854027300000000    0.6583404000000000 Na
   0.2763167300000000    0.2236832700000000    0.7500000000000000 Na
   0.9205411600000000    0.0794588400000000    0.4456008100000000 P
   0.4205411600000000    0.5794588400000000    0.0543991900000000 P
   0.0794588400000000    0.9205411600000000    0.5543991900000000 P
   0.5794588400000000    0.4205411600000000    0.9456008100000000 P
   0.9997708800000000    0.3138242300000000    0.5338313300000000 Se
   0.6861757700000000    0.0002291200000000    0.5338313300000000 Se
   0.9468491900000000    0.0531508100000000    0.1709656600000000 Se
   0.1861757700000000    0.5002291200000000    0.9661686700000000 Se
   0.4997708800000000    0.8138242300000000    0.9661686700000000 Se
   0.3138242300000000    0.9997708800000000    0.4661686700000000 Se
   0.5531508100000000    0.4468491900000000    0.6709656600000000 Se
   0.4468491900000000    0.5531508100000000    0.3290343400000000 Se
   0.8138242300000000    0.4997708800000000    0.0338313300000000 Se
   0.5002291200000000    0.1861757700000000    0.0338313300000000 Se
   0.0002291200000000    0.6861757700000000    0.4661686700000000 Se
   0.0531508100000000    0.9468491900000000    0.8290343400000000 Se
