Cd1 Ga2 Se4
1.0
  -2.8600220400000000    2.8600226399999999    5.3814798699999997
   2.8600220400000000   -2.8600226399999999    5.3814798699999997
   2.8600226399999999    2.8600220400000000   -5.3814798699999997
Cd Ga Se
1 2 4
direct
   0.0000000000000000    0.0000000000000000    0.0000000000000000 Cd
   0.2500000000000000    0.7500000000000000    0.5000000000000000 Ga
   0.5000000000000000    0.5000000000000000    0.0000000000000000 Ga
   0.8622762000000000    0.3954546100000000    0.9770792000000000 Se
   0.4183754100000000    0.8851970000000000    0.0229208000000000 Se
   0.1148030000000000    0.1377238000000000    0.5331784200000000 Se
   0.6045453900000000    0.5816245900000000    0.4668215800000000 Se
