Sr3 Li6 Si3 O12
1.0
   5.0143436200000000    0.0000000000000000    0.0000000000000000
  -2.5071718100000000    4.3425496399999997    0.0000000000000000
   0.0000000000000000    0.0000000000000000   12.4283155500000007
Sr Li Si O
3 6 3 12
direct
   0.4192622700000000    0.0000000000000000    0.8333330000000000 Sr
   0.5807377300000000    0.5807377300000000    0.5000000000000000 Sr
   0.0000000000000000    0.4192622700000000    0.1666670000000000 Sr
   0.6643665399999999    0.5911936400000000    0.7456355099999999 Li
   0.9268261000000000    0.3356334600000000    0.4123015100000000 Li
   0.4088063600000000    0.0731739000000000    0.0789685100000000 Li
   0.3356334600000000    0.9268261000000000    0.5876984900000000 Li
   0.5911936400000000    0.6643665399999999    0.2543644900000000 Li
   0.0731739000000000    0.4088063600000000    0.9210314900000000 Li
   0.2778532200000000    0.0000000000000000    0.3333330000000000 Si
   0.7221467800000000    0.7221467800000000    0.0000000000000000 Si
   0.0000000000000000    0.2778532200000000    0.6666670000000000 Si
   0.5484384700000000    0.5130183200000000    0.1071489900000000 O
   0.9645788600000000    0.4515615300000000    0.7738159900000000 O
   0.4869816800000000    0.0354211400000000    0.4404819900000000 O
   0.4515615300000000    0.9645788600000000    0.2261840100000000 O
   0.5130183200000000    0.5484384700000000    0.8928510100000000 O
   0.0354211400000000    0.4869816800000000    0.5595180100000000 O
   0.0700372400000000    0.7614139700000000    0.9962239000000001 O
   0.6913767300000000    0.9299627600000000    0.6628908999999999 O
   0.2385860300000000    0.3086232700000000    0.3295579000000000 O
   0.9299627600000000    0.6913767300000000    0.3371091000000000 O
   0.7614139700000000    0.0700372400000000    0.0037761000000000 O
   0.3086232700000000    0.2385860300000000    0.6704421000000000 O
