Rb4 Ag2 P2 S8
1.0
   6.5753257700000001    0.0085649600000000   -0.0202171100000000
  -2.4671970800000000    6.3539677399999999    0.0405105300000000
  -3.1955212899999998   -2.2921252100000000   10.0930495499999999
Rb Ag P S
4 2 2 8
direct
   0.8500619400000000    0.7284881700000000    0.1010692400000000 Rb
   0.1499380600000000    0.2715118300000000    0.8989307600000001 Rb
   0.4378148000000000    0.9801829500000000    0.6860299800000000 Rb
   0.5621852000000001    0.0198170500000000    0.3139700200000000 Rb
   0.7849936300000000    0.5845933200000000    0.4184999300000000 Ag
   0.2150063700000000    0.4154066800000000    0.5815000700000000 Ag
   0.8632679800000000    0.6459724400000000    0.7313408700000000 P
   0.1367320200000000    0.3540275600000000    0.2686591300000000 P
   0.1508279000000000    0.7700558800000000    0.8986311400000000 S
   0.8491721000000000    0.2299441200000000    0.1013688600000000 S
   0.5671444900000000    0.5622597400000000    0.7809484799999999 S
   0.4328555100000000    0.4377402600000000    0.2190515200000000 S
   0.8742444900000000    0.8717346600000000    0.6163218499999999 S
   0.1257555100000000    0.1282653400000000    0.3836781500000000 S
   0.8435586400000000    0.3700728700000000    0.6231304700000000 S
   0.1564413600000000    0.6299271300000000    0.3768695300000000 S
