Tl8 Ge2 S8
1.0
   6.2639324299999997   -5.5262903799999998    0.0527866100000000
   6.2639324299999997    5.5262903799999998    0.0527866100000000
  -2.9257178599999998    0.0000000000000000    6.8807413600000000
Tl Ge S
8 2 8
direct
   0.7959106700000000    0.7800559800000000    0.9140474500000000 Tl
   0.7800559800000000    0.7959106700000000    0.4140474500000000 Tl
   0.9797397300000000    0.4021054000000000    0.9327784800000000 Tl
   0.4021054000000000    0.9797397300000000    0.4327784800000000 Tl
   0.2523266700000000    0.9918904200000001    0.9132052300000000 Tl
   0.9918904200000001    0.2523266700000000    0.4132052300000000 Tl
   0.3674103400000000    0.6003386900000000    0.0000936200000000 Tl
   0.6003386900000000    0.3674103400000000    0.5000936200000000 Tl
   0.2007517600000000    0.6224383100000001    0.4605965300000000 Ge
   0.6224383100000001    0.2007517600000000    0.9605965300000000 Ge
   0.8027339600000000    0.0793624400000000    0.7853068400000000 S
   0.0793624400000000    0.8027339600000000    0.2853068400000000 S
   0.3676704800000000    0.2507047300000000    0.7749767900000000 S
   0.2507047300000000    0.3676704800000000    0.2749767900000000 S
   0.4436754000000000    0.7241454200000000    0.6561111800000000 S
   0.7241454200000000    0.4436754000000000    0.1561111800000000 S
   0.0426814700000000    0.6076591300000000    0.6495838900000001 S
   0.6076591300000000    0.0426814700000000    0.1495838900000000 S
