Tl6 B6 S20
1.0
   6.7470219399999998   -0.0110934400000000    0.0155134600000000
  -0.5317725500000000    7.6286849600000002   -0.0506914300000000
  -1.0324854400000001   -3.2974516199999999   13.2431389599999996
Tl B S
6 6 20
direct
   0.3289809300000000    0.1716969600000000    0.4802577000000000 Tl
   0.6710190700000001    0.8283030400000000    0.5197423000000000 Tl
   0.7420376300000000    0.5429210799999999    0.1532478700000000 Tl
   0.2579623700000000    0.4570789200000000    0.8467521300000000 Tl
   0.9827942300000000    0.1198987100000000    0.2077828300000000 Tl
   0.0172057700000000    0.8801012900000000    0.7922171700000000 Tl
   0.3648482000000000    0.9139311200000000    0.0873653500000000 B
   0.6351518000000000    0.0860688800000000    0.9126346500000000 B
   0.2609412600000000    0.7173376600000000    0.2394355300000000 B
   0.7390587400000000    0.2826623400000000    0.7605644700000000 B
   0.1041201200000000    0.6188829400000000    0.4152409800000000 B
   0.8958798800000000    0.3811170600000000    0.5847590200000000 B
   0.2297705400000000    0.0591318400000000    0.0137380300000000 S
   0.7702294600000000    0.9408681600000000    0.9862619700000000 S
   0.5433146200000000    0.7641299100000000    0.0130500600000000 S
   0.4566853800000000    0.2358700900000000    0.9869499400000000 S
   0.4770812200000000    0.0627159800000000    0.2151467700000000 S
   0.5229187800000000    0.9372840200000000    0.7848532300000000 S
   0.1652211700000000    0.7400068200000000    0.1087140100000000 S
   0.8347788300000000    0.2599931800000000    0.8912859900000000 S
   0.5194173700000000    0.8498104500000000    0.2806239900000000 S
   0.4805826300000000    0.1501895500000000    0.7193760100000000 S
   0.3012130700000000    0.4692165000000000    0.2293137900000000 S
   0.6987869300000000    0.5307835000000000    0.7706862100000000 S
   0.0709804100000000    0.7921663400000000    0.3370146100000000 S
   0.9290195900000000    0.2078336600000000    0.6629853900000000 S
   0.3374357600000000    0.4977376800000000    0.3843369000000000 S
   0.6625642400000000    0.5022623200000000    0.6156631000000000 S
   0.1425041000000000    0.7411054100000000    0.5544042000000000 S
   0.8574959000000000    0.2588945900000000    0.4455958000000000 S
   0.8553446900000000    0.4753518800000000    0.3763781700000000 S
   0.1446553100000000    0.5246481200000001    0.6236218300000000 S
