Na16 Se4 O20
1.0
   5.5394441299999997   -0.0016364300000000    0.0033812000000000
  -0.9829275500000000    9.7139490700000000    0.0056547800000000
  -1.0675947299999999   -4.0007418699999997    8.8534582200000003
Na Se O
16 4 20
direct
   0.2523611000000000    0.9434018400000000    0.5446384399999999 Na
   0.7588142700000000    0.4489145700000000    0.0625305600000000 Na
   0.2411857300000000    0.5510854300000000    0.9374694400000000 Na
   0.7476389000000000    0.0565981600000000    0.4553615600000000 Na
   0.0000000000000000    0.0000000000000000    0.0000000000000000 Na
   0.5000000000000000    0.5000000000000000    0.5000000000000000 Na
   0.4954475100000000    0.9004379300000001    0.0954554200000000 Na
   0.5045524900000000    0.0995620700000000    0.9045445800000000 Na
   0.9982346300000000    0.6018301800000000    0.3997671400000000 Na
   0.0017653700000000    0.3981698200000000    0.6002328600000000 Na
   0.7226014600000000    0.8355919000000001    0.6390942400000000 Na
   0.2773985400000000    0.1644081000000000    0.3609057600000000 Na
   0.0053874700000000    0.8075500300000000    0.2021353100000000 Na
   0.9946125300000001    0.1924499700000000    0.7978646900000000 Na
   0.7325317500000000    0.6418831300000000    0.8449904400000000 Na
   0.2674682500000000    0.3581168700000000    0.1550095600000000 Na
   0.4843832500000000    0.2956184400000000    0.7328980200000000 Se
   0.5156167500000000    0.7043815600000000    0.2671019800000000 Se
   0.2148334400000000    0.7795654900000000    0.7550174900000000 Se
   0.7851665600000000    0.2204345100000000    0.2449825100000000 Se
   0.2053212800000000    0.6073197700000000    0.1907255600000000 O
   0.0540661300000000    0.3523929700000000    0.3435229600000000 O
   0.9459338700000000    0.6476070300000000    0.6564770400000000 O
   0.7946787199999999    0.3926802300000000    0.8092744400000000 O
   0.8825877700000000    0.0510005800000000    0.2278530100000000 O
   0.1174122300000000    0.9489994200000000    0.7721469900000000 O
   0.8648655800000000    0.2263264700000000    0.0718484900000000 O
   0.1351344200000000    0.7736735300000001    0.9281515100000000 O
   0.5903053900000000    0.5426099900000000    0.2911471500000000 O
   0.4096946100000000    0.4573900100000000    0.7088528500000000 O
   0.7908577000000000    0.8099546300000000    0.3991678600000000 O
   0.2091423000000000    0.1900453700000000    0.6008321400000000 O
   0.6200782100000000    0.6818373000000000    0.1000693900000000 O
   0.3799217900000000    0.3181627000000000    0.8999306100000000 O
   0.3281798800000000    0.7283302600000000    0.5814224800000000 O
   0.6718201200000000    0.2716697400000000    0.4185775200000000 O
   0.3976678000000000    0.8791764399999999    0.3165627300000000 O
   0.6023322000000000    0.1208235600000000    0.6834372700000000 O
   0.4734177000000000    0.1558025300000000    0.1513125800000000 O
   0.5265822999999999    0.8441974700000000    0.8486874200000000 O
