Sc6 Te3 O18
1.0
   8.7331996899999993   -0.0000000000000000    0.0000000000000000
  -4.3665993500000004    7.5631722600000000    0.0000000000000000
   0.0000000000000000    0.0000000000000000    4.7866049899999998
Sc Te O
6 3 18
direct
   0.2940786600000000    1.0000000000000000    0.5000000000000000 Sc
   0.6297945300000000    1.0000000000000000    0.0000000000000000 Sc
   0.7059213400000000    0.7059213400000000    0.5000000000000000 Sc
   0.0000000000000000    0.6297945300000000    0.0000000000000000 Sc
   0.3702054700000000    0.3702054700000000    0.0000000000000000 Sc
   0.0000000000000000    0.2940786600000000    0.5000000000000000 Sc
   0.0000000000000000    0.0000000000000000    0.0000000000000000 Te
   0.6666670000000000    0.3333330000000000    0.4987973100000000 Te
   0.3333330000000000    0.6666670000000000    0.5012026900000000 Te
   0.8780666400000000    0.0901082800000000    0.2209209400000000 O
   0.4573919100000000    0.5796383300000000    0.7271116399999999 O
   0.2225343100000000    0.7684783500000000    0.2756693200000000 O
   0.7684783500000000    0.2225343100000000    0.7243306800000000 O
   0.5459440400000000    0.7774656900000000    0.2756693200000000 O
   0.2315216500000000    0.4540559600000000    0.2756693200000000 O
   0.1222464200000000    0.5426080900000000    0.7271116399999999 O
   0.5796383300000000    0.4573919100000000    0.2728883600000000 O
   0.5426080900000000    0.1222464200000000    0.2728883600000000 O
   0.8777535800000000    0.4203616700000000    0.2728883600000000 O
   0.4540559600000000    0.2315216500000000    0.7243306800000000 O
   0.2120416400000000    0.1219333600000000    0.2209209400000000 O
   0.9098917200000000    0.7879583600000000    0.2209209400000000 O
   0.1219333600000000    0.2120416400000000    0.7790790600000000 O
   0.7879583600000000    0.9098917200000000    0.7790790600000000 O
   0.0901082800000000    0.8780666400000000    0.7790790600000000 O
   0.4203616700000000    0.8777535800000000    0.7271116399999999 O
   0.7774656900000000    0.5459440400000000    0.7243306800000000 O
