Li4 Si4 N4 O4
1.0
   5.2000766900000004    0.0000000000000000    0.0000000000000000
   0.0000000000000000    6.3742909499999998    0.0000000000000000
   0.0000000000000000    0.0000000000000000    4.7511900100000002
Li Si N O
4 4 4 4
direct
   0.5971599600000000    0.3859739500000000    0.9993337100000000 Li
   0.4028400400000000    0.6140260500000000    0.4993337100000000 Li
   0.9028400400000000    0.3859739500000000    0.4993337100000000 Li
   0.0971599600000000    0.6140260500000000    0.9993337100000000 Li
   0.4195676200000000    0.1208501200000000    0.5113748100000000 Si
   0.9195676200000000    0.8791498800000001    0.5113748100000000 Si
   0.0804323800000000    0.1208501200000000    0.0113748100000000 Si
   0.5804323800000000    0.8791498800000001    0.0113748100000000 Si
   0.3915593700000000    0.0860656900000000    0.1463772700000000 N
   0.6084406300000000    0.9139343100000000    0.6463772700000000 N
   0.1084406300000000    0.0860656900000000    0.6463772700000000 N
   0.8915593700000000    0.9139343100000000    0.1463772700000000 N
   0.0404901700000000    0.6547275700000000    0.5929132100000000 O
   0.4595098300000000    0.6547275700000000    0.0929132100000000 O
   0.9595098300000000    0.3452724300000000    0.0929132100000000 O
   0.5404901700000000    0.3452724300000000    0.5929132100000000 O
