Cu4 Ag2 P2 S8
1.0
   7.5585287699999997    0.0000000000000000    0.0000000000000000
   0.0000000000000000    6.2142531999999999    0.0000000000000000
   0.0000000000000000    0.0000000000000000    6.1008883500000000
Cu Ag P S
4 2 2 8
direct
   0.2473872400000000    0.1824635000000000    0.0085847400000000 Cu
   0.7526127600000000    0.1824635000000000    0.0085847400000000 Cu
   0.2526127600000000    0.8175365000000000    0.5085847400000000 Cu
   0.7473872400000000    0.8175365000000000    0.5085847400000000 Cu
   0.5000000000000000    0.6469829800000000    0.0048932200000000 Ag
   0.0000000000000000    0.3530170200000000    0.5048932200000000 Ag
   0.5000000000000000    0.3136900100000000    0.5009520000000000 P
   0.0000000000000000    0.6863099900000000    0.0009520000000000 P
   0.2777786400000000    0.1614529300000000    0.3775187100000000 S
   0.7222213600000000    0.1614529300000000    0.3775187100000000 S
   0.2222213600000000    0.8385470699999999    0.8775187100000000 S
   0.7777786400000000    0.8385470699999999    0.8775187100000000 S
   0.5000000000000000    0.2792551400000000    0.8386526100000000 S
   0.0000000000000000    0.7207448600000000    0.3386526100000000 S
   0.5000000000000000    0.6352200800000000    0.4118652800000000 S
   0.0000000000000000    0.3647799200000000    0.9118652800000000 S
