Rb4 S6
1.0
   3.6778043100000000   -5.2318047999999999    0.0000000000000000
   3.6778043100000000    5.2318047999999999    0.0000000000000000
   0.0000000000000000    0.0000000000000000    7.5904473200000000
Rb S
4 6
direct
   0.5786959000000000    0.4213041000000000    0.1769715100000000 Rb
   0.4213041000000000    0.5786959000000000    0.6769715100000000 Rb
   0.1033171200000000    0.8966828800000000    0.4480660300000000 Rb
   0.8966828800000000    0.1033171200000000    0.9480660300000000 Rb
   0.0667463900000000    0.3886271600000000    0.3326257300000000 S
   0.9332536100000000    0.6113728400000000    0.8326257300000000 S
   0.6113728400000000    0.9332536100000000    0.3326257300000000 S
   0.3886271600000000    0.0667463900000000    0.8326257300000000 S
   0.2026549300000000    0.7973450700000000    0.9867110000000000 S
   0.7973450700000000    0.2026549300000000    0.4867110000000000 S
