Rb4 V2 Cu2 S8
1.0
   0.0000000000000000    6.5946942399999999   11.5851018299999993
   2.7067596500000000    0.0000000000000000   11.5851018299999993
   2.7067596500000000    6.5946942399999999    0.0000000000000000
Rb V Cu S
4 2 2 8
direct
   0.5714745000000000    0.5714745000000000    0.9285255000000000 Rb
   0.9285255000000000    0.9285255000000000    0.5714745000000000 Rb
   0.3214745000000000    0.3214745000000000    0.6785255000000000 Rb
   0.6785255000000000    0.6785255000000000    0.3214745000000000 Rb
   0.7500000000000000    0.7500000000000000    0.7500000000000000 V
   0.5000000000000000    0.5000000000000000    0.5000000000000000 V
   0.0000000000000000    0.0000000000000000    0.0000000000000000 Cu
   0.2500000000000000    0.2500000000000000    0.2500000000000000 Cu
   0.2248403900000000    0.8822483600000000    0.5851895900000000 S
   0.3077216600000000    0.5851895900000000    0.8822483600000000 S
   0.5851895900000000    0.3077216600000000    0.2248403900000000 S
   0.8822483600000000    0.2248403900000000    0.3077216600000000 S
   0.3677516400000000    0.0251596100000000    0.9422783400000000 S
   0.9422783400000000    0.6648104100000000    0.3677516400000000 S
   0.6648104100000000    0.9422783400000000    0.0251596100000000 S
   0.0251596100000000    0.3677516400000000    0.6648104100000000 S
