Na12 Ge4 Se12
1.0
   8.3494262900000003    0.0000000000000000   -0.0221030300000000
   0.0000000000000000   11.8107236100000001    0.0000000000000000
  -4.0248149299999998    0.0000000000000000    7.1351033499999996
Na Ge Se
12 4 12
direct
   0.4665750400000000    0.7259261700000000    0.2141497900000000 Na
   0.5334249599999999    0.2259261700000000    0.2858502100000000 Na
   0.5334249599999999    0.2740738300000000    0.7858502100000000 Na
   0.4665750400000000    0.7740738300000000    0.7141497900000000 Na
   0.2291129100000000    0.4392018700000000    0.0186925600000000 Na
   0.7708870900000000    0.9392018700000000    0.4813074400000000 Na
   0.7708870900000000    0.5607981300000000    0.9813074400000000 Na
   0.2291129100000000    0.0607981300000000    0.5186925600000000 Na
   0.9971769200000000    0.8387013800000001    0.9801305500000000 Na
   0.0028230800000000    0.3387013800000000    0.5198694500000000 Na
   0.0028230800000000    0.1612986200000000    0.0198694500000000 Na
   0.9971769200000000    0.6612986199999999    0.4801305500000000 Na
   0.3400736100000000    0.0098102700000000    0.9639304800000000 Ge
   0.6599263900000000    0.5098102700000000    0.5360695200000000 Ge
   0.6599263900000000    0.9901897300000000    0.0360695200000000 Ge
   0.3400736100000000    0.4901897300000000    0.4639304800000000 Ge
   0.1584469800000000    0.6227005100000000    0.2274298300000000 Se
   0.8415530200000000    0.1227005100000000    0.2725701700000000 Se
   0.8415530200000000    0.3772994900000000    0.7725701699999999 Se
   0.1584469800000000    0.8772994900000000    0.7274298300000001 Se
   0.3370484000000000    0.5303771800000000    0.7449781300000000 Se
   0.6629516000000000    0.0303771800000000    0.7550218700000000 Se
   0.6629516000000000    0.4696228200000000    0.2550218700000000 Se
   0.3370484000000000    0.9696228200000000    0.2449781300000000 Se
   0.2505079600000000    0.3003885400000000    0.3653609600000000 Se
   0.7494920400000000    0.8003885400000000    0.1346390400000000 Se
   0.7494920400000000    0.6996114600000000    0.6346390400000000 Se
   0.2505079600000000    0.1996114600000000    0.8653609600000000 Se
