Sc2 P2 S8
1.0
   6.1428504300000002   -0.0113602000000000    0.0410280400000000
   1.0068937300000000    6.3205267999999997    0.0340381800000000
   0.1932197800000000    0.3651850100000000    6.7964450400000000
Sc P S
2 2 8
direct
   0.7975292600000000    0.3030628400000000    0.9386647299999999 Sc
   0.2024707400000000    0.6969371600000001    0.0613352700000000 Sc
   0.6851375600000000    0.7371898300000000    0.1848207500000000 P
   0.3148624400000000    0.2628101700000000    0.8151792500000000 P
   0.5882775200000000    0.2341059200000000    0.6421449800000000 S
   0.4117224800000000    0.7658940800000000    0.3578550200000000 S
   0.8786124300000000    0.9688588299999999    0.2080901900000000 S
   0.1213875700000000    0.0311411700000000    0.7919098100000000 S
   0.5965372600000000    0.7136005100000000    0.8996193500000000 S
   0.4034627400000000    0.2863994900000000    0.1003806500000000 S
   0.9175515500000000    0.4749590300000000    0.2502195200000000 S
   0.0824484500000000    0.5250409700000001    0.7497804800000000 S
