Ba2 Na2 Sc2 Si4 O14
1.0
   6.8026525099999997    0.0000000000000000   -0.0074239800000000
   0.0000000000000000    5.6340293399999997    0.0000000000000000
  -2.9309603599999998    0.0000000000000000    8.2941328900000002
Ba Na Sc Si O
2 2 2 4 14
direct
   0.7938171500000000    0.2500000000000000    0.4667519300000000 Ba
   0.2061828500000000    0.7500000000000000    0.5332480700000000 Ba
   0.2268819300000000    0.7500000000000000    0.0026877700000000 Na
   0.7731180700000000    0.2500000000000000    0.9973122300000000 Na
   0.8021079100000000    0.7500000000000000    0.7321933500000000 Sc
   0.1978920900000000    0.2500000000000000    0.2678066500000000 Sc
   0.8565675100000000    0.7500000000000000    0.1552308200000000 Si
   0.1434324900000000    0.2500000000000000    0.8447691800000000 Si
   0.5513286500000000    0.7500000000000000    0.3198438800000000 Si
   0.4486713500000000    0.2500000000000000    0.6801561200000000 Si
   0.6072305099999999    0.7500000000000000    0.1482253900000000 O
   0.3927694900000000    0.2500000000000000    0.8517746100000000 O
   0.9618371100000001    0.9931237400000000    0.2512043100000000 O
   0.0381628900000000    0.4931237400000000    0.7487956900000000 O
   0.0381628900000000    0.0068762600000000    0.7487956900000000 O
   0.9618371100000001    0.5068762600000000    0.2512043100000000 O
   0.8653729200000000    0.7500000000000000    0.9737530400000000 O
   0.1346270800000000    0.2500000000000000    0.0262469600000000 O
   0.7666095000000001    0.7500000000000000    0.4758236200000000 O
   0.2333905000000000    0.2500000000000000    0.5241763800000000 O
   0.4162669300000000    0.5123583300000000    0.3165017700000000 O
   0.5837330700000000    0.0123583300000000    0.6834982300000000 O
   0.5837330700000000    0.4876416700000000    0.6834982300000000 O
   0.4162669300000000    0.9876416700000000    0.3165017700000000 O
