Rb2 Ta2 Cu4 Se8
1.0
   7.6579921799999999    0.0000000000000000    0.0000000000000000
   0.0000000000000000    9.5771138499999999    2.8437549799999999
   0.0000000000000000   -9.5771138499999999    2.8437549799999999
Rb Ta Cu Se
2 2 4 8
direct
   0.2500000000000000    0.1158175900000000    0.4814461700000000 Rb
   0.7500000000000000    0.4814461700000000    0.1158175900000000 Rb
   0.2500000000000000    0.6536830100000000    0.4356083500000000 Ta
   0.7500000000000000    0.4356083500000000    0.6536830100000000 Ta
   0.5000000000000000    0.5623165600000000    0.5623165600000000 Cu
   0.0000000000000000    0.5623165600000000    0.5623165600000000 Cu
   0.7500000000000000    0.9383979099999999    0.1504727300000000 Cu
   0.2500000000000000    0.1504727300000000    0.9383979099999999 Cu
   0.2500000000000000    0.5009373900000000    0.0808205700000000 Se
   0.7500000000000000    0.2938200200000000    0.3013635700000000 Se
   0.0077452400000000    0.6878485500000000    0.9004127200000001 Se
   0.9922547600000000    0.9004127200000001    0.6878485500000000 Se
   0.4922547600000000    0.6878485500000000    0.9004127200000001 Se
   0.5077452400000000    0.9004127200000001    0.6878485500000000 Se
   0.2500000000000000    0.3013635700000000    0.2938200200000000 Se
   0.7500000000000000    0.0808205700000000    0.5009373900000000 Se
