Rb4 W2 O8
1.0
   6.4016066800000004   -3.1307586500000002    0.0071681600000000
   6.4016066800000004    3.1307586500000002    0.0071681600000000
  -3.4523657800000001    0.0000000000000000    7.0529337999999999
Rb W O
4 2 8
direct
   0.1557847500000000    0.1557847500000000    0.7465937200000000 Rb
   0.8442152500000000    0.8442152500000000    0.2534062800000000 Rb
   0.5117107100000000    0.5117107100000000    0.2370342600000000 Rb
   0.4882892900000000    0.4882892900000000    0.7629657399999999 Rb
   0.8249611500000000    0.8249611500000000    0.7765967000000000 W
   0.1750388500000000    0.1750388500000000    0.2234033000000000 W
   0.0917104500000000    0.6245029600000001    0.9225293200000000 O
   0.3754970400000000    0.9082895500000000    0.0774706800000000 O
   0.9082895500000000    0.3754970400000000    0.0774706800000000 O
   0.6245029600000001    0.0917104500000000    0.9225293200000000 O
   0.3284386600000000    0.3284386600000000    0.3748833300000000 O
   0.6715613400000000    0.6715613400000000    0.6251166700000000 O
   0.9088140099999999    0.9088140099999999    0.6438610200000000 O
   0.0911859900000000    0.0911859900000000    0.3561389800000000 O
