Tl2 In6 S10
1.0
  10.1069142599999999   -1.9195079700000000   -0.0722035300000000
  10.1069142599999999    1.9195079700000000   -0.0722035300000000
  -6.7073979100000001    0.0000000000000000   11.0373815200000003
Tl In S
2 6 10
direct
   0.2391558900000000    0.2391558900000000    0.8017763800000000 Tl
   0.7608441100000000    0.7608441100000000    0.1982236200000000 Tl
   0.3368907400000000    0.3368907400000000    0.6011136000000000 In
   0.5463171900000000    0.5463171900000000    0.8037102900000000 In
   0.4536828100000000    0.4536828100000000    0.1962897100000000 In
   0.6631092600000000    0.6631092600000000    0.3988864000000000 In
   0.0000000000000000    0.0000000000000000    0.5000000000000000 In
   0.0000000000000000    0.0000000000000000    0.0000000000000000 In
   0.5671219400000000    0.5671219400000000    0.1562294800000000 S
   0.0677257700000000    0.0677257700000000    0.3797520400000000 S
   0.7580191600000000    0.7580191600000000    0.6290067400000000 S
   0.5912888200000000    0.5912888200000000    0.6555468000000000 S
   0.2419808400000000    0.2419808400000000    0.3709932600000000 S
   0.4087111800000000    0.4087111800000000    0.3444532000000000 S
   0.9322742300000000    0.9322742300000000    0.6202479600000000 S
   0.8839512200000000    0.8839512200000000    0.0478335300000000 S
   0.4328780600000000    0.4328780600000000    0.8437705200000000 S
   0.1160487800000000    0.1160487800000000    0.9521664700000000 S
