Li2 Al2 Si4 O12
1.0
   4.7667892099999998   -4.1983947800000001    0.0061545600000000
   4.7667892099999998    4.1983947800000001    0.0061545600000000
  -1.8343416400000001    0.0000000000000000    4.9028225499999998
Li Al Si O
2 2 4 12
direct
   0.7266191400000001    0.2733808600000000    0.7500000000000000 Li
   0.2733808600000000    0.7266191400000001    0.2500000000000000 Li
   0.0921295100000000    0.9078704900000000    0.7500000000000000 Al
   0.9078704900000000    0.0921295100000000    0.2500000000000000 Al
   0.1989740000000000    0.3871940100000000    0.7567197900000000 Si
   0.6128059900000000    0.8010260000000000    0.7432802100000000 Si
   0.8010260000000000    0.6128059900000000    0.2432802100000000 Si
   0.3871940100000000    0.1989740000000000    0.2567197900000000 Si
   0.0249539000000000    0.1915810200000000    0.6415381800000000 O
   0.8084189800000000    0.9750461000000000    0.8584618200000000 O
   0.9750461000000000    0.8084189800000000    0.3584618200000000 O
   0.1915810200000000    0.0249539000000000    0.1415381800000000 O
   0.0954538900000000    0.6329892200000000    0.7973119300000000 O
   0.3670107800000000    0.9045461100000000    0.7026880700000000 O
   0.9045461100000000    0.3670107800000000    0.2026880700000000 O
   0.6329892200000000    0.0954538900000000    0.2973119300000000 O
   0.3741920400000000    0.3382873200000000    0.5647063000000000 O
   0.6617126800000001    0.6258079600000001    0.9352937000000000 O
   0.6258079600000001    0.6617126800000001    0.4352937000000000 O
   0.3382873200000000    0.3741920400000000    0.0647063000000000 O
