Na16 Si4 Se16
1.0
  14.0830585799999994    0.0000000000000000    0.0000000000000000
   0.0000000000000000    9.1338476300000000    0.0000000000000000
   0.0000000000000000    0.0000000000000000    7.0979143000000002
Na Si Se
16 4 16
direct
   0.0000000000000000    0.0000000000000000    0.0000000000000000 Na
   0.5000000000000000    0.0000000000000000    0.5000000000000000 Na
   0.0000000000000000    0.5000000000000000    0.0000000000000000 Na
   0.5000000000000000    0.5000000000000000    0.5000000000000000 Na
   0.5499751200000000    0.7500000000000000    0.9937203600000000 Na
   0.9500248800000000    0.2500000000000000    0.4937203600000000 Na
   0.4500248800000000    0.2500000000000000    0.0062796400000000 Na
   0.0499751200000000    0.7500000000000000    0.5062796400000000 Na
   0.7342982700000000    0.0510924100000000    0.8580651700000000 Na
   0.7657017300000000    0.9489075900000000    0.3580651700000000 Na
   0.2657017300000000    0.5510924100000000    0.1419348300000000 Na
   0.2342982700000000    0.4489075900000000    0.6419348300000000 Na
   0.2657017300000000    0.9489075900000000    0.1419348300000000 Na
   0.2342982700000000    0.0510924100000000    0.6419348300000000 Na
   0.7342982700000000    0.4489075900000000    0.8580651700000000 Na
   0.7657017300000000    0.5510924100000000    0.3580651700000000 Na
   0.8341636000000000    0.7500000000000000    0.7725441600000000 Si
   0.6658364000000000    0.2500000000000000    0.2725441600000000 Si
   0.1658364000000000    0.2500000000000000    0.2274558400000000 Si
   0.3341636000000000    0.7500000000000000    0.7274558400000000 Si
   0.9063592400000000    0.5472148800000000    0.6512639500000000 Se
   0.5936407600000000    0.4527851200000000    0.1512639500000000 Se
   0.0936407600000000    0.0472148800000000    0.3487360500000000 Se
   0.4063592400000000    0.9527851200000000    0.8487360500000000 Se
   0.0936407600000000    0.4527851200000000    0.3487360500000000 Se
   0.4063592400000000    0.5472148800000000    0.8487360500000000 Se
   0.9063592400000000    0.9527851200000000    0.6512639500000000 Se
   0.5936407600000000    0.0472148800000000    0.1512639500000000 Se
   0.6792945100000000    0.7500000000000000    0.6716629500000000 Se
   0.8207054900000000    0.2500000000000000    0.1716629500000000 Se
   0.3207054900000000    0.2500000000000000    0.3283370500000000 Se
   0.1792945100000000    0.7500000000000000    0.8283370500000000 Se
   0.8579990100000000    0.7500000000000000    0.0907690900000000 Se
   0.6420009900000000    0.2500000000000000    0.5907690900000000 Se
   0.1420009900000000    0.2500000000000000    0.9092309100000000 Se
   0.3579990100000000    0.7500000000000000    0.4092309100000000 Se
