Na4 Nb4 O12
1.0
   5.5759893500000004    0.0000000000000000    0.0000000000000000
   0.0000000000000000    7.8220336499999998    0.0000000000000000
   0.0000000000000000    0.0000000000000000    5.4745551299999997
Na Nb O
4 4 12
direct
   0.9674031700000000    0.2500000000000000    0.5063372600000000 Na
   0.4674031700000000    0.2500000000000000    0.9936627400000000 Na
   0.0325968300000000    0.7500000000000000    0.4936627400000000 Na
   0.5325968300000000    0.7500000000000000    0.0063372600000000 Na
   0.5000000000000000    0.0000000000000000    0.5000000000000000 Nb
   0.0000000000000000    0.5000000000000000    0.0000000000000000 Nb
   0.0000000000000000    0.0000000000000000    0.0000000000000000 Nb
   0.5000000000000000    0.5000000000000000    0.5000000000000000 Nb
   0.2072465200000000    0.4578797700000000    0.7055573900000000 O
   0.7072465200000000    0.0421202300000000    0.7944426100000000 O
   0.7072465200000000    0.4578797700000000    0.7944426100000000 O
   0.2072465200000000    0.0421202300000000    0.7055573900000000 O
   0.7927534800000000    0.5421202300000000    0.2944426100000000 O
   0.2927534800000000    0.9578797700000000    0.2055573900000000 O
   0.2927534800000000    0.5421202300000000    0.2055573900000000 O
   0.7927534800000000    0.9578797700000000    0.2944426100000000 O
   0.9800308900000000    0.7500000000000000    0.9185236100000000 O
   0.4800308900000000    0.7500000000000000    0.5814763900000000 O
   0.0199691100000000    0.2500000000000000    0.0814763900000000 O
   0.5199691100000000    0.2500000000000000    0.4185236100000000 O
