Mg8 Si4 S16
1.0
  12.6379634000000003    0.0000000000000000    0.0000000000000000
   0.0000000000000000    7.3966036800000001    0.0000000000000000
   0.0000000000000000    0.0000000000000000    5.9003772699999999
Mg Si S
8 4 16
direct
   0.0000000000000000    0.5000000000000000    0.0000000000000000 Mg
   0.5000000000000000    0.0000000000000000    0.5000000000000000 Mg
   0.0000000000000000    0.0000000000000000    0.0000000000000000 Mg
   0.5000000000000000    0.5000000000000000    0.5000000000000000 Mg
   0.7688373100000000    0.7500000000000000    0.4916652900000000 Mg
   0.2688373100000000    0.7500000000000000    0.0083347100000000 Mg
   0.2311626900000000    0.2500000000000000    0.5083347100000000 Mg
   0.7311626900000000    0.2500000000000000    0.9916652900000000 Mg
   0.5897138200000001    0.7500000000000000    0.9056233100000000 Si
   0.0897138200000000    0.7500000000000000    0.5943766900000000 Si
   0.4102861800000000    0.2500000000000000    0.0943766900000000 Si
   0.9102861799999999    0.2500000000000000    0.4056233100000000 Si
   0.5925179400000000    0.7500000000000000    0.2631786100000000 S
   0.0925179400000000    0.7500000000000000    0.2368213900000000 S
   0.4074820600000000    0.2500000000000000    0.7368213900000000 S
   0.9074820600000000    0.2500000000000000    0.7631786100000000 S
   0.4339376700000000    0.7500000000000000    0.7604551500000000 S
   0.9339376700000001    0.7500000000000000    0.7395448500000000 S
   0.5660623299999999    0.2500000000000000    0.2395448500000000 S
   0.0660623300000000    0.2500000000000000    0.2604551500000000 S
   0.6672284400000000    0.5231942100000000    0.7515058400000000 S
   0.1672284400000000    0.9768057900000000    0.7484941600000000 S
   0.3327715600000000    0.0231942100000000    0.2484941600000000 S
   0.8327715600000000    0.4768057900000000    0.2515058400000000 S
   0.3327715600000000    0.4768057900000000    0.2484941600000000 S
   0.8327715600000000    0.0231942100000000    0.2515058400000000 S
   0.6672284400000000    0.9768057900000000    0.7515058400000000 S
   0.1672284400000000    0.5231942100000000    0.7484941600000000 S
