Na12 Nb4 O16
1.0
   5.5522580200000000   -6.4662288700000001    0.0066518700000000
   5.5522580200000000    6.4662288700000001    0.0066518700000000
  -1.9105665000000001    0.0000000000000000    5.3708019199999999
Na Nb O
12 4 16
direct
   0.5000000000000000    0.0000000000000000    0.0000000000000000 Na
   0.7393974500000000    0.2606025500000000    0.5000000000000000 Na
   0.2606025500000000    0.7393974500000000    0.5000000000000000 Na
   0.0000000000000000    0.0000000000000000    0.5000000000000000 Na
   0.6238615500000000    0.8791975600000000    0.4812000600000000 Na
   0.1208024400000000    0.3761384500000000    0.5187999400000000 Na
   0.3761384500000000    0.1208024400000000    0.5187999400000000 Na
   0.8791975600000000    0.6238615500000000    0.4812000600000000 Na
   0.3759875900000000    0.6240124100000000    0.0000000000000000 Na
   0.0000000000000000    0.5000000000000000    0.0000000000000000 Na
   0.6240124100000000    0.3759875900000000    0.0000000000000000 Na
   0.5000000000000000    0.5000000000000000    0.5000000000000000 Na
   0.2613754300000000    0.2613754300000000    0.0246495200000000 Nb
   0.7386245700000000    0.7386245700000000    0.9753504800000000 Nb
   0.8666343100000000    0.1333656900000000    0.0000000000000000 Nb
   0.1333656900000000    0.8666343100000000    0.0000000000000000 Nb
   0.4671288600000000    0.2467049900000000    0.2333504900000000 O
   0.7532950100000000    0.5328711400000000    0.7666495100000000 O
   0.5328711400000000    0.7532950100000000    0.7666495100000000 O
   0.2467049900000000    0.4671288600000000    0.2333504900000000 O
   0.7661346500000000    0.9908655100000000    0.1955915700000000 O
   0.0091344900000000    0.2338653500000000    0.8044084300000000 O
   0.2338653500000000    0.0091344900000000    0.8044084300000000 O
   0.9908655100000000    0.7661346500000000    0.1955915700000000 O
   0.6510652400000000    0.6510652400000000    0.2137340900000000 O
   0.3489347600000000    0.3489347600000000    0.7862659100000000 O
   0.6626808500000000    0.1247895200000000    0.7697925200000000 O
   0.8752104800000000    0.3373191500000000    0.2302074800000000 O
   0.3373191500000000    0.8752104800000000    0.2302074800000000 O
   0.8873606500000000    0.8873606500000000    0.7988017100000000 O
   0.1126393500000000    0.1126393500000000    0.2011982900000000 O
   0.1247895200000000    0.6626808500000000    0.7697925200000000 O
