Na6 Be2 Al2 Si4 O16
1.0
   6.8193279699999998    0.0000000000000000    0.0000000000000000
   0.0000000000000000    7.1717046800000004    0.0000000000000000
   0.0000000000000000    0.0000000000000000    7.2816921700000004
Na Be Al Si O
6 2 2 4 16
direct
   0.2501837100000000    0.2881545500000000    0.3239077300000000 Na
   0.7498162900000001    0.7118454500000000    0.3239077300000000 Na
   0.5000000000000000    0.0000000000000000    0.0334446800000000 Na
   0.0000000000000000    0.5000000000000000    0.9665553200000000 Na
   0.7501837099999999    0.2118454500000000    0.6760922700000001 Na
   0.2498162900000000    0.7881545500000000    0.6760922700000001 Na
   0.0000000000000000    0.5000000000000000    0.5702924400000000 Be
   0.5000000000000000    0.0000000000000000    0.4297075600000000 Be
   0.0000000000000000    0.0000000000000000    0.0358938200000000 Al
   0.5000000000000000    0.5000000000000000    0.9641061800000000 Al
   0.7644919600000000    0.3036838300000000    0.2600833600000000 Si
   0.2644919600000000    0.1963161700000000    0.7399166400000000 Si
   0.2355080400000000    0.6963161700000000    0.2600833600000000 Si
   0.7355080400000000    0.8036838300000000    0.7399166400000000 Si
   0.0402448300000000    0.8009401700000000    0.1723523100000000 O
   0.1760234900000000    0.5846933500000000    0.4453879900000000 O
   0.7940146100000000    0.9641559700000000    0.8953704000000000 O
   0.2059853900000000    0.0358440300000000    0.8953704000000000 O
   0.4202660000000000    0.8354004400000000    0.2898500000000000 O
   0.4597551700000000    0.3009401700000000    0.8276476900000000 O
   0.9597551700000000    0.1990598300000000    0.1723523100000000 O
   0.3239765100000000    0.0846933500000000    0.5546120100000000 O
   0.0797340000000000    0.3354004400000000    0.7101499999999999 O
   0.6760234899999999    0.9153066500000000    0.5546120100000000 O
   0.5402448300000000    0.6990598300000000    0.8276476900000000 O
   0.8239765100000001    0.4153066500000000    0.4453879900000000 O
   0.2940146100000000    0.5358440300000000    0.1046296000000000 O
   0.5797340000000000    0.1645995600000000    0.2898500000000000 O
   0.7059853900000000    0.4641559700000000    0.1046296000000000 O
   0.9202660000000000    0.6645995600000000    0.7101499999999999 O
