Ba2 Y4 Si6 O20
1.0
   5.4109670300000001    0.0000000000000000   -0.0042730500000000
   0.0000000000000000   12.1627029100000001    0.0000000000000000
  -1.9355037399999999    0.0000000000000000    6.5737066300000002
Ba Y Si O
2 4 6 20
direct
   0.7593555300000000    0.7500000000000000    0.0143791800000000 Ba
   0.2406444700000000    0.2500000000000000    0.9856208200000000 Ba
   0.1569011400000000    0.5993076400000000    0.6829289700000000 Y
   0.1569011400000000    0.9006923600000000    0.6829289700000000 Y
   0.8430988600000000    0.0993076400000000    0.3170710300000000 Y
   0.8430988600000000    0.4006923600000000    0.3170710300000000 Y
   0.6954825200000000    0.0599437500000000    0.7882056700000000 Si
   0.4177891000000000    0.2500000000000000    0.5141048900000000 Si
   0.5822109000000000    0.7500000000000000    0.4858951100000000 Si
   0.6954825200000000    0.4400562500000000    0.7882056700000000 Si
   0.3045174800000000    0.5599437500000000    0.2117943300000000 Si
   0.3045174800000000    0.9400562500000000    0.2117943300000000 Si
   0.8945875200000000    0.4510854500000000    0.6462563800000000 O
   0.4494277800000000    0.1420780500000000    0.6650552100000000 O
   0.5505722199999999    0.8579219500000000    0.3349447900000000 O
   0.4494277800000000    0.3579219500000000    0.6650552100000000 O
   0.8408307800000000    0.3781923900000000    0.9993602300000000 O
   0.1591692200000000    0.8781923900000000    0.0006397700000000 O
   0.4351169600000000    0.0570772700000000    0.1886831700000000 O
   0.1054124800000000    0.9510854500000000    0.3537436200000000 O
   0.1054124800000000    0.5489145500000000    0.3537436200000000 O
   0.6316110900000000    0.2500000000000000    0.3888539400000000 O
   0.8408307800000000    0.1218076100000000    0.9993602300000000 O
   0.5648830400000000    0.5570772700000000    0.8113168300000000 O
   0.1231896800000000    0.2500000000000000    0.3653337700000000 O
   0.5505722199999999    0.6420780500000000    0.3349447900000000 O
   0.8768103200000000    0.7500000000000000    0.6346662300000000 O
   0.5648830400000000    0.9429227300000000    0.8113168300000000 O
   0.3683889100000000    0.7500000000000000    0.6111460600000000 O
   0.4351169600000000    0.4429227300000000    0.1886831700000000 O
   0.1591692200000000    0.6218076100000000    0.0006397700000000 O
   0.8945875200000000    0.0489145500000000    0.6462563800000000 O
