Ba3 Sr1 Mg2 Te2 O12
1.0
   2.8576550900000002    1.6498678099999999    9.3243140699999998
  -2.8576550900000002    1.6498678099999999    9.3243140699999998
   0.0000000000000000   -3.2997366100000001    9.3243140699999998
Ba Sr Mg Te O
3 1 2 2 12
direct
   0.8750975600000001    0.8750975600000001    0.8750975600000001 Ba
   0.1245190200000000    0.1245190200000000    0.1245190200000000 Ba
   0.6254257400000000    0.6254257400000000    0.6254257400000000 Ba
   0.3748102900000000    0.3748102900000000    0.3748102900000000 Sr
   0.0003767200000000    0.0003767200000000    0.0003767200000000 Mg
   0.4995921600000000    0.4995921600000000    0.4995921600000000 Mg
   0.7493233400000000    0.7493233400000000    0.7493233400000000 Te
   0.2507040900000000    0.2507040900000000    0.2507040900000000 Te
   0.3890053800000000    0.8698632600000000    0.8698632600000000 O
   0.8900601299999999    0.3704389000000000    0.3704389000000000 O
   0.6270002500000000    0.1123357900000000    0.6270002500000000 O
   0.1327016200000000    0.6087457200000000    0.1327016200000000 O
   0.8698632600000000    0.8698632600000000    0.3890053800000000 O
   0.3704389000000000    0.3704389000000000    0.8900601299999999 O
   0.1123357900000000    0.6270002500000000    0.6270002500000000 O
   0.6087457200000000    0.1327016200000000    0.1327016200000000 O
   0.8698632600000000    0.3890053800000000    0.8698632600000000 O
   0.3704389000000000    0.8900601299999999    0.3704389000000000 O
   0.6270002500000000    0.6270002500000000    0.1123357900000000 O
   0.1327016200000000    0.1327016200000000    0.6087457200000000 O
