Ba2 Te2 Mo4 O18
1.0
   5.4930931899999997    0.0000000000000000   -0.0076134300000000
   0.0000000000000000    7.4733746500000002    0.0000000000000000
  -0.0815239000000000    0.0000000000000000    8.8326183000000000
Ba Te Mo O
2 2 4 18
direct
   0.7331270000000000    0.7496072700000000    0.9355007700000000 Ba
   0.2668730000000000    0.2496072700000000    0.0644992300000000 Ba
   0.3691736900000000    0.9919545000000000    0.5862828600000000 Te
   0.6308263100000000    0.4919545000000000    0.4137171400000000 Te
   0.2245034200000000    0.5498086599999999    0.6753833600000000 Mo
   0.7754965800000000    0.0498086600000000    0.3246166400000000 Mo
   0.7791436500000000    0.2288224300000000    0.7656750600000000 Mo
   0.2208563500000000    0.7288224300000000    0.2343249400000000 Mo
   0.2914732400000000    0.5310684200000000    0.8714910900000000 O
   0.7085267600000000    0.0310684200000000    0.1285089100000000 O
   0.9833492000000000    0.7030090700000000    0.6672143400000000 O
   0.0166508000000000    0.2030090700000000    0.3327856600000000 O
   0.0391323800000000    0.3409254800000000    0.6422364600000000 O
   0.9608676200000000    0.8409254800000000    0.3577635400000000 O
   0.7781241000000000    0.3784362200000000    0.9199842499999999 O
   0.2218759000000000    0.8784362200000000    0.0800157500000000 O
   0.2974323200000000    0.5731159000000000    0.4421845000000000 O
   0.7025676800000000    0.0731159000000000    0.5578155000000000 O
   0.5365705700000000    0.2710342400000000    0.3259744700000000 O
   0.4634294300000000    0.7710342400000000    0.6740255300000000 O
   0.5572915200000000    0.4119533800000000    0.6275774700000000 O
   0.4427084800000000    0.9119533800000000    0.3724225300000000 O
   0.5167461700000000    0.6092975400000000    0.1990485800000000 O
   0.4832538300000000    0.1092975400000000    0.8009514200000000 O
   0.0203245200000000    0.5609268900000000    0.1678571000000000 O
   0.9796754800000000    0.0609268900000000    0.8321429000000000 O
