Cs4 P4 O12
1.0
   6.7730735400000004    0.0000000000000000    0.0410297500000000
   0.0000000000000000    4.3309906199999997    0.0000000000000000
  -5.5852767900000000    0.0000000000000000   12.5124474100000000
Cs P O
4 4 12
direct
   0.6847151900000000    0.6345279800000000    0.4089976300000000 Cs
   0.3152848100000000    0.3654720200000000    0.5910023700000000 Cs
   0.3152848100000000    0.1345279800000000    0.0910023700000000 Cs
   0.6847151900000000    0.8654720200000000    0.9089976300000000 Cs
   0.1334350800000000    0.9941197300000000    0.3185809100000000 P
   0.8665649200000000    0.0058802700000000    0.6814190900000000 P
   0.8665649200000000    0.4941197300000000    0.1814190900000000 P
   0.1334350800000000    0.5058802700000000    0.8185809100000000 P
   0.6630181800000000    0.6366370400000000    0.1788611300000000 O
   0.3369818200000000    0.3633629600000000    0.8211388700000000 O
   0.3369818200000000    0.1366370400000000    0.3211388700000000 O
   0.6630181800000000    0.8633629600000000    0.6788611300000000 O
   0.0614172000000000    0.7457812200000000    0.2211903400000000 O
   0.9385828000000001    0.2542187800000000    0.7788096600000000 O
   0.9385828000000001    0.2457812200000000    0.2788096600000000 O
   0.0614172000000000    0.7542187800000000    0.7211903400000000 O
   0.1275626700000000    0.8495767500000000    0.4165577000000000 O
   0.8724373300000000    0.1504232500000000    0.5834423000000000 O
   0.8724373300000000    0.3495767500000000    0.0834423000000000 O
   0.1275626700000000    0.6504232500000000    0.9165577000000000 O
