Sr4 N8 O24
1.0
   7.7473053299999997    0.0000000000000000    0.0000000000000000
   0.0000000000000000    7.7473053299999997    0.0000000000000000
   0.0000000000000000    0.0000000000000000    7.7473053299999997
Sr N O
4 8 24
direct
   0.0000000000000000    0.5000000000000000    0.5000000000000000 Sr
   0.5000000000000000    0.5000000000000000    0.0000000000000000 Sr
   0.5000000000000000    0.0000000000000000    0.5000000000000000 Sr
   0.0000000000000000    0.0000000000000000    0.0000000000000000 Sr
   0.3412185000000000    0.3412185000000000    0.3412185000000000 N
   0.3412185000000000    0.1587815000000000    0.8412185000000000 N
   0.1587815000000000    0.8412185000000000    0.3412185000000000 N
   0.8412185000000000    0.3412185000000000    0.1587815000000000 N
   0.6587815000000000    0.6587815000000000    0.6587815000000000 N
   0.1587815000000000    0.6587815000000000    0.8412185000000000 N
   0.8412185000000000    0.1587815000000000    0.6587815000000000 N
   0.6587815000000000    0.8412185000000000    0.1587815000000000 N
   0.7695372400000000    0.2798811700000000    0.0260899300000000 O
   0.2201188300000000    0.9739100700000000    0.2695372400000000 O
   0.2304627600000000    0.7798811700000000    0.4739100700000000 O
   0.2695372400000000    0.2201188300000000    0.9739100700000000 O
   0.2695372400000000    0.2798811700000000    0.4739100700000000 O
   0.4739100700000000    0.2695372400000000    0.2798811700000000 O
   0.2798811700000000    0.4739100700000000    0.2695372400000000 O
   0.2201188300000000    0.5260899300000000    0.7695372400000000 O
   0.9739100700000000    0.2304627600000000    0.7201188300000000 O
   0.7201188300000000    0.9739100700000000    0.2304627600000000 O
   0.0260899300000000    0.7304627600000000    0.7798811700000000 O
   0.5260899300000000    0.7695372400000000    0.2201188300000000 O
   0.7798811700000000    0.0260899300000000    0.7304627600000000 O
   0.7695372400000000    0.2201188300000000    0.5260899300000000 O
   0.7304627600000000    0.7798811700000000    0.0260899300000000 O
   0.2304627600000000    0.7201188300000000    0.9739100700000000 O
   0.7304627600000000    0.7201188300000000    0.5260899300000000 O
   0.5260899300000000    0.7304627600000000    0.7201188300000000 O
   0.7201188300000000    0.5260899300000000    0.7304627600000000 O
   0.7798811700000000    0.4739100700000000    0.2304627600000000 O
   0.0260899300000000    0.7695372400000000    0.2798811700000000 O
   0.2798811700000000    0.0260899300000000    0.7695372400000000 O
   0.9739100700000000    0.2695372400000000    0.2201188300000000 O
   0.4739100700000000    0.2304627600000000    0.7798811700000000 O
