Zn1 Ga1 As1 Se1
1.0
   1.9887201699999999    1.1481884300000000    6.5123826300000003
  -1.9887201699999999    1.1481884300000000    6.5123826300000003
   0.0000000000000000   -2.2963768700000000    6.5123826300000003
Zn Ga As Se
1 1 1 1
direct
   0.0015407300000000    0.0015407300000000    0.0015407300000000 Zn
   0.4985468500000000    0.4985468500000000    0.4985468500000000 Ga
   0.1249836500000000    0.1249836500000000    0.1249836500000000 As
   0.6249297600000000    0.6249297600000000    0.6249297600000000 Se
