Rb4 Si4 Bi4 S16
1.0
   6.4550057900000004    0.0000000000000000    0.0099794600000000
   0.0000000000000000    6.6862555099999996    0.0000000000000000
  -5.4767469899999996    0.0000000000000000   16.9178692499999990
Rb Si Bi S
4 4 4 16
direct
   0.2758118900000000    0.7466535399999999    0.5337285500000000 Rb
   0.2758118900000000    0.7533464600000001    0.0337285500000000 Rb
   0.7241881100000001    0.2466535400000000    0.9662714500000000 Rb
   0.7241881100000001    0.2533464600000000    0.4662714500000000 Rb
   0.7914046200000000    0.7658867400000000    0.3386342600000000 Si
   0.7914046200000000    0.7341132600000000    0.8386342600000000 Si
   0.2085953800000000    0.2658867400000000    0.1613657400000000 Si
   0.2085953800000000    0.2341132600000000    0.6613657400000000 Si
   0.7630389900000000    0.2878554900000000    0.7238280900000000 Bi
   0.2369610100000000    0.7121445100000000    0.2761719100000000 Bi
   0.7630389900000000    0.2121445100000000    0.2238280900000000 Bi
   0.2369610100000000    0.7878554900000000    0.7761719100000000 Bi
   0.0134619300000000    0.0030441900000000    0.1469037100000000 S
   0.5918127600000000    0.6849659700000000    0.7191385900000000 S
   0.9865380700000000    0.9969558100000000    0.8530962900000000 S
   0.9865380700000000    0.5030441900000000    0.3530962900000000 S
   0.5918127600000000    0.8150340300000000    0.2191385900000000 S
   0.5906171600000000    0.7572434900000000    0.4128467900000000 S
   0.4093828400000000    0.2427565100000000    0.5871532100000000 S
   0.4081872400000000    0.3150340300000000    0.2808614100000000 S
   0.4093828400000000    0.2572434900000000    0.0871532100000000 S
   0.5906171600000000    0.7427565100000000    0.9128467900000000 S
   0.0227503100000000    0.0015885900000000    0.3621938500000000 S
   0.9772496899999999    0.5015885900000000    0.1378061500000000 S
   0.9772496899999999    0.9984114100000000    0.6378061500000000 S
   0.0134619300000000    0.4969558100000000    0.6469037100000000 S
   0.0227503100000000    0.4984114100000000    0.8621938500000000 S
   0.4081872400000000    0.1849659700000000    0.7808614100000000 S
