Ga1 N5 O14
1.0
   6.6011646600000002   -3.0107340800000002    0.0549865000000000
   6.6011646600000002    3.0107340800000002    0.0549865000000000
  -6.0869277500000001    0.0000000000000000    6.5598885100000004
Ga N O
1 5 14
direct
   0.9861011000000000    0.0138989000000000    0.0000000000000000 Ga
   0.4595884700000000    0.8752944800000000    0.3134472600000000 N
   0.1247055200000000    0.5404115300000000    0.6865527400000000 N
   0.5899689299999999    0.1539753900000000    0.0326458700000000 N
   0.8460246100000000    0.4100310700000000    0.9673541300000000 N
   0.8603851200000000    0.1396148800000000    0.5000000000000000 N
   0.3245721600000000    0.9944890199999999    0.1837505500000000 O
   0.0055109800000000    0.6754278400000000    0.8162494500000000 O
   0.3794136800000000    0.7496185300000000    0.2894980400000000 O
   0.2503814700000000    0.6205863200000000    0.7105019600000000 O
   0.6589102000000000    0.9005256000000000    0.4479435100000000 O
   0.0994744000000000    0.3410898000000000    0.5520564900000000 O
   0.8326704400000000    0.0755820900000000    0.1592462400000000 O
   0.9244179100000000    0.1673295600000000    0.8407537600000000 O
   0.5680451600000000    0.1479706300000000    0.8773624500000000 O
   0.8520293700000000    0.4319548400000000    0.1226375500000000 O
   0.4118460300000000    0.2231303500000000    0.0668760100000000 O
   0.7768696500000000    0.5881539700000000    0.9331239900000000 O
   0.6713623200000000    0.3286376800000000    0.5000000000000000 O
   0.0495245000000000    0.9504755000000000    0.5000000000000000 O
