Na8 Zn4 O8
1.0
   7.5769274900000001    0.0000000000000000   -0.0508206200000000
   0.0000000000000000    5.8676663700000002    0.0000000000000000
  -0.4781610500000000    0.0000000000000000    5.6184181200000003
Na Zn O
8 4 8
direct
   0.6775214300000000    0.8565624900000000    0.0725639200000000 Na
   0.3224785700000000    0.3565624900000000    0.4274360800000000 Na
   0.3224785700000000    0.1434375100000000    0.9274360800000000 Na
   0.6775214300000000    0.6434375100000000    0.5725639200000000 Na
   0.0299025300000000    0.7409647100000000    0.0086738600000000 Na
   0.9700974700000000    0.2409647100000000    0.4913261400000000 Na
   0.9700974700000000    0.2590352900000000    0.9913261400000000 Na
   0.0299025300000000    0.7590352900000000    0.5086738600000000 Na
   0.3681470500000000    0.8956723700000000    0.3538578100000000 Zn
   0.6318529500000000    0.3956723700000000    0.1461421900000000 Zn
   0.6318529500000000    0.1043276300000000    0.6461421899999999 Zn
   0.3681470500000000    0.6043276300000000    0.8538578100000001 Zn
   0.5623953400000000    0.3746029100000000    0.8041596600000001 O
   0.4376046600000000    0.8746029100000000    0.6958403399999999 O
   0.4376046600000000    0.6253970900000000    0.1958403400000000 O
   0.5623953400000000    0.1253970900000000    0.3041596600000000 O
   0.1504050900000000    0.4653816700000000    0.7524571400000000 O
   0.8495949100000000    0.9653816700000000    0.7475428600000000 O
   0.8495949100000000    0.5346183300000000    0.2475428600000000 O
   0.1504050900000000    0.0346183300000000    0.2524571400000000 O
