Rb1 Tl1 O2
1.0
   1.7420240600000001    1.0057581499999999    6.3358832899999999
  -1.7420240600000001    1.0057581499999999    6.3358832899999999
   0.0000000000000000   -2.0115162899999999    6.3358832899999999
Rb Tl O
1 1 2
direct
   0.5000000000000000    0.5000000000000000    0.5000000000000000 Rb
   0.0000000000000000    0.0000000000000000    0.0000000000000000 Tl
   0.2712342000000000    0.2712342000000000    0.2712342000000000 O
   0.7287658000000000    0.7287658000000000    0.7287658000000000 O
