La8 Hf4 Se20
1.0
  11.7814141299999999    0.0000000000000000    0.0000000000000000
   0.0000000000000000    8.5556520799999998    0.0000000000000000
   0.0000000000000000    0.0000000000000000    7.6480757099999996
La Hf Se
8 4 20
direct
   0.8298570600000000    0.9992450200000000    0.9334268400000000 La
   0.3298570600000000    0.5007549800000000    0.5665731600000000 La
   0.1701429400000000    0.4992450200000000    0.0665731600000000 La
   0.6701429400000000    0.0007549800000000    0.4334268400000000 La
   0.1701429400000000    0.0007549800000000    0.0665731600000000 La
   0.6701429400000000    0.4992450200000000    0.4334268400000000 La
   0.8298570600000000    0.5007549800000000    0.9334268400000000 La
   0.3298570600000000    0.9992450200000000    0.5665731600000000 La
   0.9905362500000000    0.7500000000000000    0.4303892400000000 Hf
   0.4905362500000000    0.7500000000000000    0.0696107600000000 Hf
   0.0094637500000000    0.2500000000000000    0.5696107600000000 Hf
   0.5094637500000000    0.2500000000000000    0.9303892400000000 Hf
   0.5699317800000000    0.9623173100000000    0.8162987400000000 Se
   0.0699317800000000    0.5376826900000000    0.6837012600000000 Se
   0.4300682200000000    0.4623173100000000    0.1837012600000000 Se
   0.9300682200000000    0.0376826900000000    0.3162987400000000 Se
   0.4300682200000000    0.0376826900000000    0.1837012600000000 Se
   0.9300682200000000    0.4623173100000000    0.3162987400000000 Se
   0.5699317800000000    0.5376826900000000    0.8162987400000000 Se
   0.0699317800000000    0.9623173100000000    0.6837012600000000 Se
   0.8027809200000000    0.7500000000000000    0.6376738100000000 Se
   0.3027809200000000    0.7500000000000000    0.8623261900000000 Se
   0.1972190800000000    0.2500000000000000    0.3623261900000000 Se
   0.6972190800000000    0.2500000000000000    0.1376738100000000 Se
   0.4943503000000000    0.7500000000000000    0.4427390700000000 Se
   0.9943503000000000    0.7500000000000000    0.0572609300000000 Se
   0.5056497000000000    0.2500000000000000    0.5572609300000000 Se
   0.0056497000000000    0.2500000000000000    0.9427390700000000 Se
   0.7124343600000000    0.7500000000000000    0.1556350900000000 Se
   0.2124343600000000    0.7500000000000000    0.3443649100000000 Se
   0.2875656400000000    0.2500000000000000    0.8443649100000000 Se
   0.7875656400000000    0.2500000000000000    0.6556350900000000 Se
