Sr2 Ge2 P4 O16
1.0
   8.1447399899999997   -2.5483540400000000   -0.0043743600000000
   8.1447399899999997    2.5483540400000000   -0.0043743600000000
  -3.4370772800000000    0.0000000000000000    7.1448298699999997
Sr Ge P O
2 2 4 16
direct
   0.1871719300000000    0.8128280700000000    0.7500000000000000 Sr
   0.8128280700000000    0.1871719300000000    0.2500000000000000 Sr
   0.0000000000000000    0.5000000000000000    0.5000000000000000 Ge
   0.5000000000000000    0.0000000000000000    0.0000000000000000 Ge
   0.4070141700000000    0.8862783400000001    0.2617096200000000 P
   0.1137216600000000    0.5929858300000000    0.2382903800000000 P
   0.5929858300000000    0.1137216600000000    0.7382903800000000 P
   0.8862783400000001    0.4070141700000000    0.7617096200000000 P
   0.1960842200000000    0.1324421200000000    0.4058947100000000 O
   0.8675578800000000    0.8039157800000000    0.0941052900000000 O
   0.8039157800000000    0.8675578800000000    0.5941052900000000 O
   0.1324421200000000    0.1960842200000000    0.9058947100000000 O
   0.6736183500000000    0.6222095800000000    0.3638775200000000 O
   0.3777904200000000    0.3263816500000000    0.1361224800000000 O
   0.3263816500000000    0.3777904200000000    0.6361224800000000 O
   0.6222095800000000    0.6736183500000000    0.8638775200000000 O
   0.4944652000000000    0.9573321600000000    0.2071391700000000 O
   0.0426678400000000    0.5055348000000000    0.2928608300000000 O
   0.5055348000000000    0.0426678400000000    0.7928608300000000 O
   0.9573321600000000    0.4944652000000000    0.7071391700000000 O
   0.2743548200000000    0.8287712400000000    0.1063194500000000 O
   0.1712287600000000    0.7256451800000000    0.3936805500000000 O
   0.7256451800000000    0.1712287600000000    0.8936805500000000 O
   0.8287712400000000    0.2743548200000000    0.6063194500000000 O
