Mg1 Sn1 B2 O6
1.0
   2.3646015100000000    1.3652036299999999    4.9673586500000004
  -2.3646015199999999    1.3652036000000001    4.9673586500000004
   0.0000000200000000   -2.7304062500000001    4.9673586500000004
Mg Sn B O
1 1 2 6
direct
   0.0000000000000000    0.0000000000000000    0.0000000000000000 Mg
   0.5000000000000000    0.5000000000000000    0.5000000000000000 Sn
   0.7521052400000000    0.7521052400000000    0.7521052400000000 B
   0.2478947600000000    0.2478947600000000    0.2478947600000000 B
   0.7510051599999999    0.0438716400000000    0.4591535900000000 O
   0.0438716400000000    0.4591535900000000    0.7510051599999999 O
   0.5408464100000000    0.2489948400000000    0.9561283600000000 O
   0.2489948400000000    0.9561283600000000    0.5408464100000000 O
   0.9561283600000000    0.5408464100000000    0.2489948400000000 O
   0.4591535900000000    0.7510051599999999    0.0438716400000000 O
