Na2 Sc2 Si4 O12
1.0
   4.9322789699999996   -4.5014911900000003   -0.0059206100000000
   4.9322789699999996    4.5014911900000003   -0.0059206100000000
  -1.6275756200000000    0.0000000000000000    5.1128456299999998
Na Sc Si O
2 2 4 12
direct
   0.7013186600000000    0.2986813400000000    0.2500000000000000 Na
   0.2986813400000000    0.7013186600000000    0.7500000000000000 Na
   0.1023283000000000    0.8976717000000000    0.2500000000000000 Sc
   0.8976717000000000    0.1023283000000000    0.7500000000000000 Sc
   0.6211275800000000    0.7968801900000000    0.2534589000000000 Si
   0.7968801900000000    0.6211275800000000    0.7534589000000000 Si
   0.2031198100000000    0.3788724200000000    0.2465411000000000 Si
   0.3788724200000000    0.2031198100000000    0.7465411000000000 Si
   0.6438190499999999    0.6530002300000000    0.4733684100000000 O
   0.3469997700000000    0.3561809500000000    0.0266315900000000 O
   0.3561809500000000    0.3469997700000000    0.5266315900000000 O
   0.6530002300000000    0.6438190499999999    0.9733684100000000 O
   0.3892524100000000    0.8913429500000000    0.1924865100000000 O
   0.1086570500000000    0.6107475900000000    0.3075134900000000 O
   0.6107475900000000    0.1086570500000000    0.8075134899999999 O
   0.8913429500000000    0.3892524100000000    0.6924865100000001 O
   0.9629922200000000    0.8031306200000000    0.8537976700000000 O
   0.1968693800000000    0.0370077800000000    0.6462023300000000 O
   0.0370077800000000    0.1968693800000000    0.1462023300000000 O
   0.8031306200000000    0.9629922200000000    0.3537976700000000 O
