Ti2 Cd2 O6
1.0
   2.6465493400000000    1.5279865300000000    4.9666426000000001
  -2.6465496300000000    1.5279860400000000    4.9666426000000001
   0.0000002800000000   -3.0559715700000001    4.9666426000000001
Ti Cd O
2 2 6
direct
   0.1544754500000000    0.1544754500000000    0.1544754500000000 Ti
   0.8455245500000000    0.8455245500000000    0.8455245500000000 Ti
   0.3643754800000000    0.3643754800000000    0.3643754800000000 Cd
   0.6356245200000000    0.6356245200000000    0.6356245200000000 Cd
   0.5601270900000000    0.9628252700000000    0.2004987400000000 O
   0.9628252700000000    0.2004987400000000    0.5601270900000000 O
   0.2004987400000000    0.5601270900000000    0.9628252700000000 O
   0.4398729100000000    0.0371747300000000    0.7995012600000000 O
   0.7995012600000000    0.4398729100000000    0.0371747300000000 O
   0.0371747300000000    0.7995012600000000    0.4398729100000000 O
