Rb2 Bi2 O4
1.0
   4.0126081200000003   -4.1738466100000000   -0.0001032000000000
   4.0126081200000003    4.1738466100000000   -0.0001032000000000
  -3.3421039399999999    0.0000000000000000    4.9833615199999999
Rb Bi O
2 2 4
direct
   0.6335380100000000    0.3664619900000000    0.2500000000000000 Rb
   0.3664619900000000    0.6335380100000000    0.7500000000000000 Rb
   0.9012207300000000    0.0987792700000000    0.7500000000000000 Bi
   0.0987792700000000    0.9012207300000000    0.2500000000000000 Bi
   0.8766692100000000    0.7513437500000000    0.7862648900000000 O
   0.2486562500000000    0.1233307900000000    0.7137351100000000 O
   0.7513437500000000    0.8766692100000000    0.2862648900000000 O
   0.1233307900000000    0.2486562500000000    0.2137351100000000 O
