Rb8 W4 Se16
1.0
  10.0304662600000007    0.0000000000000000    0.0000000000000000
   0.0000000000000000    7.1735040300000001    0.0000000000000000
   0.0000000000000000    0.0000000000000000   12.6610179100000000
Rb W Se
8 4 16
direct
   0.9533474900000000    0.2500000000000000    0.3435426300000000 Rb
   0.4533474900000000    0.2500000000000000    0.1564573700000000 Rb
   0.0466525100000000    0.7500000000000000    0.6564573700000000 Rb
   0.5466525100000000    0.7500000000000000    0.8435426300000000 Rb
   0.6582297400000000    0.2500000000000000    0.6105713200000000 Rb
   0.1582297400000000    0.2500000000000000    0.8894286800000000 Rb
   0.3417702600000000    0.7500000000000000    0.3894286800000000 Rb
   0.8417702600000000    0.7500000000000000    0.1105713200000000 Rb
   0.7509611100000000    0.2500000000000000    0.9270891900000000 W
   0.2509611100000000    0.2500000000000000    0.5729108100000000 W
   0.2490388900000000    0.7500000000000000    0.0729108100000000 W
   0.7490388900000000    0.7500000000000000    0.4270891900000000 W
   0.6475339900000000    0.4898967100000000    0.3548381000000000 Se
   0.1475339900000000    0.0101032900000000    0.1451619000000000 Se
   0.3524660100000000    0.9898967100000000    0.6451619000000000 Se
   0.8524660100000000    0.5101032900000000    0.8548381000000000 Se
   0.3524660100000000    0.5101032900000000    0.6451619000000000 Se
   0.8524660100000000    0.9898967100000000    0.8548381000000000 Se
   0.6475339900000000    0.0101032900000000    0.3548381000000000 Se
   0.1475339900000000    0.4898967100000000    0.1451619000000000 Se
   0.5241861300000000    0.2500000000000000    0.8846701900000000 Se
   0.0241861300000000    0.2500000000000000    0.6153298100000000 Se
   0.4758138700000000    0.7500000000000000    0.1153298100000000 Se
   0.9758138700000000    0.7500000000000000    0.3846701900000000 Se
   0.7838531300000000    0.2500000000000000    0.1087555300000000 Se
   0.2838531300000000    0.2500000000000000    0.3912444700000000 Se
   0.2161468700000000    0.7500000000000000    0.8912444700000000 Se
   0.7161468700000000    0.7500000000000000    0.6087555300000000 Se
