Cr4 P8 O24
1.0
   3.8629259999999999   -3.8407279999999999    0.0000000000000000
   3.8629259999999999    3.8407279999999999    0.0000000000000000
  -1.5499170000000000    0.0000000000000000   16.1771940000000001
Cr P O
4 8 24
direct
   0.9439440000000000    0.1837350000000000    0.9129370000000000 Cr
   0.1837350000000000    0.9439440000000000    0.4129370000000000 Cr
   0.2845690000000000    0.9695000000000000    0.6102959999999999 Cr
   0.9695000000000000    0.2845690000000000    0.1102960000000000 Cr
   0.9776700000000000    0.4574540000000000    0.6504360000000000 P
   0.4574540000000000    0.9776700000000000    0.1504360000000000 P
   0.4224450000000000    0.4995760000000000    0.8727600000000000 P
   0.7282710000000000    0.1774500000000000    0.5119190000000000 P
   0.4995760000000000    0.4224450000000000    0.3727600000000000 P
   0.1774500000000000    0.7282710000000000    0.0119190000000000 P
   0.6768130000000000    0.7836890000000000    0.7591540000000000 P
   0.7836890000000000    0.6768130000000000    0.2591540000000000 P
   0.1207410000000000    0.2352410000000000    0.6745560000000000 O
   0.2352410000000000    0.1207410000000000    0.1745560000000000 O
   0.2226200000000000    0.3125690000000000    0.8560780000000000 O
   0.3125690000000000    0.2226200000000000    0.3560780000000000 O
   0.4770870000000000    0.0594860000000000    0.5120780000000000 O
   0.0594860000000000    0.4770870000000000    0.0120780000000000 O
   0.1054670000000000    0.6534970000000000    0.6106260000000000 O
   0.6534970000000000    0.1054670000000000    0.1106260000000000 O
   0.6684940000000000    0.4238220000000000    0.9076100000000000 O
   0.3301850000000000    0.7301160000000000    0.9318050000000000 O
   0.9662630000000000    0.0321940000000000    0.5124560000000000 O
   0.4238220000000000    0.6684940000000000    0.4076100000000000 O
   0.4460030000000000    0.6374000000000000    0.7897030000000000 O
   0.7301160000000000    0.3301850000000000    0.4318050000000000 O
   0.0321940000000000    0.9662630000000000    0.0124560000000000 O
   0.6374000000000000    0.4460030000000000    0.2897030000000000 O
   0.7391950000000000    0.3734440000000000    0.5893740000000000 O
   0.3734440000000000    0.7391950000000000    0.0893740000000000 O
   0.8493760000000000    0.5566910000000000    0.7311160000000000 O
   0.5566910000000000    0.8493760000000000    0.2311160000000000 O
   0.5838550000000000    0.9135690000000000    0.6850440000000000 O
   0.9135690000000000    0.5838550000000000    0.1850440000000000 O
   0.8104600000000000    0.9203860000000000    0.8306990000000000 O
   0.9203860000000000    0.8104600000000000    0.3306990000000000 O
