Sc8 S12
1.0
   0.0000000000000000    5.1231191200000001   10.8851121000000006
   3.6499754400000000    0.0000000000000000   10.8851121000000006
   3.6499754400000000    5.1231191200000001    0.0000000000000000
Sc S
8 12
direct
   0.3335370200000000    0.3335370200000000    0.1664629800000000 Sc
   0.1664629800000000    0.1664629800000000    0.3335370200000000 Sc
   0.9164629800000000    0.9164629800000000    0.0835370200000000 Sc
   0.0835370200000000    0.0835370200000000    0.9164629800000000 Sc
   0.9980844100000000    0.9980844100000000    0.5019155900000000 Sc
   0.5019155900000000    0.5019155900000000    0.9980844100000000 Sc
   0.2519155900000000    0.2519155900000000    0.7480844100000000 Sc
   0.7480844100000000    0.7480844100000000    0.2519155900000000 Sc
   0.0063068600000000    0.4936931400000000    0.4936931400000000 S
   0.4936931400000000    0.0063068600000000    0.0063068600000000 S
   0.2436931400000000    0.7563068600000000    0.7563068600000000 S
   0.7563068600000000    0.2436931400000000    0.2436931400000000 S
   0.6650133700000000    0.1723006500000000    0.8404522000000000 S
   0.8404522000000000    0.3222337800000000    0.6650133700000000 S
   0.3222337800000000    0.8404522000000000    0.1723006500000000 S
   0.1723006500000000    0.6650133700000000    0.3222337800000000 S
   0.5849866300000000    0.0776993500000000    0.4095478000000000 S
   0.4095478000000000    0.9277662200000000    0.5849866300000000 S
   0.9277662200000000    0.4095478000000000    0.0776993500000000 S
   0.0776993500000000    0.5849866300000000    0.9277662200000000 S
