Ba1 Al2 Si2 O8
1.0
   5.3007943800000001    0.0000002300000000    0.0000000000000000
  -2.6503978699999999    4.5906231599999998    0.0000000000000000
   0.0000000000000000    0.0000000000000000    7.8478556499999996
Ba Al Si O
1 2 2 8
direct
   0.0000000000000000    0.0000000000000000    0.0000000000000000 Ba
   0.6666670000000000    0.3333330000000000    0.7051119000000000 Al
   0.3333330000000000    0.6666670000000000    0.2948881000000000 Al
   0.6666670000000000    0.3333330000000000    0.2839001600000000 Si
   0.3333330000000000    0.6666670000000000    0.7160998400000000 Si
   0.6666670000000000    0.3333330000000000    0.4872556300000000 O
   0.3333330000000000    0.6666670000000000    0.5127443699999999 O
   0.5664637700000000    0.9890988300000000    0.7935189499999999 O
   0.4226350500000000    0.4335362300000000    0.7935189499999999 O
   0.0109011700000000    0.5773649500000000    0.7935189499999999 O
   0.4335362300000000    0.0109011700000000    0.2064810500000000 O
   0.5773649500000000    0.5664637700000000    0.2064810500000000 O
   0.9890988300000000    0.4226350500000000    0.2064810500000000 O
