Sr2 Ta1 Al1 O6
1.0
   3.9283265699999999    0.0000000000000000    0.0000000000000000
   0.0000000000000000    3.9283265699999999    0.0000000000000000
   0.0000000000000000    0.0000000000000000    7.8145844599999998
Sr Ta Al O
2 1 1 6
direct
   0.0000000000000000    0.0000000000000000    0.7151453100000000 Sr
   0.0000000000000000    0.0000000000000000    0.2848546900000000 Sr
   0.5000000000000000    0.5000000000000000    0.0000000000000000 Ta
   0.5000000000000000    0.5000000000000000    0.5000000000000000 Al
   0.5000000000000000    0.0000000000000000    0.0000000000000000 O
   0.5000000000000000    0.0000000000000000    0.5000000000000000 O
   0.0000000000000000    0.5000000000000000    0.0000000000000000 O
   0.0000000000000000    0.5000000000000000    0.5000000000000000 O
   0.5000000000000000    0.5000000000000000    0.7482604899999999 O
   0.5000000000000000    0.5000000000000000    0.2517395100000000 O
