La5 Tl1 S8
1.0
  -4.3595220000000001    4.3595219700000003    4.3013018599999997
   4.3595220000000001   -4.3595219700000003    4.3013018599999997
   4.3595219700000003    4.3595220000000001   -4.3013018599999997
La Tl S
5 1 8
direct
   0.4977524400000000    0.8819909400000000    0.1177967100000000 La
   0.2500000000000000    0.7500000000000000    0.5000000000000000 La
   0.7641932299999999    0.3799547300000000    0.8822032900000000 La
   0.6200452700000000    0.5022475600000000    0.3842385000000000 La
   0.1180090600000000    0.2358067700000000    0.6157615000000000 La
   0.0000000000000000    0.0000000000000000    0.0000000000000000 Tl
   0.3889078500000000    0.1307826100000000    0.8970559900000000 S
   0.3881384100000000    0.1276698300000000    0.4181615600000000 S
   0.0300231500000000    0.6118615900000000    0.7395324200000000 S
   0.7095082700000001    0.9699768500000000    0.5818384400000000 S
   0.8692173900000000    0.7662743800000000    0.2581252400000000 S
   0.2337256200000000    0.4918508600000000    0.1029440100000000 S
   0.5081491400000000    0.6110921499999999    0.7418747600000000 S
   0.8723301700000000    0.2904917300000000    0.2604675800000000 S
