Ba6 B4 O12
1.0
   4.7510959399999999    2.7430463700000001    4.4815411400000000
  -4.7510959399999999    2.7430463700000001    4.4815411400000000
   0.0000000000000000   -5.4860927400000001    4.4815411400000000
Ba B O
6 4 12
direct
   0.0984640700000000    0.4015359300000000    0.7500000000000000 Ba
   0.2500000000000000    0.9015359300000000    0.5984640700000000 Ba
   0.5984640700000000    0.2500000000000000    0.9015359300000000 Ba
   0.4015359300000000    0.7500000000000000    0.0984640700000000 Ba
   0.7500000000000000    0.0984640700000000    0.4015359300000000 Ba
   0.9015359300000000    0.5984640700000000    0.2500000000000000 Ba
   0.8869430300000000    0.8869430300000000    0.8869430300000000 B
   0.6130569700000000    0.6130569700000000    0.6130569700000000 B
   0.1130569700000000    0.1130569700000000    0.1130569700000000 B
   0.3869430300000000    0.3869430300000000    0.3869430300000000 B
   0.0315800200000000    0.7373244600000000    0.8927062200000000 O
   0.2626755400000000    0.1072937800000000    0.9684199800000000 O
   0.4684199800000000    0.6072937800000000    0.7626755400000000 O
   0.2373244600000000    0.5315800200000000    0.3927062200000000 O
   0.1072937800000000    0.9684199800000000    0.2626755400000000 O
   0.3927062200000000    0.2373244600000000    0.5315800200000000 O
   0.6072937800000000    0.7626755400000000    0.4684199800000000 O
   0.7626755400000000    0.4684199800000000    0.6072937800000000 O
   0.8927062200000000    0.0315800200000000    0.7373244600000000 O
   0.5315800200000000    0.3927062200000000    0.2373244600000000 O
   0.7373244600000000    0.8927062200000000    0.0315800200000000 O
   0.9684199800000000    0.2626755400000000    0.1072937800000000 O
