Ca4 Ga4 O10
1.0
  -7.2513141100000000    2.7890433400000001    2.6768187600000002
   7.2513141100000000   -2.7890433400000001    2.6768187600000002
   7.2513141100000000    2.7890433400000001   -2.6768187600000002
Ca Ga O
4 4 10
direct
   0.9568232800000001    0.5922918300000000    0.5789035100000000 Ca
   0.0133883100000000    0.3779187600000000    0.4210964900000000 Ca
   0.0133883100000000    0.0922918300000000    0.1354685500000000 Ca
   0.9568232800000001    0.8779187600000000    0.8645314500000000 Ca
   0.3827646700000000    0.7030786900000000    0.1796859800000000 Ga
   0.5233937100000000    0.2030786900000000    0.8203140200000000 Ga
   0.4980832900000000    0.4980832900000000    0.0000000000000000 Ga
   0.4980832900000000    0.9980832900000000    0.5000000000000000 Ga
   0.0010325800000000    0.2611184900000000    0.7706180100000000 O
   0.4905004800000000    0.2304145700000000    0.2293819900000000 O
   0.4905004800000000    0.7611184900000000    0.7600859100000000 O
   0.0010325800000000    0.7304145700000000    0.2399140900000000 O
   0.2237489900000000    0.8515824000000000    0.8721665900000000 O
   0.9794158100000000    0.3515824000000000    0.1278334100000000 O
   0.4604355100000000    0.3930751600000000    0.7848946999999999 O
   0.6081804600000000    0.6755408100000000    0.2151053000000000 O
   0.4604355100000000    0.1755408100000000    0.5673603500000000 O
   0.6081804600000000    0.8930751600000000    0.4326396500000000 O
