Sr4 Ge4 Pb4 O16
1.0
   6.0161083399999997    0.0000000000000000    0.0000000000000000
   0.0000000000000000    7.2474014000000002    0.0000000000000000
   0.0000000000000000    0.0000000000000000    9.9703562300000002
Sr Ge Pb O
4 4 4 16
direct
   0.4773397400000000    0.7482699100000000    0.7945494400000001 Sr
   0.9773397400000000    0.7517300900000000    0.2054505600000000 Sr
   0.0226602600000000    0.2517300900000000    0.2945494400000000 Sr
   0.5226602600000000    0.2482699100000000    0.7054505599999999 Sr
   0.5230250500000000    0.9637308900000000    0.0870448200000000 Ge
   0.0230250500000000    0.5362691100000000    0.9129551800000000 Ge
   0.9769749500000000    0.0362691100000000    0.5870448200000000 Ge
   0.4769749500000000    0.4637308900000000    0.4129551800000000 Ge
   0.4312901500000000    0.9309046800000000    0.4068191200000000 Pb
   0.9312901500000000    0.5690953200000000    0.5931808800000000 Pb
   0.0687098500000000    0.0690953200000000    0.9068191200000000 Pb
   0.5687098500000000    0.4309046800000000    0.0931808800000000 Pb
   0.4547073400000000    0.0684674800000000    0.9292696100000000 O
   0.9547073400000000    0.4315325200000000    0.0707303900000000 O
   0.0452926600000000    0.9315325200000000    0.4292696100000000 O
   0.5452926600000000    0.5684674800000000    0.5707303900000000 O
   0.7491216500000000    0.0571432800000000    0.1790636700000000 O
   0.2491216500000000    0.4428567200000000    0.8209363300000000 O
   0.7508783500000000    0.9428567200000000    0.6790636700000000 O
   0.2508783500000000    0.5571432800000000    0.3209363300000000 O
   0.6155257300000000    0.7351148199999999    0.0454239800000000 O
   0.1155257300000000    0.7648851800000001    0.9545760200000000 O
   0.8844742700000000    0.2648851800000000    0.5454239800000000 O
   0.3844742700000000    0.2351148200000000    0.4545760200000000 O
   0.2829638000000000    0.9911056400000000    0.1929474300000000 O
   0.7829638000000000    0.5088943600000000    0.8070525700000000 O
   0.2170362000000000    0.0088943600000000    0.6929474300000000 O
   0.7170362000000000    0.4911056400000000    0.3070525700000000 O
