Be1 S1 O4
1.0
  -2.2696860399999998    2.2696858999999998    3.4612335399999998
   2.2696860399999998   -2.2696858999999998    3.4612335399999998
   2.2696858999999998    2.2696860399999998   -3.4612335399999998
Be S O
1 1 4
direct
   0.2500000000000000    0.7500000000000000    0.5000000000000000 Be
   0.0000000000000000    0.0000000000000000    0.0000000000000000 S
   0.6458093200000000    0.7477181200000000    0.6336617500000000 O
   0.9878524400000001    0.3541906800000000    0.1019088100000000 O
   0.1140563700000000    0.0121475600000000    0.3663382500000000 O
   0.2522818800000000    0.8859436300000000    0.8980911900000000 O
