Cu4 S2 O8
1.0
   0.0000000000000000    5.4221709999999996    7.0154909999999999
   2.2756609999999999    0.0000000000000000    7.0154909999999999
   2.2756609999999999    5.4221709999999996    0.0000000000000000
Cu S O
4 2 8
direct
   0.8124570000000000    0.8124570000000000    0.1875430000000000 Cu
   0.1875430000000000    0.1875430000000000    0.8124570000000000 Cu
   0.4375430000000000    0.4375430000000000    0.0624570000000000 Cu
   0.0624570000000000    0.0624570000000000    0.4375430000000000 Cu
   0.5000000000000000    0.5000000000000000    0.5000000000000000 S
   0.7500000000000000    0.7500000000000000    0.7500000000000000 S
   0.8278620000000000    0.2970690000000000    0.3290940000000000 O
   0.5459750000000000    0.3290940000000000    0.2970690000000000 O
   0.2970690000000000    0.8278620000000000    0.5459750000000000 O
   0.3290940000000000    0.5459750000000000    0.8278620000000000 O
   0.4221380000000000    0.9529310000000000    0.9209060000000000 O
   0.7040250000000000    0.9209060000000000    0.9529310000000000 O
   0.9209060000000000    0.7040250000000000    0.4221380000000000 O
   0.9529310000000000    0.4221380000000000    0.7040250000000000 O
