Zn6 P4 S16
1.0
   7.6803678800000004    0.0000000000000000    0.0000000000000000
   0.0000000000000000    7.6803678800000004    0.0000000000000000
   0.0000000000000000    0.0000000000000000    8.9863427999999992
Zn P S
6 4 16
direct
   0.5000000000000000    0.0000000000000000    0.4840664600000000 Zn
   0.0000000000000000    0.5000000000000000    0.5159335400000000 Zn
   0.5000000000000000    0.0000000000000000    0.0159335400000000 Zn
   0.0000000000000000    0.5000000000000000    0.9840664600000000 Zn
   0.5000000000000000    0.5000000000000000    0.0000000000000000 Zn
   0.0000000000000000    0.0000000000000000    0.5000000000000000 Zn
   0.7430226599999999    0.2430226600000000    0.2500000000000000 P
   0.2430226600000000    0.2569773400000000    0.7500000000000000 P
   0.7569773400000001    0.7430226599999999    0.7500000000000000 P
   0.2569773400000000    0.7569773400000001    0.2500000000000000 P
   0.2476892600000000    0.5171164300000000    0.1383115600000000 S
   0.5171164300000000    0.7523107400000000    0.8616884400000000 S
   0.9828835700000000    0.2523107400000000    0.3616884400000000 S
   0.0171164300000000    0.7476892600000000    0.3616884400000000 S
   0.7476892600000000    0.9828835700000000    0.6383115600000000 S
   0.2523107400000000    0.0171164300000000    0.6383115600000000 S
   0.7663286800000000    0.0277916100000000    0.1231923700000000 S
   0.0277916100000000    0.2336713200000000    0.8768076299999999 S
   0.9722083900000000    0.7663286800000000    0.8768076299999999 S
   0.2336713200000000    0.9722083900000000    0.1231923700000000 S
   0.5277916100000000    0.2663286800000000    0.3768076300000000 S
   0.4722083900000000    0.7336713200000000    0.3768076300000000 S
   0.7336713200000000    0.5277916100000000    0.6231923700000001 S
   0.2663286800000000    0.4722083900000000    0.6231923700000001 S
   0.7523107400000000    0.4828835700000000    0.1383115600000000 S
   0.4828835700000000    0.2476892600000000    0.8616884400000000 S
