Ga8 Bi4 O18
1.0
   7.8834789199999999    0.0000000000000000    0.0000000000000000
   0.0000000000000000    8.3569571000000007    0.0000000000000000
   0.0000000000000000    0.0000000000000000    5.9292210799999996
Ga Bi O
8 4 18
direct
   0.1474233500000000    0.6648505000000000    0.5000000000000000 Ga
   0.8525766500000000    0.3351495000000000    0.5000000000000000 Ga
   0.6474233500000000    0.8351495000000000    0.5000000000000000 Ga
   0.3525766500000000    0.1648505000000000    0.5000000000000000 Ga
   0.5000000000000000    0.5000000000000000    0.2576511300000000 Ga
   0.0000000000000000    0.0000000000000000    0.7423488700000000 Ga
   0.5000000000000000    0.5000000000000000    0.7423488700000000 Ga
   0.0000000000000000    0.0000000000000000    0.2576511300000000 Ga
   0.3292940700000000    0.8279041000000000    0.0000000000000000 Bi
   0.6707059300000000    0.1720959000000000    0.0000000000000000 Bi
   0.8292940700000000    0.6720959000000000    0.0000000000000000 Bi
   0.1707059300000000    0.3279041000000000    0.0000000000000000 Bi
   0.5000000000000000    0.0000000000000000    0.5000000000000000 O
   0.0000000000000000    0.5000000000000000    0.5000000000000000 O
   0.8733964200000000    0.2087116900000000    0.2413692200000000 O
   0.1266035800000000    0.7912883100000000    0.2413692200000000 O
   0.3733964200000000    0.2912883100000000    0.7586307799999999 O
   0.6266035800000000    0.7087116900000000    0.7586307799999999 O
   0.1266035800000000    0.7912883100000000    0.7586307799999999 O
   0.8733964200000000    0.2087116900000000    0.7586307799999999 O
   0.6266035800000000    0.7087116900000000    0.2413692200000000 O
   0.3733964200000000    0.2912883100000000    0.2413692200000000 O
   0.3680070800000000    0.5932284799999999    0.5000000000000000 O
   0.6319929200000000    0.4067715200000000    0.5000000000000000 O
   0.1519474400000000    0.0649205300000000    0.0000000000000000 O
   0.8480525600000000    0.9350794700000000    0.0000000000000000 O
   0.6519474400000000    0.4350794700000000    0.0000000000000000 O
   0.3480525600000000    0.5649205300000000    0.0000000000000000 O
   0.1319929200000000    0.0932284800000000    0.5000000000000000 O
   0.8680070800000000    0.9067715200000001    0.5000000000000000 O
