Hf2 Ge2 O8
1.0
  -2.4522979299999998    2.4522979199999999    5.2638950500000004
   2.4522979299999998   -2.4522979199999999    5.2638950500000004
   2.4522979199999999    2.4522979299999998   -5.2638950500000004
Hf Ge O
2 2 8
direct
   0.0000000000000000    0.0000000000000000    0.0000000000000000 Hf
   0.7500000000000000    0.2500000000000000    0.5000000000000000 Hf
   0.5000000000000000    0.5000000000000000    0.0000000000000000 Ge
   0.2500000000000000    0.7500000000000000    0.5000000000000000 Ge
   0.3390678200000000    0.9332689100000000    0.9415768400000000 O
   0.6832689100000000    0.2416930700000000    0.0942010900000000 O
   0.1474919800000000    0.5890678200000000    0.9057989100000000 O
   0.9916930700000000    0.3974919800000000    0.0584231600000000 O
   0.7583069300000000    0.8525080200000000    0.4415768400000000 O
   0.6025080200000000    0.6609321800000000    0.5942010900000000 O
   0.0667310900000000    0.0083069300000000    0.4057989100000000 O
   0.4109321800000000    0.3167310900000000    0.5584231600000000 O
