Sr4 V4 P4 O24
1.0
   5.4883193300000004    0.0000000000000000   -0.0005455600000000
   0.0000000000000000    9.7495439499999996    0.0000000000000000
  -0.2532168700000000    0.0000000000000000    8.5089018900000006
Sr V P O
4 4 4 24
direct
   0.8614818800000000    0.1885777100000000    0.5736490500000000 Sr
   0.1385181200000000    0.6885777100000000    0.9263509500000000 Sr
   0.1385181200000000    0.8114222900000000    0.4263509500000000 Sr
   0.8614818800000000    0.3114222900000000    0.0736490500000000 Sr
   0.3468571900000000    0.0928132600000000    0.9130735300000000 V
   0.6531428100000000    0.5928132600000000    0.5869264700000000 V
   0.6531428100000000    0.9071867400000000    0.0869264700000000 V
   0.3468571900000000    0.4071867400000000    0.4130735300000000 V
   0.6647413599999999    0.8938448200000000    0.7135171900000000 P
   0.3352586400000000    0.3938448200000000    0.7864828100000000 P
   0.3352586400000000    0.1061551800000000    0.2864828100000000 P
   0.6647413599999999    0.6061551800000000    0.2135171900000000 P
   0.8819853000000000    0.9256163700000000    0.6137616400000000 O
   0.1180147000000000    0.4256163700000000    0.8862383600000000 O
   0.1180147000000000    0.0743836300000000    0.3862383600000000 O
   0.8819853000000000    0.5743836300000000    0.1137616400000000 O
   0.6825605100000000    0.0763747000000000    0.0327986500000000 O
   0.3174394900000000    0.5763747000000000    0.4672013500000000 O
   0.3174394900000000    0.9236253000000000    0.9672013500000000 O
   0.6825605100000000    0.4236253000000000    0.5327986500000000 O
   0.0834204800000000    0.1390911400000000    0.8308545300000000 O
   0.9165795200000000    0.6390911400000000    0.6691454700000000 O
   0.9165795200000000    0.8609088600000000    0.1691454700000000 O
   0.0834204800000000    0.3609088600000000    0.3308545300000000 O
   0.2524639800000000    0.3391865300000000    0.6197069200000000 O
   0.7475360200000000    0.8391865300000000    0.8802930800000000 O
   0.7475360200000000    0.6608134700000000    0.3802930800000000 O
   0.2524639800000000    0.1608134700000000    0.1197069200000000 O
   0.5244166500000000    0.4664629300000000    0.2284018700000000 O
   0.4755833500000000    0.9664629300000001    0.2715981300000000 O
   0.4755833500000000    0.5335370699999999    0.7715981300000000 O
   0.5244166500000000    0.0335370700000000    0.7284018700000000 O
   0.5081710400000000    0.2159378100000000    0.3627379900000000 O
   0.4918289600000000    0.7159378100000000    0.1372620100000000 O
   0.4918289600000000    0.7840621900000000    0.6372620100000000 O
   0.5081710400000000    0.2840621900000000    0.8627379900000000 O
