Cs12 Sn2 As6 O1
1.0
  11.9927211200000006    0.0000000000000000    0.0000000000000000
  -5.9963605600000003   10.3860010200000001    0.0000000000000000
   0.0000000000000000    0.0000000000000000    6.3189383000000001
Cs Sn As O
12 2 6 1
direct
   0.2340431800000000    0.1170210900000000    0.2695371200000000 Cs
   0.8829789100000000    0.1170210900000000    0.2695371200000000 Cs
   0.8829789100000000    0.7659568200000000    0.2695371200000000 Cs
   0.7659568200000000    0.8829789100000000    0.7304628800000000 Cs
   0.1170210900000000    0.8829789100000000    0.7304628800000000 Cs
   0.1170210900000000    0.2340431800000000    0.7304628800000000 Cs
   0.9095131900000000    0.4547560900000000    0.2483194100000000 Cs
   0.5452439100000001    0.4547560900000000    0.2483194100000000 Cs
   0.5452439100000001    0.0904868100000000    0.2483194100000000 Cs
   0.0904868100000000    0.5452439100000001    0.7516805900000000 Cs
   0.4547560900000000    0.5452439100000001    0.7516805900000000 Cs
   0.4547560900000000    0.9095131900000000    0.7516805900000000 Cs
   0.6666670000000000    0.3333330000000000    0.7475075300000000 Sn
   0.3333330000000000    0.6666670000000000    0.2524924700000000 Sn
   0.5786552600000000    0.7893276299999999    0.2506351900000000 As
   0.2106723700000000    0.7893276299999999    0.2506351900000000 As
   0.2106723700000000    0.4213447400000000    0.2506351900000000 As
   0.4213447400000000    0.2106723700000000    0.7493648100000000 As
   0.7893276299999999    0.2106723700000000    0.7493648100000000 As
   0.7893276299999999    0.5786552600000000    0.7493648100000000 As
   0.0000000000000000    0.0000000000000000    0.5000000000000000 O
