Ba9 Ta6 S24
1.0
  11.9386115700000008    0.0000000000000000    0.0488991400000000
   0.0000000000000000    6.8192145300000000    0.0000000000000000
  -4.0366548399999997    0.0000000000000000   11.8483950000000000
Ba Ta S
9 6 24
direct
   0.5000000000000000    0.0000000000000000    0.0000000000000000 Ba
   0.9506225699999999    0.0000000000000000    0.3082767200000000 Ba
   0.0493774300000000    0.0000000000000000    0.6917232800000001 Ba
   0.7152658700000000    0.5000000000000000    0.6563851900000000 Ba
   0.2847341300000000    0.5000000000000000    0.3436148100000000 Ba
   0.5909311800000000    0.0000000000000000    0.3624106300000000 Ba
   0.1879902700000000    0.5000000000000000    0.9657123600000000 Ba
   0.8120097300000000    0.5000000000000000    0.0342876400000000 Ba
   0.4090688200000000    0.0000000000000000    0.6375893700000000 Ba
   0.0000000000000000    0.0000000000000000    0.0000000000000000 Ta
   0.0000000000000000    0.5000000000000000    0.5000000000000000 Ta
   0.7321269200000000    0.0000000000000000    0.8277883900000000 Ta
   0.2678730800000000    0.0000000000000000    0.1722116100000000 Ta
   0.7355143900000000    0.5000000000000000    0.3257097700000000 Ta
   0.2644856100000000    0.5000000000000000    0.6742902300000000 Ta
   0.6877099500000000    0.7549173700000000    0.1967539300000000 S
   0.3122900500000000    0.7549173700000000    0.8032460700000000 S
   0.3122900500000000    0.2450826300000000    0.8032460700000000 S
   0.6877099500000000    0.2450826300000000    0.1967539300000000 S
   0.6130317600000000    0.7407073700000000    0.8443162800000000 S
   0.3869682400000000    0.7407073700000000    0.1556837200000000 S
   0.3869682400000000    0.2592926300000000    0.1556837200000000 S
   0.6130317600000000    0.2592926300000000    0.8443162800000000 S
   0.8460741899999999    0.7475580100000000    0.4849796800000000 S
   0.1539258100000000    0.7475580100000000    0.5150203200000000 S
   0.1539258100000000    0.2524419900000000    0.5150203200000000 S
   0.8460741899999999    0.2524419900000000    0.4849796800000000 S
   0.9090979800000000    0.7561509100000000    0.8529728900000000 S
   0.0909020200000000    0.7561509100000000    0.1470271100000000 S
   0.0909020200000000    0.2438490900000000    0.1470271100000000 S
   0.9438754000000000    0.5000000000000000    0.2972320800000000 S
   0.0561246000000000    0.5000000000000000    0.7027679200000000 S
   0.6761503300000000    0.0000000000000000    0.6291009700000000 S
   0.3238496700000000    0.0000000000000000    0.3708990300000000 S
   0.5749812700000000    0.5000000000000000    0.3958147300000000 S
   0.4250187300000000    0.5000000000000000    0.6041852700000000 S
   0.8183713000000000    0.0000000000000000    0.0454986200000000 S
   0.1816287000000000    0.0000000000000000    0.9545013800000000 S
   0.9090979800000000    0.2438490900000000    0.8529728900000000 S
