Ag2 N2 O6
1.0
   2.5581054399999998    1.4769231300000001    5.5602448700000000
  -2.5581054399999998    1.4769231300000001    5.5602448700000000
   0.0000000000000000   -2.9538462700000001    5.5602448700000000
Ag N O
2 2 6
direct
   0.9810934300000000    0.9810934300000000    0.9810934300000000 Ag
   0.4810934300000000    0.4810934300000000    0.4810934300000000 Ag
   0.2265712200000000    0.2265712200000000    0.2265712200000000 N
   0.7265712200000000    0.7265712200000000    0.7265712200000000 N
   0.9798203599999999    0.7136016800000000    0.4858203100000000 O
   0.2136016800000000    0.4798203600000000    0.9858203100000000 O
   0.7136016800000000    0.4858203100000000    0.9798203599999999 O
   0.4858203100000000    0.9798203599999999    0.7136016800000000 O
   0.9858203100000000    0.2136016800000000    0.4798203600000000 O
   0.4798203600000000    0.9858203100000000    0.2136016800000000 O
