Cs4 Be4 As4 O16
1.0
   9.4328099000000005    0.0000000000000000    0.0000000000000000
   0.0000000000000000    8.8478906100000003    0.0000000000000000
   0.0000000000000000    0.0000000000000000    5.1537468700000000
Cs Be As O
4 4 4 16
direct
   0.5054685200000000    0.3153544500000000    0.4989231500000000 Cs
   0.4945314800000000    0.6846455500000000    0.9989231500000000 Cs
   0.0054685200000000    0.1846455500000000    0.4989231500000000 Cs
   0.9945314800000000    0.8153544500000000    0.9989231500000000 Cs
   0.6706916100000000    0.0962490400000000    0.9982200400000000 Be
   0.8293083900000000    0.5962490400000000    0.4982200400000000 Be
   0.1706916100000000    0.4037509600000000    0.9982200400000000 Be
   0.3293083900000000    0.9037509600000000    0.4982200400000000 Be
   0.6749615100000000    0.9150966800000000    0.4998136900000000 As
   0.3250384900000000    0.0849033200000000    0.9998136900000000 As
   0.1749615100000000    0.5849033200000000    0.4998136900000000 As
   0.8250384900000000    0.4150966800000000    0.9998136900000000 As
   0.5005413900000000    0.1255698100000000    0.0177389200000000 O
   0.9994586100000000    0.6255698100000000    0.5177389200000000 O
   0.0005413900000000    0.3744301900000000    0.0177389200000000 O
   0.4994586100000000    0.8744301900000000    0.5177389200000000 O
   0.7749931600000000    0.4598248600000000    0.6904860900000001 O
   0.2250068400000000    0.5401751400000000    0.1904860900000000 O
   0.2749931600000000    0.0401751400000000    0.6904860900000001 O
   0.7250068400000000    0.9598248600000000    0.1904860900000000 O
   0.7606458600000000    0.7561901700000000    0.5982952499999999 O
   0.2393541400000000    0.2438098300000000    0.0982952500000000 O
   0.2606458600000000    0.7438098300000000    0.5982952499999999 O
   0.7393541400000000    0.2561901700000000    0.0982952500000000 O
   0.2230888000000000    0.4402734600000000    0.7025228500000000 O
   0.7769112000000000    0.5597265400000000    0.2025228500000000 O
   0.7230888000000000    0.0597265400000000    0.7025228500000000 O
   0.2769112000000000    0.9402734600000000    0.2025228500000000 O
