Ga1 Sb1 O4
1.0
   3.1995015599999999   -3.3198043099999999    0.0000000000000000
   3.1995015599999999    3.3198043099999999    0.0000000000000000
   0.0000000000000000    0.0000000000000000    3.0777334999999999
Ga Sb O
1 1 4
direct
   0.5000000000000000    0.5000000000000000    0.5000000000000000 Ga
   0.0000000000000000    0.0000000000000000    0.0000000000000000 Sb
   0.1952111000000000    0.8047889000000000    0.5000000000000000 O
   0.8047889000000000    0.1952111000000000    0.5000000000000000 O
   0.3077702800000000    0.3077702800000000    0.0000000000000000 O
   0.6922297200000000    0.6922297200000000    0.0000000000000000 O
