Sr1 Ge1 Te1 O6
1.0
   5.1095315200000000    0.0000000000000000    0.0000000000000000
  -2.5547657600000000    4.4249846599999998    0.0000000000000000
   0.0000000000000000    0.0000000000000000    5.4188857500000003
Sr Ge Te O
1 1 1 6
direct
   0.3333330000000000    0.6666670000000000    0.0000000000000000 Sr
   0.0000000000000000    0.0000000000000000    0.5000000000000000 Ge
   0.6666670000000000    0.3333330000000000    0.5000000000000000 Te
   0.7142922200000000    0.0447500900000000    0.7012929500000000 O
   0.9552499100000000    0.6695421300000000    0.7012929500000000 O
   0.3304578700000000    0.2857077800000000    0.7012929500000000 O
   0.7142922200000000    0.6695421300000000    0.2987070500000000 O
   0.3304578700000000    0.0447500900000000    0.2987070500000000 O
   0.9552499100000000    0.2857077800000000    0.2987070500000000 O
