Sr1 La1 Al1 O4
1.0
  -1.8776103799999999    1.8776103799999999    6.2096459099999999
   1.8776103799999999   -1.8776103799999999    6.2096459099999999
   1.8776103799999999    1.8776103799999999   -6.2096459099999999
Sr La Al O
1 1 1 4
direct
   0.6423719700000000    0.6423719700000000    0.0000000000000000 Sr
   0.3583003200000000    0.3583003200000000    0.0000000000000000 La
   0.0048679800000000    0.0048679800000000    0.0000000000000000 Al
   0.8390874200000000    0.8390874200000000    0.0000000000000000 O
   0.1639727500000000    0.1639727500000000    0.0000000000000000 O
   0.9957002800000000    0.4957002800000000    0.5000000000000000 O
   0.4957002800000000    0.9957002800000000    0.5000000000000000 O
