Cs2 Li10 B4 O12
1.0
   5.8390417499999998   -4.7487715499999998    0.0329212800000000
   5.8390417499999998    4.7487715499999998    0.0329212800000000
  -5.4084347399999997    0.0000000000000000    5.8774499599999999
Cs Li B O
2 10 4 12
direct
   0.3174458100000000    0.6825541899999999    0.2500000000000000 Cs
   0.6825541899999999    0.3174458100000000    0.7500000000000000 Cs
   0.4690231600000000    0.7368153300000000    0.7302777000000000 Li
   0.2958314500000000    0.9278573900000000    0.9616050100000000 Li
   0.5309768400000000    0.2631846700000000    0.2697223000000000 Li
   0.2631846700000000    0.5309768400000000    0.7697223000000000 Li
   0.0000000000000000    0.0000000000000000    0.5000000000000000 Li
   0.7041685500000000    0.0721426100000000    0.0383949900000000 Li
   0.7368153300000000    0.4690231600000000    0.2302777000000000 Li
   0.9278573900000000    0.2958314500000000    0.4616050100000000 Li
   0.0000000000000000    0.0000000000000000    0.0000000000000000 Li
   0.0721426100000000    0.7041685500000000    0.5383949900000000 Li
   0.1685627600000000    0.3122109000000000    0.3114446900000000 B
   0.3122109000000000    0.1685627600000000    0.8114446900000000 B
   0.8314372400000000    0.6877891000000000    0.6885553100000000 B
   0.6877891000000000    0.8314372400000000    0.1885553100000000 B
   0.8343005600000000    0.7283098000000000    0.2971163500000000 O
   0.9540570800000000    0.2649408200000000    0.2138245600000000 O
   0.0459429200000000    0.7350591800000000    0.7861754399999999 O
   0.7283098000000000    0.8343005600000000    0.7971163500000000 O
   0.2649408200000000    0.9540570800000000    0.7138245600000001 O
   0.7350591800000000    0.0459429200000000    0.2861754400000000 O
   0.4980650400000000    0.2698503100000000    0.0079602000000000 O
   0.1656994400000000    0.2716902000000000    0.7028836500000000 O
   0.2698503100000000    0.4980650400000000    0.5079602000000000 O
   0.7301496900000000    0.5019349600000000    0.4920398000000000 O
   0.5019349600000000    0.7301496900000000    0.9920398000000000 O
   0.2716902000000000    0.1656994400000000    0.2028836500000000 O
