Mg4 Se4 O12
1.0
   5.8788773900000004    0.0000000000000000    0.0000000000000000
   0.0000000000000000    7.6116593400000001    0.0000000000000000
   0.0000000000000000    0.0000000000000000    5.0217417199999996
Mg Se O
4 4 12
direct
   0.0000000000000000    0.0000000000000000    0.5000000000000000 Mg
   0.5000000000000000    0.0000000000000000    0.0000000000000000 Mg
   0.5000000000000000    0.5000000000000000    0.0000000000000000 Mg
   0.0000000000000000    0.5000000000000000    0.5000000000000000 Mg
   0.0154927500000000    0.2500000000000000    0.9826937800000000 Se
   0.4845072500000000    0.7500000000000000    0.4826937800000000 Se
   0.5154927500000001    0.2500000000000000    0.5173062200000000 Se
   0.9845072499999999    0.7500000000000000    0.0173062200000000 Se
   0.1810083000000000    0.4228653500000000    0.8580345800000000 O
   0.3189917000000000    0.5771346500000000    0.3580345800000000 O
   0.6810083000000000    0.0771346500000000    0.6419654200000000 O
   0.8189917000000000    0.9228653500000000    0.1419654200000000 O
   0.8189917000000000    0.5771346500000000    0.1419654200000000 O
   0.6810083000000000    0.4228653500000000    0.6419654200000000 O
   0.3189917000000000    0.9228653500000000    0.3580345800000000 O
   0.1810083000000000    0.0771346500000000    0.8580345800000000 O
   0.0707697600000000    0.2500000000000000    0.3225283300000000 O
   0.4292302400000000    0.7500000000000000    0.8225283300000000 O
   0.5707697600000000    0.2500000000000000    0.1774716700000000 O
   0.9292302400000000    0.7500000000000000    0.6774716700000000 O
