Al4 P6 S18
1.0
   8.7207327699999997   -5.0524262400000000   -0.0104368400000000
   8.7207327699999997    5.0524262400000000   -0.0104368400000000
  -1.9277358899999999    0.0000000000000000    6.5343127799999996
Al P S
4 6 18
direct
   0.4876880200000000    0.1639162100000000    0.4989736600000000 Al
   0.8360837900000000    0.5123119800000000    0.5010263400000000 Al
   0.1842016300000000    0.8157983700000000    0.5000000000000000 Al
   0.8351742400000000    0.1648257600000000    0.5000000000000000 Al
   0.8617262400000000    0.8449482500000000    0.6651625400000000 P
   0.1550517500000000    0.1382737600000000    0.3348374600000000 P
   0.5160271000000000    0.5131660600000000    0.6661907700000000 P
   0.4868339400000000    0.4839729000000000    0.3338092300000000 P
   0.1842744700000000    0.1914001600000000    0.6668624200000000 P
   0.8085998400000000    0.8157255300000000    0.3331375800000000 P
   0.4172780900000000    0.7437892200000000    0.7490369200000000 S
   0.2562107800000000    0.5827219100000000    0.2509630800000000 S
   0.7408078000000000    0.0863650900000000    0.7292526400000000 S
   0.9136349100000000    0.2591922000000000    0.2707473600000000 S
   0.0711673200000000    0.4218703300000000    0.7437314500000000 S
   0.5781296700000000    0.9288326800000000    0.2562685500000000 S
   0.7569254900000000    0.7464025200000000    0.7489036200000000 S
   0.2535974800000000    0.2430745100000000    0.2510963800000000 S
   0.4244140900000000    0.3988406300000000    0.7423146900000001 S
   0.6011593700000000    0.5755859100000000    0.2576853100000000 S
   0.0845254600000000    0.0698012600000000    0.7297037400000000 S
   0.9301987400000000    0.9154745399999999    0.2702962600000000 S
   0.7578187500000000    0.4136672900000000    0.7295983300000000 S
   0.5863327100000000    0.2421812500000000    0.2704016700000000 S
   0.4150870500000000    0.0864492300000000    0.7479617200000001 S
   0.9135507700000000    0.5849129500000000    0.2520382800000000 S
   0.0920808800000000    0.7536813900000000    0.7424492200000000 S
   0.2463186100000000    0.9079191200000000    0.2575507800000000 S
