Na12 As4 S12
1.0
   8.4379618799999996    0.0000000000000000    0.0000000000000000
   0.0000000000000000    8.4379618799999996    0.0000000000000000
   0.0000000000000000    0.0000000000000000    8.4379618799999996
Na As S
12 4 12
direct
   0.8188387900000000    0.1811612100000000    0.6811612100000000 Na
   0.6811612100000000    0.8188387900000000    0.1811612100000000 Na
   0.1811612100000000    0.6811612100000000    0.8188387900000000 Na
   0.3188387900000000    0.3188387900000000    0.3188387900000000 Na
   0.1878261900000000    0.3121738100000000    0.6878261900000000 Na
   0.3121738100000000    0.6878261900000000    0.1878261900000000 Na
   0.6878261900000000    0.1878261900000000    0.3121738100000000 Na
   0.8121738100000000    0.8121738100000000    0.8121738100000000 Na
   0.4200178700000000    0.0799821300000000    0.9200178700000000 Na
   0.0799821300000000    0.9200178700000000    0.4200178700000000 Na
   0.9200178700000000    0.4200178700000000    0.0799821300000000 Na
   0.5799821300000000    0.5799821300000000    0.5799821300000000 Na
   0.0301905200000000    0.0301905200000000    0.0301905200000000 As
   0.4698094800000000    0.9698094800000000    0.5301905200000000 As
   0.9698094800000000    0.5301905200000000    0.4698094800000000 As
   0.5301905200000000    0.4698094800000000    0.9698094800000000 As
   0.2738341300000000    0.3921035600000000    0.9986127100000000 S
   0.7738341300000000    0.1078964400000000    0.0013872900000000 S
   0.7261658700000000    0.8921035600000000    0.5013872900000000 S
   0.1078964400000000    0.0013872900000000    0.7738341300000000 S
   0.5013872900000000    0.7261658700000000    0.8921035600000000 S
   0.0013872900000000    0.7738341300000000    0.1078964400000000 S
   0.3921035600000000    0.9986127100000000    0.2738341300000000 S
   0.9986127100000000    0.2738341300000000    0.3921035600000000 S
   0.8921035600000000    0.5013872900000000    0.7261658700000000 S
   0.6078964400000000    0.4986127100000000    0.2261658700000000 S
   0.4986127100000000    0.2261658700000000    0.6078964400000000 S
   0.2261658700000000    0.6078964400000000    0.4986127100000000 S
