Cd4 Ga2 Ag2 S8
1.0
   8.0752052600000006    0.0000000000000000    0.0000000000000000
   0.0000000000000000    6.8755527299999999    0.0000000000000000
   0.0000000000000000    0.0000000000000000    6.5617813500000004
Cd Ga Ag S
4 2 2 8
direct
   0.7466590100000000    0.1755336800000000    0.4867890400000000 Cd
   0.2466590100000000    0.8244663200000000    0.9867890400000000 Cd
   0.2533409900000000    0.1755336800000000    0.4867890400000000 Cd
   0.7533409900000000    0.8244663200000000    0.9867890400000000 Cd
   0.5000000000000000    0.6770158600000000    0.4907724100000000 Ga
   0.0000000000000000    0.3229841400000000    0.9907724100000000 Ga
   0.5000000000000000    0.3413304800000000    0.9922989100000000 Ag
   0.0000000000000000    0.6586695200000000    0.4922989100000000 Ag
   0.0000000000000000    0.6344803400000000    0.1098654700000000 S
   0.5000000000000000    0.3655196600000000    0.6098654700000000 S
   0.5000000000000000    0.6763796700000000    0.1439470000000000 S
   0.0000000000000000    0.3236203300000000    0.6439470000000000 S
   0.7355736899999999    0.8250643700000000    0.6026500600000000 S
   0.2355736900000000    0.1749356300000000    0.1026500600000000 S
   0.7644263100000001    0.1749356300000000    0.1026500600000000 S
   0.2644263100000000    0.8250643700000000    0.6026500600000000 S
