Li12 Ta4 O16
1.0
   4.2484461700000002   -4.2496438599999999   -0.0095303800000000
   4.2484461700000002    4.2496438599999999   -0.0095303800000000
  -4.2328546400000002    0.0000000000000000    8.3232164799999993
Li Ta O
12 4 16
direct
   0.6897660300000000    0.9424138300000000    0.6336466300000000 Li
   0.3102339700000000    0.0575861700000000    0.3663533700000000 Li
   0.9424138300000000    0.6897660300000000    0.1336466300000000 Li
   0.0575861700000000    0.3102339700000000    0.8663533700000000 Li
   0.5663145300000000    0.8016774600000000    0.8835673300000000 Li
   0.1983225400000000    0.4336854700000000    0.6164326700000000 Li
   0.4336854700000000    0.1983225400000000    0.1164326700000000 Li
   0.8016774600000000    0.5663145300000000    0.3835673300000000 Li
   0.3570865100000000    0.5619527300000000    0.3751334600000000 Li
   0.4380472700000000    0.6429134900000000    0.1248665400000000 Li
   0.6429134900000000    0.4380472700000000    0.6248665400000000 Li
   0.5619527300000000    0.3570865100000000    0.8751334600000000 Li
   0.0620576600000000    0.7835354300000000    0.8749741599999999 Ta
   0.2164645700000000    0.9379423400000000    0.6250258400000001 Ta
   0.9379423400000000    0.2164645700000000    0.1250258400000000 Ta
   0.7835354300000000    0.0620576600000000    0.3749741600000000 Ta
   0.9485507500000000    0.1670207500000000    0.6139405900000000 O
   0.1670207500000000    0.9485507500000000    0.1139405900000000 O
   0.8329792499999999    0.0514492500000000    0.8860594100000000 O
   0.0514492500000000    0.8329792499999999    0.3860594100000000 O
   0.7089101700000000    0.9588755400000000    0.1359704700000000 O
   0.0411244600000000    0.2910898300000000    0.3640295300000000 O
   0.2910898300000000    0.0411244600000000    0.8640295300000000 O
   0.9588755400000000    0.7089101700000000    0.6359704700000000 O
   0.4241901100000000    0.6977010300000001    0.6178757700000000 O
   0.3022989700000000    0.5758098900000000    0.8821242300000000 O
   0.5758098900000000    0.3022989700000000    0.3821242300000000 O
   0.6977010300000001    0.4241901100000000    0.1178757700000000 O
   0.1794443700000000    0.4298212600000000    0.1323393700000000 O
   0.5701787400000000    0.8205556300000000    0.3676606300000000 O
   0.8205556300000000    0.5701787400000000    0.8676606300000000 O
   0.4298212600000000    0.1794443700000000    0.6323393700000000 O
