Zn4 Se8 O20
1.0
   6.8041196099999999    0.0000000000000000    0.0000000000000000
   0.0000000000000000   10.3470247999999998    0.0000000000000000
   0.0000000000000000    0.0000000000000000    5.9170292099999999
Zn Se O
4 8 20
direct
   0.0000000000000000    0.9388793300000000    0.7500000000000000 Zn
   0.5000000000000000    0.5611206700000000    0.2500000000000000 Zn
   0.0000000000000000    0.0611206700000000    0.2500000000000000 Zn
   0.5000000000000000    0.4388793300000000    0.7500000000000000 Zn
   0.3656485100000000    0.8458018600000000    0.0252980600000000 Se
   0.1343514900000000    0.6541981400000000    0.5252980600000000 Se
   0.8656485100000000    0.6541981400000000    0.9747019400000000 Se
   0.6343514900000000    0.8458018600000000    0.4747019400000000 Se
   0.6343514900000000    0.1541981400000000    0.9747019400000000 Se
   0.8656485100000000    0.3458018600000000    0.4747019400000000 Se
   0.1343514900000000    0.3458018600000000    0.0252980600000000 Se
   0.3656485100000000    0.1541981400000000    0.5252980600000000 Se
   0.0000000000000000    0.5647228000000000    0.7500000000000000 O
   0.5000000000000000    0.9352772000000000    0.2500000000000000 O
   0.0000000000000000    0.4352772000000000    0.2500000000000000 O
   0.5000000000000000    0.0647228000000000    0.7500000000000000 O
   0.3029781800000000    0.7082054500000000    0.1629757000000000 O
   0.1970218200000000    0.7917945500000000    0.6629756999999999 O
   0.8029781800000000    0.7917945500000000    0.8370243000000001 O
   0.6970218200000000    0.7082054500000000    0.3370243000000000 O
   0.6970218200000000    0.2917945500000000    0.8370243000000001 O
   0.8029781800000000    0.2082054500000000    0.3370243000000000 O
   0.1970218200000000    0.2082054500000000    0.1629757000000000 O
   0.3029781800000000    0.2917945500000000    0.6629756999999999 O
   0.3469002300000000    0.4344719100000000    0.0449453400000000 O
   0.1530997700000000    0.0655280900000000    0.5449453399999999 O
   0.8469002300000000    0.0655280900000000    0.9550546600000001 O
   0.6530997700000000    0.4344719100000000    0.4550546600000000 O
   0.6530997700000000    0.5655280900000000    0.9550546600000001 O
   0.8469002300000000    0.9344719100000000    0.4550546600000000 O
   0.1530997700000000    0.9344719100000000    0.0449453400000000 O
   0.3469002300000000    0.5655280900000000    0.5449453399999999 O
