Sb8 O12
1.0
   4.8992602200000004    0.0000000000000000    0.0000000000000000
   0.0000000000000000   12.2610111199999992    0.0000000000000000
   0.0000000000000000    0.0000000000000000    5.3844960600000000
Sb O
8 12
direct
   0.9636553700000000    0.8727363900000000    0.8214798900000000 Sb
   0.4636553700000000    0.1272636100000000    0.6785201100000000 Sb
   0.5363446300000000    0.6272636100000000    0.8214798900000000 Sb
   0.0363446300000000    0.3727363900000000    0.6785201100000000 Sb
   0.0363446300000000    0.1272636100000000    0.1785201100000000 Sb
   0.5363446300000000    0.8727363900000000    0.3214798900000000 Sb
   0.4636553700000000    0.3727363900000000    0.1785201100000000 Sb
   0.9636553700000000    0.6272636100000000    0.3214798900000000 Sb
   0.7500000000000000    0.7500000000000000    0.9975469200000000 O
   0.2500000000000000    0.2500000000000000    0.5024530800000000 O
   0.2500000000000000    0.2500000000000000    0.0024530800000000 O
   0.7500000000000000    0.7500000000000000    0.4975469200000000 O
   0.8555522200000000    0.9438252100000000    0.1517401900000000 O
   0.3555522200000000    0.0561747900000000    0.3482598100000000 O
   0.6444477800000000    0.5561747900000000    0.1517401900000000 O
   0.1444477800000000    0.4438252100000000    0.3482598100000000 O
   0.1444477800000000    0.0561747900000000    0.8482598099999999 O
   0.6444477800000000    0.9438252100000000    0.6517401900000001 O
   0.3555522200000000    0.4438252100000000    0.8482598099999999 O
   0.8555522200000000    0.5561747900000000    0.6517401900000001 O
