Ba2 Ti2 Si6 O18
1.0
   6.6674265200000002    0.0000000000000000    0.0000000000000000
  -3.3337137600000002    5.7741607500000001    0.0000000000000000
   0.0000000000000000    0.0000000000000000    9.8739219800000004
Ba Ti Si O
2 2 6 18
direct
   0.6666670000000000    0.3333330000000000    0.5000000000000000 Ba
   0.6666670000000000    0.3333330000000000    0.0000000000000000 Ba
   0.3333330000000000    0.6666670000000000    0.5000000000000000 Ti
   0.3333330000000000    0.6666670000000000    0.0000000000000000 Ti
   0.2198547900000000    0.9307722899999999    0.2500000000000000 Si
   0.2198547900000000    0.2890825000000000    0.7500000000000000 Si
   0.7109175000000000    0.9307722899999999    0.7500000000000000 Si
   0.7109175000000000    0.7801452100000000    0.2500000000000000 Si
   0.0692277100000000    0.2890825000000000    0.2500000000000000 Si
   0.0692277100000000    0.7801452100000000    0.7500000000000000 Si
   0.0834451900000000    0.6541781500000000    0.6130136000000000 O
   0.3458218500000000    0.9165548100000001    0.3869864000000000 O
   0.5707339600000000    0.9165548100000001    0.6130136000000000 O
   0.3458218500000000    0.4292660400000000    0.8869864000000000 O
   0.5707339600000000    0.9165548100000001    0.8869864000000000 O
   0.0834451900000000    0.6541781500000000    0.8869864000000000 O
   0.5707339600000000    0.6541781500000000    0.1130136000000000 O
   0.0834451900000000    0.4292660400000000    0.1130136000000000 O
   0.2553250900000000    0.1950751900000000    0.2500000000000000 O
   0.9397490900000000    0.7446749100000000    0.2500000000000000 O
   0.8049248100000000    0.0602509100000000    0.2500000000000000 O
   0.8049248100000000    0.7446749100000000    0.7500000000000000 O
   0.5707339600000000    0.6541781500000000    0.3869864000000000 O
   0.2553250900000000    0.0602509100000000    0.7500000000000000 O
   0.9397490900000000    0.1950751900000000    0.7500000000000000 O
   0.0834451900000000    0.4292660400000000    0.3869864000000000 O
   0.3458218500000000    0.9165548100000001    0.1130136000000000 O
   0.3458218500000000    0.4292660400000000    0.6130136000000000 O
