Ba3 P6 N8 O6
1.0
   7.4088603300000004    0.0000001700000000    0.0000000000000000
  -3.7044303099999998    6.4162618399999998    0.0000000000000000
   0.0000000000000000    0.0000000000000000    6.3180521000000001
Ba P N O
3 6 8 6
direct
   0.3333330000000000    0.6666670000000000    0.6159088900000000 Ba
   0.6666670000000000    0.3333330000000000    0.3840911100000000 Ba
   0.0000000000000000    0.0000000000000000    0.5000000000000000 Ba
   0.5998637900000000    0.7753362100000000    0.1036306900000000 P
   0.1754724200000000    0.4001362100000000    0.1036306900000000 P
   0.2246637900000000    0.8245275800000000    0.1036306900000000 P
   0.4001362100000000    0.2246637900000000    0.8963693100000000 P
   0.8245275800000000    0.5998637900000000    0.8963693100000000 P
   0.7753362100000000    0.1754724200000000    0.8963693100000000 P
   0.3333330000000000    0.6666670000000000    0.0735556100000000 N
   0.6666670000000000    0.3333330000000000    0.9264443900000000 N
   0.6710259200000001    0.6942463400000000    0.9003076100000000 N
   0.0232204100000000    0.3289740800000000    0.9003076100000000 N
   0.3057536600000000    0.9767795900000000    0.9003076100000000 N
   0.3289740800000000    0.3057536600000000    0.0996923900000000 N
   0.9767795900000000    0.6710259200000001    0.0996923900000000 N
   0.6942463400000000    0.0232204100000000    0.0996923900000000 N
   0.6327631700000000    0.7079234800000000    0.3235888400000000 O
   0.0751603100000000    0.3672368300000000    0.3235888400000000 O
   0.2920765200000000    0.9248396900000000    0.3235888400000000 O
   0.3672368300000000    0.2920765200000000    0.6764111600000000 O
   0.9248396900000000    0.6327631700000000    0.6764111600000000 O
   0.7079234800000000    0.0751603100000000    0.6764111600000000 O
