As4 S2 O12
1.0
   4.7774433700000003    0.0000000000000000    0.0000000000000000
   0.0000000000000000   11.2156700600000008    0.0000000000000000
   0.0000000000000000    0.0000000000000000    4.8643867500000004
As S O
4 2 12
direct
   0.7849904100000000    0.3051597500000000    0.1844704800000000 As
   0.2150095900000000    0.6948402500000000    0.1844704800000000 As
   0.2849904100000000    0.1948402500000000    0.8155295200000000 As
   0.7150095900000000    0.8051597500000000    0.8155295200000000 As
   0.0000000000000000    0.0000000000000000    0.1870506300000000 S
   0.5000000000000000    0.5000000000000000    0.8129493700000000 S
   0.8973368500000000    0.0994176800000000    0.3518762900000000 O
   0.1026631500000000    0.9005823200000000    0.3518762900000000 O
   0.3973368500000000    0.4005823200000000    0.6481237100000000 O
   0.6026631500000000    0.5994176800000000    0.6481237100000000 O
   0.4348864300000000    0.2546303300000000    0.1299052400000000 O
   0.5651135700000000    0.7453696700000000    0.1299052400000000 O
   0.2655548000000000    0.5399527100000000    0.0046344800000000 O
   0.7344452000000000    0.4600472900000000    0.0046344800000000 O
   0.7655548000000000    0.9600472900000000    0.9953655200000000 O
   0.2344452000000000    0.0399527100000000    0.9953655200000000 O
   0.0651135700000000    0.7546303300000000    0.8700947600000000 O
   0.9348864300000000    0.2453696700000000    0.8700947600000000 O
