Na4 La4 Se8 O24
1.0
   6.6204234399999997    0.0000000000000000    0.0022172500000000
   0.0000000000000000    6.7314199300000004    0.0000000000000000
  -4.0768318299999997    0.0000000000000000   12.8874794300000008
Na La Se O
4 4 8 24
direct
   0.0817626000000000    0.1695850900000000    0.8831240100000000 Na
   0.0817626000000000    0.3304149100000000    0.3831240100000000 Na
   0.9182374000000000    0.8304149100000000    0.1168759900000000 Na
   0.9182374000000000    0.6695850900000000    0.6168759900000000 Na
   0.4953429400000000    0.8819743100000000    0.8358412400000000 La
   0.5046570600000000    0.3819743100000000    0.6641587600000000 La
   0.4953429400000000    0.6180256900000000    0.3358412400000000 La
   0.5046570600000000    0.1180256900000000    0.1641587600000000 La
   0.9687548000000000    0.8390793900000000    0.3608968200000000 Se
   0.3743049600000000    0.8538186200000000    0.5668537100000000 Se
   0.0312452000000000    0.3390793900000000    0.1391031800000000 Se
   0.0312452000000000    0.1609206100000000    0.6391031800000000 Se
   0.6256950400000000    0.3538186200000000    0.9331462900000000 Se
   0.6256950400000000    0.1461813800000000    0.4331462900000000 Se
   0.9687548000000000    0.6609206100000000    0.8608968200000000 Se
   0.3743049600000000    0.6461813800000000    0.0668537100000000 Se
   0.7004861900000000    0.2193518500000000    0.8395851200000000 O
   0.4677728500000000    0.1797022900000000    0.9654106900000000 O
   0.8744000199999999    0.1590020200000000    0.1671359600000000 O
   0.4511568600000000    0.9820960100000000    0.3549650300000000 O
   0.7470983600000000    0.6738872000000000    0.7536422699999999 O
   0.5322271500000000    0.6797022900000000    0.5345893100000000 O
   0.5488431400000000    0.0179039900000000    0.6450349700000000 O
   0.8652702200000000    0.7166476000000001    0.4456561900000000 O
   0.4677728500000000    0.3202977100000000    0.4654106900000000 O
   0.1255999800000000    0.6590020200000000    0.3328640400000000 O
   0.8744000199999999    0.3409979800000000    0.6671359600000000 O
   0.2529016400000000    0.3261128000000000    0.2463577300000000 O
   0.1347297800000000    0.2166476000000000    0.0543438100000000 O
   0.1255999800000000    0.8409979800000000    0.8328640400000000 O
   0.1347297800000000    0.2833524000000000    0.5543438100000000 O
   0.2995138100000000    0.7806481500000000    0.1604148800000000 O
   0.7470983600000000    0.8261128000000000    0.2536422700000000 O
   0.2995138100000000    0.7193518500000000    0.6604148800000000 O
   0.8652702200000000    0.7833523999999999    0.9456561900000000 O
   0.7004861900000000    0.2806481500000000    0.3395851200000000 O
   0.5488431400000000    0.4820960100000000    0.1450349700000000 O
   0.2529016400000000    0.1738872000000000    0.7463577300000001 O
   0.5322271500000000    0.8202977100000000    0.0345893100000000 O
   0.4511568600000000    0.5179039900000000    0.8549650300000000 O
