Ba8 As8 Se20
1.0
   9.2960889699999996    0.0000000000000000   -0.0151856000000000
   0.0000000000000000   12.2980444700000007    0.0000000000000000
  -4.5682679300000002    0.0000000000000000    8.9118281499999998
Ba As Se
8 8 20
direct
   0.8229008000000000    0.0693825800000000    0.6540449200000000 Ba
   0.1770992000000000    0.5693825800000000    0.3459550800000000 Ba
   0.3299552500000000    0.0685434800000000    0.6486752099999999 Ba
   0.6700447500000000    0.5685434800000000    0.3513247900000000 Ba
   0.5795821300000000    0.2173481200000000    0.1570986300000000 Ba
   0.4204178700000000    0.7173481200000000    0.8429013700000000 Ba
   0.0791494900000000    0.2246563900000000    0.1457871000000000 Ba
   0.9208505100000000    0.7246563900000000    0.8542129000000001 Ba
   0.2335322500000000    0.3810313000000000    0.7509178300000000 As
   0.2169174900000000    0.4884859900000000    0.0050971600000000 As
   0.7830825100000000    0.9884859900000000    0.9949028400000000 As
   0.7664677500000000    0.8810313000000000    0.2490821700000000 As
   0.3849487000000000    0.9163345100000000    0.2615557600000000 As
   0.6150513000000000    0.4163345100000000    0.7384442400000000 As
   0.9625718200000000    0.3014387900000000    0.4909568700000000 As
   0.0374281800000000    0.8014387900000000    0.5090431300000000 As
   0.6622182400000000    0.8340674400000000    0.4332386100000000 Se
   0.3377817600000000    0.3340674400000000    0.5667613900000000 Se
   0.5126088800000000    0.4467572400000000    0.9312341900000000 Se
   0.4873911200000000    0.9467572400000001    0.0687658100000000 Se
   0.0544055700000000    0.6156748100000000    0.6077099300000000 Se
   0.7017082700000000    0.1715302200000000    0.8981325900000000 Se
   0.9455944300000000    0.1156748100000000    0.3922900700000000 Se
   0.2982917300000000    0.6715302200000000    0.1018674100000000 Se
   0.6260225000000000    0.8954454100000000    0.7603617000000000 Se
   0.3739775000000000    0.3954454100000000    0.2396383000000000 Se
   0.8829933700000000    0.3950813900000000    0.2592869000000000 Se
   0.1170066300000000    0.8950813900000000    0.7407131000000000 Se
   0.2057116500000000    0.2106297700000000    0.8606676200000000 Se
   0.7942883500000000    0.7106297700000000    0.1393323800000000 Se
   0.5673118500000000    0.5951683100000000    0.6304019500000000 Se
   0.4326881500000000    0.0951683100000000    0.3695980500000000 Se
   0.2757981800000000    0.8180700500000000    0.4751851100000000 Se
   0.7242018200000000    0.3180700500000000    0.5248148900000000 Se
   0.9470716000000000    0.4756552200000000    0.9816951600000000 Se
   0.0529284000000000    0.9756552200000000    0.0183048400000000 Se
