Bi2 P2 Pb8 O16
1.0
   6.2869960000000003    0.0000000000000000    0.0000000000000000
   0.0120370000000000    7.2485889999999999    0.0000000000000000
   3.1105640000000001    1.7724350000000000   10.1823650000000008
Bi P Pb O
2 2 8 16
direct
   0.9227379999999999    0.7743040000000000    0.4025600000000000 Bi
   0.0772620000000000    0.2256960000000000    0.5974400000000000 Bi
   0.9416530000000000    0.2966460000000000    0.3097620000000000 P
   0.0583470000000000    0.7033540000000000    0.6902380000000000 P
   0.2395670000000000    0.1188170000000000    0.0256380000000000 Pb
   0.4765820000000000    0.5546700000000000    0.3013710000000000 Pb
   0.7604330000000000    0.8811830000000000    0.9743620000000000 Pb
   0.2392600000000000    0.6212750000000000    0.0260670000000000 Pb
   0.7607400000000000    0.3787250000000000    0.9739330000000000 Pb
   0.5234180000000000    0.4453300000000000    0.6986289999999999 Pb
   0.4720900000000000    0.0447010000000000    0.3032110000000000 Pb
   0.5279100000000000    0.9552990000000000    0.6967890000000000 Pb
   0.7820310000000000    0.3168110000000000    0.2227090000000000 O
   0.1036890000000000    0.8979320000000000    0.5981580000000000 O
   0.8123580000000000    0.6820440000000000    0.7772019999999999 O
   0.2366830000000000    0.8086270000000000    0.2624140000000000 O
   0.4437810000000000    0.8963780000000000    0.9140480000000000 O
   0.8963110000000000    0.1020680000000000    0.4018420000000000 O
   0.7633170000000000    0.1913730000000000    0.7375860000000000 O
   0.5562190000000000    0.1036220000000000    0.0859520000000000 O
   0.4325970000000000    0.3961880000000000    0.9173390000000000 O
   0.1057200000000000    0.5528419999999999    0.5989449999999999 O
   0.5674030000000000    0.6038120000000000    0.0826610000000000 O
   0.7212410000000000    0.8082050000000000    0.2694650000000000 O
   0.2787590000000000    0.1917950000000000    0.7305350000000000 O
   0.8942800000000000    0.4471580000000000    0.4010550000000000 O
   0.2179690000000000    0.6831890000000000    0.7772910000000000 O
   0.1876420000000000    0.3179560000000000    0.2227980000000000 O
