Na4 Mo2 O8
1.0
   0.0000000000000000    4.5144231100000001    4.5144231100000001
   4.5144231100000001    0.0000000000000000    4.5144231100000001
   4.5144231100000001    4.5144231100000001    0.0000000000000000
Na Mo O
4 2 8
direct
   0.6250000000000000    0.6250000000000000    0.6250000000000000 Na
   0.1250000000000000    0.6250000000000000    0.6250000000000000 Na
   0.6250000000000000    0.6250000000000000    0.1250000000000000 Na
   0.6250000000000000    0.1250000000000000    0.6250000000000000 Na
   0.0000000000000000    0.0000000000000000    0.0000000000000000 Mo
   0.2500000000000000    0.2500000000000000    0.2500000000000000 Mo
   0.3646496600000000    0.3646496600000000    0.3646496600000000 O
   0.3439479700000000    0.8853503400000000    0.8853503400000000 O
   0.8853503400000000    0.8853503400000000    0.3439479700000000 O
   0.8853503400000000    0.3439479700000000    0.8853503400000000 O
   0.3646496600000000    0.3646496600000000    0.9060520300000000 O
   0.3646496600000000    0.9060520300000000    0.3646496600000000 O
   0.8853503400000000    0.8853503400000000    0.8853503400000000 O
   0.9060520300000000    0.3646496600000000    0.3646496600000000 O
