Ba3 Ca1 Ta2 O9
1.0
   5.9008695500000004    0.0000000000000000    0.0000000000000000
  -2.9504352699999998    5.1103026199999997    0.0000000000000000
   0.0000000000000000    0.0000000000000000    7.2824552100000002
Ba Ca Ta O
3 1 2 9
direct
   0.6666670000000000    0.3333330000000000    0.3377589000000000 Ba
   0.3333330000000000    0.6666670000000000    0.6622411000000000 Ba
   0.0000000000000000    0.0000000000000000    0.0000000000000000 Ba
   0.0000000000000000    0.0000000000000000    0.5000000000000000 Ca
   0.6666670000000000    0.3333330000000000    0.8335114100000000 Ta
   0.3333330000000000    0.6666670000000000    0.1664885900000000 Ta
   0.1763148500000000    0.8236851500000000    0.3146139000000000 O
   0.8236851500000000    0.1763148500000000    0.6853861000000000 O
   0.5000000000000000    0.5000000000000000    0.0000000000000000 O
   0.0000000000000000    0.5000000000000000    0.0000000000000000 O
   0.6473693000000000    0.8236851500000000    0.3146139000000000 O
   0.3526307000000000    0.1763148500000000    0.6853861000000000 O
   0.1763148500000000    0.3526307000000000    0.3146139000000000 O
   0.8236851500000000    0.6473693000000000    0.6853861000000000 O
   0.5000000000000000    0.0000000000000000    0.0000000000000000 O
