Ba2 Y2 Ag2 Se6
1.0
   2.1139589299999999   -6.9889519900000003    0.0000000000000000
   2.1139589299999999    6.9889519900000003    0.0000000000000000
   0.0000000000000000    0.0000000000000000   10.5675635200000002
Ba Y Ag Se
2 2 2 6
direct
   0.2492126500000000    0.7507873500000000    0.2500000000000000 Ba
   0.7507873500000000    0.2492126500000000    0.7500000000000000 Ba
   0.0000000000000000    0.0000000000000000    0.0000000000000000 Y
   0.0000000000000000    0.0000000000000000    0.5000000000000000 Y
   0.5304262300000000    0.4695737700000000    0.2500000000000000 Ag
   0.4695737700000000    0.5304262300000000    0.7500000000000000 Ag
   0.3629792200000000    0.6370207800000000    0.5495552800000000 Se
   0.6370207800000000    0.3629792200000000    0.4504447200000000 Se
   0.6370207800000000    0.3629792200000000    0.0495552800000000 Se
   0.0787139600000000    0.9212860400000000    0.7500000000000000 Se
   0.9212860400000000    0.0787139600000000    0.2500000000000000 Se
   0.3629792200000000    0.6370207800000000    0.9504447200000000 Se
