Tl4 C2 O6
1.0
   6.1675208300000000   -2.6915264699999999   -0.0900408100000000
   6.1675208300000000    2.6915264699999999   -0.0900408100000000
  -3.9883336100000002    0.0000000000000000    6.4169055000000004
Tl C O
4 2 6
direct
   0.0891466200000000    0.0891466200000000    0.3042313200000000 Tl
   0.9108533800000000    0.9108533800000000    0.6957686800000000 Tl
   0.6309397700000000    0.6309397700000000    0.7652888600000000 Tl
   0.3690602300000000    0.3690602300000000    0.2347111400000000 Tl
   0.6663486900000000    0.6663486900000000    0.1977825300000000 C
   0.3336513100000000    0.3336513100000000    0.8022174700000000 C
   0.6687892700000000    0.6687892700000000    0.3706241300000000 O
   0.3312107300000000    0.3312107300000000    0.6293758699999999 O
   0.4553822900000000    0.8730559800000000    0.1083666800000000 O
   0.1269440200000000    0.5446177100000000    0.8916333200000000 O
   0.5446177100000000    0.1269440200000000    0.8916333200000000 O
   0.8730559800000000    0.4553822900000000    0.1083666800000000 O
