La2 Zn2 As2 O2
1.0
   4.0461816500000003    0.0000000000000000    0.0000000000000000
   0.0000000000000000    4.0461816500000003    0.0000000000000000
   0.0000000000000000    0.0000000000000000    8.9370957799999999
La Zn As O
2 2 2 2
direct
   0.5000000000000000    0.0000000000000000    0.1357777700000000 La
   0.0000000000000000    0.5000000000000000    0.8642222300000000 La
   0.5000000000000000    0.5000000000000000    0.5000000000000000 Zn
   0.0000000000000000    0.0000000000000000    0.5000000000000000 Zn
   0.0000000000000000    0.5000000000000000    0.3292979300000000 As
   0.5000000000000000    0.0000000000000000    0.6707020700000000 As
   0.5000000000000000    0.5000000000000000    0.0000000000000000 O
   0.0000000000000000    0.0000000000000000    0.0000000000000000 O
