Li2 In2 O4
1.0
  -2.1909790800000000    2.1909790800000000    4.6333769399999998
   2.1909790800000000   -2.1909790800000000    4.6333769399999998
   2.1909790800000000    2.1909790800000000   -4.6333769399999998
Li In O
2 2 4
direct
   0.7500000000000000    0.2500000000000000    0.5000000000000000 Li
   0.0000000000000000    0.0000000000000000    0.0000000000000000 Li
   0.2500000000000000    0.7500000000000000    0.5000000000000000 In
   0.5000000000000000    0.5000000000000000    0.0000000000000000 In
   0.4869801000000000    0.9869801000000000    0.5000000000000000 O
   0.2630199000000000    0.2630199000000000    0.0000000000000000 O
   0.0130199000000000    0.5130199000000000    0.5000000000000000 O
   0.7369801000000000    0.7369801000000000    0.0000000000000000 O
