Ta3 Sb1 P6 O24
1.0
   4.3701274500000000    2.5230939299999999    7.5244355000000001
  -4.3701274100000003    2.5230939900000000    7.5244355000000001
  -0.0000000300000000   -5.0461889099999997    7.5244355000000001
Ta Sb P O
3 1 6 24
direct
   0.1414817400000000    0.1414817400000000    0.1414817400000000 Ta
   0.3564844900000000    0.3564844900000000    0.3564844900000000 Ta
   0.8576658800000000    0.8576658800000000    0.8576658800000000 Ta
   0.6396515400000000    0.6396515400000000    0.6396515400000000 Sb
   0.7502857400000000    0.4635342600000000    0.0368626200000000 P
   0.4635342600000000    0.0368626200000000    0.7502857400000000 P
   0.0368626200000000    0.7502857400000000    0.4635342600000000 P
   0.5326576100000000    0.9866049400000000    0.2301758300000000 P
   0.9866049400000000    0.2301758300000000    0.5326576100000000 P
   0.2301758300000000    0.5326576100000000    0.9866049400000000 P
   0.7660043400000000    0.4704310400000000    0.8592591100000000 O
   0.4704310400000000    0.8592591100000000    0.7660043400000000 O
   0.8592591100000000    0.7660043400000000    0.4704310400000000 O
   0.3883510000000000    0.0375947300000000    0.1539828200000000 O
   0.0375947300000000    0.1539828200000000    0.3883510000000000 O
   0.1539828200000000    0.3883510000000000    0.0375947300000000 O
   0.2350863300000000    0.5123562400000000    0.1658629500000000 O
   0.5123562400000000    0.1658629500000000    0.2350863300000000 O
   0.1658629500000000    0.2350863300000000    0.5123562400000000 O
   0.6310969400000001    0.0035167300000000    0.7854021900000000 O
   0.0035167300000000    0.7854021900000000    0.6310969400000001 O
   0.7854021900000000    0.6310969400000001    0.0035167300000000 O
   0.4180118600000000    0.5084673400000000    0.8355654400000000 O
   0.5084673400000000    0.8355654400000000    0.4180118600000000 O
   0.8355654400000000    0.4180118600000000    0.5084673400000000 O
   0.2772551800000000    0.1159285200000000    0.8943130100000000 O
   0.1159285200000000    0.8943130100000000    0.2772551800000000 O
   0.8943130100000000    0.2772551800000000    0.1159285200000000 O
   0.5562073500000000    0.4655921700000000    0.1934263400000000 O
   0.4655921700000000    0.1934263400000000    0.5562073500000000 O
   0.1934263400000000    0.5562073500000000    0.4655921700000000 O
   0.7235998100000000    0.9270211600000000    0.0802627500000000 O
   0.9270211600000000    0.0802627500000000    0.7235998100000000 O
   0.0802627500000000    0.7235998100000000    0.9270211600000000 O
