Hg4 P4 O14
1.0
   6.7318699999999998    0.0000000000000000    0.0000000000000000
   1.1823330000000001    6.8126610000000003    0.0000000000000000
   2.7413129999999999    1.0037560000000001    6.4537100000000001
Hg P O
4 4 14
direct
   0.8965310000000000    0.8275930000000000    0.7531500000000000 Hg
   0.1034690000000000    0.1724070000000000    0.2468500000000000 Hg
   0.6969610000000001    0.6834570000000000    0.3753410000000000 Hg
   0.3030390000000000    0.3165430000000000    0.6246590000000000 Hg
   0.7881780000000000    0.3413750000000000    0.7359920000000000 P
   0.2118220000000000    0.6586250000000000    0.2640080000000000 P
   0.6405450000000000    0.1286560000000000    0.1694080000000000 P
   0.3594550000000000    0.8713440000000000    0.8305920000000000 P
   0.7748119999999999    0.2353760000000000    0.2361420000000000 O
   0.2251880000000000    0.7646240000000000    0.7638580000000000 O
   0.9205190000000000    0.4830300000000000    0.7659589999999999 O
   0.0794810000000000    0.5169700000000000    0.2340410000000000 O
   0.7421860000000000    0.9162110000000000    0.1173040000000000 O
   0.2578140000000000    0.0837890000000000    0.8826960000000000 O
   0.6281440000000000    0.4439870000000000    0.6288400000000000 O
   0.3718560000000000    0.5560130000000000    0.3711600000000000 O
   0.4057970000000000    0.1248810000000000    0.3231960000000000 O
   0.5942030000000000    0.8751190000000000    0.6768040000000000 O
   0.9380530000000000    0.1681290000000000    0.6348260000000000 O
   0.0619470000000000    0.8318710000000000    0.3651740000000000 O
   0.6192410000000000    0.2493690000000000    0.9567800000000000 O
   0.3807590000000000    0.7506310000000000    0.0432200000000000 O
