Cs2 As6 O16
1.0
   4.3036893999999997   -5.8988265699999998    0.0025826200000000
   4.3036893999999997    5.8988265699999998    0.0025826200000000
  -2.9664494700000001    0.0000000000000000    7.0764467900000003
Cs As O
2 6 16
direct
   0.5796099400000000    0.4203900600000000    0.2500000000000000 Cs
   0.4203900600000000    0.5796099400000000    0.7500000000000000 Cs
   0.2951653100000000    0.9494673400000000    0.4284705400000000 As
   0.0505326600000000    0.7048346900000000    0.0715294600000000 As
   0.9314818200000000    0.0685181800000000    0.2500000000000000 As
   0.9494673400000000    0.2951653100000000    0.9284705400000000 As
   0.7048346900000000    0.0505326600000000    0.5715294600000000 As
   0.0685181800000000    0.9314818200000000    0.7500000000000000 As
   0.1783251900000000    0.5240398200000000    0.0300757600000000 O
   0.8670985700000000    0.8476488599999999    0.0692900000000000 O
   0.8476488599999999    0.8670985700000000    0.5692900000000000 O
   0.9537110900000000    0.2739757100000000    0.1717598200000000 O
   0.8216748100000000    0.4759601800000000    0.9699242400000000 O
   0.1523511400000000    0.1329014300000000    0.4307100000000000 O
   0.2739757100000000    0.9537110900000000    0.6717598200000000 O
   0.0692283100000000    0.7205429300000000    0.3199100600000000 O
   0.5240398200000000    0.1783251900000000    0.5300757600000000 O
   0.0462889100000000    0.7260242900000000    0.8282401800000000 O
   0.7260242900000000    0.0462889100000000    0.3282401800000000 O
   0.9307716900000000    0.2794570700000000    0.6800899400000000 O
   0.1329014300000000    0.1523511400000000    0.9307100000000000 O
   0.7205429300000000    0.0692283100000000    0.8199100600000000 O
   0.2794570700000000    0.9307716900000000    0.1800899400000000 O
   0.4759601800000000    0.8216748100000000    0.4699242400000000 O
