Hf2 P4 S12
1.0
   0.0000000000000000    5.7228701500000003   10.7813184500000006
   3.9469019799999998    0.0000000000000000   10.7813184500000006
   3.9469019799999998    5.7228701500000003    0.0000000000000000
Hf P S
2 4 12
direct
   0.3500889200000000    0.3500889200000000    0.1499110800000000 Hf
   0.1000889200000000    0.1000889200000000    0.8999110800000000 Hf
   0.1380366700000000    0.2376755100000000    0.4835342600000000 P
   0.7664657400000000    0.1092464400000000    0.1119633300000000 P
   0.1092464400000000    0.7664657400000000    0.0123244900000000 P
   0.2376755100000000    0.1380366700000000    0.1407535600000000 P
   0.6928532400000000    0.1682315200000000    0.8581105999999999 S
   0.1682315200000000    0.6928532400000000    0.2808046400000000 S
   0.0561121700000000    0.4805638500000000    0.4845029400000000 S
   0.4805638500000000    0.0561121700000000    0.9788210400000000 S
   0.2711789600000000    0.7654970600000000    0.7694361500000000 S
   0.7654970600000000    0.2711789600000000    0.1938878300000000 S
   0.3483053000000000    0.8800348200000000    0.0962786300000000 S
   0.8800348200000000    0.3483053000000000    0.6753812400000000 S
   0.5746187600000000    0.1537213700000000    0.3699651800000000 S
   0.1537213700000000    0.5746187600000000    0.9016947000000000 S
   0.3918894000000000    0.9691953600000000    0.5571467600000000 S
   0.9691953600000000    0.3918894000000000    0.0817684800000000 S
