La6 Cu2 Si2 S14
1.0
  10.2146912000000007   -0.0000007300000000    0.0000000000000000
  -5.1073449699999998    8.8461821399999998    0.0000000000000000
   0.0000000000000000    0.0000000000000000    5.7486676399999999
La Cu Si S
6 2 2 14
direct
   0.8751819199999999    0.6427161800000000    0.2360512800000000 La
   0.7675332600000000    0.1248180800000000    0.2360512800000000 La
   0.3572838200000000    0.2324667400000000    0.2360512800000000 La
   0.1248180800000000    0.3572838200000000    0.7360512800000000 La
   0.2324667400000000    0.8751819199999999    0.7360512800000000 La
   0.6427161800000000    0.7675332600000000    0.7360512800000000 La
   0.0000000000000000    0.0000000000000000    0.2144156300000000 Cu
   0.0000000000000000    0.0000000000000000    0.7144156300000000 Cu
   0.3333330000000000    0.6666670000000000    0.3202250300000000 Si
   0.6666670000000000    0.3333330000000000    0.8202250300000000 Si
   0.7512918500000000    0.8374103300000000    0.2245716600000000 S
   0.9138825200000000    0.7512918500000000    0.7245716600000000 S
   0.5881545400000000    0.4756474100000000    0.9606963900000000 S
   0.6666670000000000    0.3333330000000000    0.4539983500000000 S
   0.8874928700000000    0.4118454600000000    0.9606963900000000 S
   0.4118454600000000    0.5243525900000000    0.4606963900000000 S
   0.3333330000000000    0.6666670000000000    0.9539983500000000 S
   0.0861174800000000    0.2487081500000000    0.2245716600000000 S
   0.2487081500000000    0.1625896700000000    0.7245716600000000 S
   0.1625896700000000    0.9138825200000000    0.2245716600000000 S
   0.5243525900000000    0.1125071300000000    0.9606963900000000 S
   0.4756474100000000    0.8874928700000000    0.4606963900000000 S
   0.8374103300000000    0.0861174800000000    0.7245716600000000 S
   0.1125071300000000    0.5881545400000000    0.4606963900000000 S
