Sr2 Hf7 O16
1.0
   3.2052195600000002    1.8505347599999999    8.9507226699999993
  -3.2052194699999998    1.8505349200000001    8.9507226699999993
  -0.0000000900000000   -3.7010686900000000    8.9507226699999993
Sr Hf O
2 7 16
direct
   0.3340088100000000    0.3340088100000000    0.3340088100000000 Sr
   0.6659911900000000    0.6659911900000000    0.6659911900000000 Sr
   0.0000000000000000    0.0000000000000000    0.0000000000000000 Hf
   0.2480269600000000    0.5181409500000000    0.8883405599999999 Hf
   0.1116594400000000    0.7519730400000000    0.4818590500000000 Hf
   0.4818590500000000    0.1116594400000000    0.7519730400000000 Hf
   0.5181409500000000    0.8883405599999999    0.2480269600000000 Hf
   0.8883405599999999    0.2480269600000000    0.5181409500000000 Hf
   0.7519730400000000    0.4818590500000000    0.1116594400000000 Hf
   0.2369629400000000    0.2369629400000000    0.2369629400000000 O
   0.2340851600000000    0.6784234700000000    0.9619954600000000 O
   0.1479605100000000    0.4104073400000000    0.8517186500000000 O
   0.1482813500000000    0.8520394900000000    0.5895926600000000 O
   0.0380045400000000    0.7659148400000000    0.3215765300000000 O
   0.3215765300000000    0.0380045400000000    0.7659148400000000 O
   0.5895926600000000    0.1482813500000000    0.8520394900000000 O
   0.5699222500000000    0.5699222500000000    0.5699222500000000 O
   0.4300777500000000    0.4300777500000000    0.4300777500000000 O
   0.4104073400000000    0.8517186500000000    0.1479605100000000 O
   0.6784234700000000    0.9619954600000000    0.2340851600000000 O
   0.9619954600000000    0.2340851600000000    0.6784234700000000 O
   0.8517186500000000    0.1479605100000000    0.4104073400000000 O
   0.8520394900000000    0.5895926600000000    0.1482813500000000 O
   0.7659148400000000    0.3215765300000000    0.0380045400000000 O
   0.7630370600000000    0.7630370600000000    0.7630370600000000 O
