Na8 Zr4 O12
1.0
   2.8116365700000001   -4.8776290199999996   -0.0004498900000000
   2.8116365700000001    4.8776290199999996   -0.0004498900000000
  -1.9166619400000000    0.0000000000000000   10.8280988899999997
Na Zr O
8 4 12
direct
   0.9151797699999999    0.0848202300000000    0.2500000000000000 Na
   0.0848202300000000    0.9151797699999999    0.7500000000000000 Na
   0.0000000000000000    0.5000000000000000    0.5000000000000000 Na
   0.5000000000000000    0.0000000000000000    0.0000000000000000 Na
   0.8411696300000000    0.6827619400000000    0.0002746400000000 Na
   0.3172380600000000    0.1588303700000000    0.4997253600000000 Na
   0.1588303700000000    0.3172380600000000    0.9997253600000000 Na
   0.6827619400000000    0.8411696300000000    0.5002746400000000 Na
   0.5820899400000000    0.4179100600000000    0.2500000000000000 Zr
   0.4179100600000000    0.5820899400000000    0.7500000000000000 Zr
   0.7503832600000000    0.2496167400000000    0.7500000000000000 Zr
   0.2496167400000000    0.7503832600000000    0.2500000000000000 Zr
   0.6811793600000000    0.5121732100000000    0.6431680600000000 O
   0.4878267900000000    0.3188206400000000    0.8568319400000000 O
   0.3188206400000000    0.4878267900000000    0.3568319400000000 O
   0.5121732100000000    0.6811793600000000    0.1431680600000000 O
   0.8790982899999999    0.4164603700000000    0.1433725100000000 O
   0.5835396300000000    0.1209017100000000    0.3566274900000000 O
   0.1209017100000000    0.5835396300000000    0.8566274900000000 O
   0.4164603700000000    0.8790982899999999    0.6433725100000000 O
   0.9524984300000000    0.7548425600000001    0.3585130300000000 O
   0.2451574400000000    0.0475015700000000    0.1414869700000000 O
   0.0475015700000000    0.2451574400000000    0.6414869700000000 O
   0.7548425600000001    0.9524984300000000    0.8585130300000000 O
