Ba3 As2 O8
1.0
   2.8871360699999999    1.6668888700000000    7.1022358700000003
  -2.8871360699999999    1.6668888700000000    7.1022358700000003
   0.0000000000000000   -3.3337777300000000    7.1022358700000003
Ba As O
3 2 8
direct
   0.7939550900000000    0.7939550900000000    0.7939550900000000 Ba
   0.2060449100000000    0.2060449100000000    0.2060449100000000 Ba
   0.0000000000000000    0.0000000000000000    0.0000000000000000 Ba
   0.5925944700000000    0.5925944700000000    0.5925944700000000 As
   0.4074055300000000    0.4074055300000000    0.4074055300000000 As
   0.6726902400000000    0.6726902400000000    0.6726902400000000 O
   0.3273097600000000    0.3273097600000000    0.3273097600000000 O
   0.7272395000000000    0.7272395000000000    0.2416147500000000 O
   0.2416147500000000    0.7272395000000000    0.7272395000000000 O
   0.7272395000000000    0.2416147500000000    0.7272395000000000 O
   0.7583852500000000    0.2727605000000000    0.2727605000000000 O
   0.2727605000000000    0.2727605000000000    0.7583852500000000 O
   0.2727605000000000    0.7583852500000000    0.2727605000000000 O
