Ba4 Te4 S12
1.0
   7.1583836900000000    0.0000000000000000    0.0000000000000000
   0.0000000000000000    6.8647546899999998    0.0000000000000000
   0.0000000000000000    0.0000000000000000   11.0405857899999997
Ba Te S
4 4 12
direct
   0.7538203999999999    0.2500000000000000    0.9129764500000001 Ba
   0.2461796000000000    0.7500000000000000    0.0870235500000000 Ba
   0.2538204000000000    0.2500000000000000    0.5870235499999999 Ba
   0.7461796000000001    0.7500000000000000    0.4129764500000000 Ba
   0.0308106500000000    0.2500000000000000    0.2525861500000000 Te
   0.9691893499999999    0.7500000000000000    0.7474138500000000 Te
   0.5308106500000001    0.2500000000000000    0.2474138500000000 Te
   0.4691893500000000    0.7500000000000000    0.7525861500000000 Te
   0.1335465000000000    0.4861218500000000    0.8432010500000000 S
   0.8664535000000000    0.9861218500000000    0.1567989500000000 S
   0.6335465000000000    0.0138781500000000    0.6567989500000000 S
   0.3664535000000000    0.5138781500000000    0.3432010500000000 S
   0.8664535000000000    0.5138781500000000    0.1567989500000000 S
   0.1335465000000000    0.0138781500000000    0.8432010500000000 S
   0.3664535000000000    0.9861218500000000    0.3432010500000000 S
   0.6335465000000000    0.4861218500000000    0.6567989500000000 S
   0.6385009900000000    0.7500000000000000    0.9404927300000000 S
   0.3614990100000000    0.2500000000000000    0.0595072700000000 S
   0.1385009900000000    0.7500000000000000    0.5595072700000000 S
   0.8614990100000000    0.2500000000000000    0.4404927300000000 S
