Sc4 Tl2 Cu6 Se10
1.0
   1.9571707800000000   -6.9769806699999997    0.0000000000000000
   1.9571707800000000    6.9769806699999997    0.0000000000000000
   0.0000000000000000    0.0000000000000000   16.0395040100000017
Sc Tl Cu Se
4 2 6 10
direct
   0.6916509100000000    0.3083490900000000    0.5933219000000000 Sc
   0.3083490900000000    0.6916509100000000    0.4066781000000000 Sc
   0.3083490900000000    0.6916509100000000    0.0933219000000000 Sc
   0.6916509100000000    0.3083490900000000    0.9066781000000000 Sc
   0.5635656100000001    0.4364343900000000    0.2500000000000000 Tl
   0.4364343900000000    0.5635656100000001    0.7500000000000000 Tl
   0.9147730600000000    0.0852269400000000    0.5311544400000000 Cu
   0.0852269400000000    0.9147730600000000    0.4688455600000000 Cu
   0.0852269400000000    0.9147730600000000    0.0311544400000000 Cu
   0.9147730600000000    0.0852269400000000    0.9688455600000000 Cu
   0.8452959200000000    0.1547040800000000    0.2500000000000000 Cu
   0.1547040800000000    0.8452959200000000    0.7500000000000000 Cu
   0.2471906300000000    0.7528093700000000    0.2500000000000000 Se
   0.7528093700000000    0.2471906300000000    0.7500000000000000 Se
   0.9393991700000000    0.0606008300000000    0.1185846900000000 Se
   0.0606008300000000    0.9393991700000000    0.8814153100000000 Se
   0.0606008300000000    0.9393991700000000    0.6185846900000000 Se
   0.9393991700000000    0.0606008300000000    0.3814153100000000 Se
   0.6729456500000000    0.3270543500000000    0.0726511800000000 Se
   0.3270543500000000    0.6729456500000000    0.9273488200000000 Se
   0.3270543500000000    0.6729456500000000    0.5726511800000000 Se
   0.6729456500000000    0.3270543500000000    0.4273488200000000 Se
