Li2 Sc2 W4 O16
1.0
   4.7355939400000002   -5.7434836699999998    0.0002515000000000
   4.7355939400000002    5.7434836699999998    0.0002515000000000
  -0.1099575900000000    0.0000000000000000    4.9548940699999999
Li Sc W O
2 2 4 16
direct
   0.6569900100000000    0.3430099900000000    0.2500000000000000 Li
   0.3430099900000000    0.6569900100000000    0.7500000000000000 Li
   0.1656923500000000    0.8343076500000000    0.2500000000000000 Sc
   0.8343076500000000    0.1656923500000000    0.7500000000000000 Sc
   0.1688384500000000    0.3442418000000000    0.2519487100000000 W
   0.8311615500000000    0.6557582000000000    0.7480512900000000 W
   0.6557582000000000    0.8311615500000000    0.2480512900000000 W
   0.3442418000000000    0.1688384500000000    0.7519487100000000 W
   0.0568433300000000    0.6934666300000000    0.9028228100000000 O
   0.9431566700000000    0.3065333700000000    0.0971771900000000 O
   0.3065333700000000    0.9431566700000000    0.5971771900000000 O
   0.6934666300000000    0.0568433300000000    0.4028228100000000 O
   0.9137714500000000    0.8008442900000000    0.4309422200000000 O
   0.0862285500000000    0.1991557100000000    0.5690577800000000 O
   0.1991557100000000    0.0862285500000000    0.0690577800000000 O
   0.8008442900000000    0.9137714500000000    0.9309422200000000 O
   0.1886736300000000    0.5703020500000000    0.3937085500000000 O
   0.8113263700000000    0.4296979500000000    0.6062914500000000 O
   0.4296979500000000    0.8113263700000000    0.1062914500000000 O
   0.5703020500000000    0.1886736300000000    0.8937085500000000 O
   0.6931878400000000    0.5924876200000000    0.0598752000000000 O
   0.3068121600000000    0.4075123800000000    0.9401248000000000 O
   0.4075123800000000    0.3068121600000000    0.4401248000000000 O
   0.5924876200000000    0.6931878400000000    0.5598752000000000 O
