Be4 Te1 O7
1.0
   0.0000000000000000    3.8023261800000001    3.8023261800000001
   3.8023261800000001    0.0000000000000000    3.8023261800000001
   3.8023261800000001    3.8023261800000001    0.0000000000000000
Be Te O
4 1 7
direct
   0.1185918000000000    0.6271357300000000    0.6271357300000000 Be
   0.6271357300000000    0.1185918000000000    0.6271357300000000 Be
   0.6271357300000000    0.6271357300000000    0.6271357300000000 Be
   0.6271357300000000    0.6271357300000000    0.1185918000000000 Be
   0.0000000000000000    0.0000000000000000    0.0000000000000000 Te
   0.7500000000000000    0.7500000000000000    0.7500000000000000 O
   0.7459551800000001    0.2540448200000000    0.7459551800000001 O
   0.7459551800000001    0.2540448200000000    0.2540448200000000 O
   0.2540448200000000    0.7459551800000001    0.7459551800000001 O
   0.2540448200000000    0.7459551800000001    0.2540448200000000 O
   0.7459551800000001    0.7459551800000001    0.2540448200000000 O
   0.2540448200000000    0.2540448200000000    0.7459551800000001 O
