Rb2 Sb2 O4
1.0
   3.9805758600000001   -4.4582542600000004   -0.0010882300000000
   3.9805758600000001    4.4582542600000004   -0.0010882300000000
  -3.0941805400000000    0.0000000000000000    4.6708874800000002
Rb Sb O
2 2 4
direct
   0.3582251900000000    0.6417748100000000    0.2500000000000000 Rb
   0.6417748100000000    0.3582251900000000    0.7500000000000000 Rb
   0.0906108800000000    0.9093891200000001    0.7500000000000000 Sb
   0.9093891200000001    0.0906108800000000    0.2500000000000000 Sb
   0.8698602300000000    0.7730871100000000    0.2894695400000000 O
   0.2269128900000000    0.1301397700000000    0.2105304600000000 O
   0.7730871100000000    0.8698602300000000    0.7894695400000000 O
   0.1301397700000000    0.2269128900000000    0.7105304600000000 O
