Bi4 S6 O24
1.0
   8.6724754100000006   -3.4004668200000001    0.0523660400000000
   8.6724754100000006    3.4004668200000001    0.0523660400000000
  -1.7213541600000000    0.0000000000000000    8.0533781500000003
Bi S O
4 6 24
direct
   0.7512878000000000    0.5498878900000000    0.5448441600000000 Bi
   0.4501121100000000    0.2487122000000000    0.9551558400000000 Bi
   0.2487122000000000    0.4501121100000000    0.4551558400000000 Bi
   0.5498878900000000    0.7512878000000000    0.0448441600000000 Bi
   0.2788359400000000    0.1001790300000000    0.6906528700000000 S
   0.8998209700000001    0.7211640600000000    0.8093471300000000 S
   0.7211640600000000    0.8998209700000001    0.3093471300000000 S
   0.1001790300000000    0.2788359400000000    0.1906528700000000 S
   0.4206014500000000    0.5793985500000000    0.7500000000000000 S
   0.5793985500000000    0.4206014500000000    0.2500000000000000 S
   0.3964334900000000    0.9075007300000000    0.5793869500000000 O
   0.0924992700000000    0.6035665099999999    0.9206130500000000 O
   0.6035665099999999    0.0924992700000000    0.4206130500000000 O
   0.9075007300000000    0.3964334900000000    0.0793869500000000 O
   0.3268174500000000    0.2190737200000000    0.6719645900000000 O
   0.7809262800000000    0.6731825500000000    0.8280354100000000 O
   0.6731825500000000    0.7809262800000000    0.3280354100000000 O
   0.2190737200000000    0.3268174500000000    0.1719645900000000 O
   0.3485510900000000    0.0512942900000000    0.8705597700000000 O
   0.9487057100000000    0.6514489100000000    0.6294402300000000 O
   0.6514489100000000    0.9487057100000000    0.1294402300000000 O
   0.0512942900000000    0.3485510900000000    0.3705597700000000 O
   0.0498948400000000    0.2350831400000000    0.6647927100000000 O
   0.7649168600000000    0.9501051600000000    0.8352072900000000 O
   0.9501051600000000    0.7649168600000000    0.3352072900000000 O
   0.2350831400000000    0.0498948400000000    0.1647927100000000 O
   0.6175581600000000    0.5240868000000000    0.7478049700000000 O
   0.4759132000000000    0.3824418400000000    0.7521950300000000 O
   0.3824418400000000    0.4759132000000000    0.2521950300000000 O
   0.5240868000000000    0.6175581600000000    0.2478049700000000 O
   0.2799849600000000    0.6786582600000000    0.5971172400000000 O
   0.3213417400000000    0.7200150400000001    0.9028827600000000 O
   0.7200150400000001    0.3213417400000000    0.4028827600000000 O
   0.6786582600000000    0.2799849600000000    0.0971172400000000 O
