Cs4 Au6 S5
1.0
  10.1557459500000000    0.0000000200000000    0.0000000000000000
  -5.0778734400000003    8.7951339399999995    0.0000000000000000
   0.0000000000000000    0.0000000000000000    5.3056267600000000
Cs Au S
4 6 5
direct
   0.0000000000000000    0.0000000000000000    0.1554120200000000 Cs
   0.0000000000000000    0.5957778000000000    0.4518964500000000 Cs
   0.4042222000000000    0.4042222000000000    0.4518964500000000 Cs
   0.5957778000000000    0.0000000000000000    0.4518964500000000 Cs
   0.7160509000000000    0.5460329700000000    0.9233263000000000 Au
   0.4539670300000000    0.1700179400000000    0.9233263000000000 Au
   0.8299820600000000    0.2839491000000000    0.9233263000000000 Au
   0.5460329700000000    0.7160509000000000    0.9233263000000000 Au
   0.2839491000000000    0.8299820600000000    0.9233263000000000 Au
   0.1700179400000000    0.4539670300000000    0.9233263000000000 Au
   0.3333330000000000    0.6666670000000000    0.1513676000000000 S
   0.6666670000000000    0.3333330000000000    0.1513676000000000 S
   0.7526640900000000    0.7526640900000000    0.6927315500000000 S
   0.2473359100000000    0.0000000000000000    0.6927315500000000 S
   0.0000000000000000    0.2473359100000000    0.6927315500000000 S
