Ba4 Cu8 S8
1.0
   9.1230824500000001    0.0000000000000000    0.0000000000000000
   0.0000000000000000    3.9880454599999999    0.0000000000000000
   0.0000000000000000    0.0000000000000000   10.2332027500000002
Ba Cu S
4 8 8
direct
   0.7594747800000000    0.7500000000000000    0.1758307200000000 Ba
   0.2405252200000000    0.2500000000000000    0.8241692800000000 Ba
   0.2594747800000000    0.7500000000000000    0.3241692800000000 Ba
   0.7405252200000000    0.2500000000000000    0.6758307200000000 Ba
   0.0829573700000000    0.2500000000000000    0.5448027800000000 Cu
   0.9170426300000000    0.7500000000000000    0.4551972200000000 Cu
   0.4170426300000000    0.7500000000000000    0.0448027800000000 Cu
   0.5829573700000000    0.2500000000000000    0.9551972200000000 Cu
   0.9471027000000000    0.7500000000000000    0.8882752300000000 Cu
   0.0528973000000000    0.2500000000000000    0.1117247700000000 Cu
   0.4471027000000000    0.7500000000000000    0.6117247700000000 Cu
   0.5528973000000000    0.2500000000000000    0.3882752300000000 Cu
   0.8437929199999999    0.2500000000000000    0.9589930900000000 S
   0.1562070800000000    0.7500000000000000    0.0410069100000000 S
   0.6562070800000001    0.7500000000000000    0.4589930900000000 S
   0.3437929200000000    0.2500000000000000    0.5410069100000000 S
   0.5194384399999999    0.7500000000000000    0.8337112700000000 S
   0.4805615600000000    0.2500000000000000    0.1662887300000000 S
   0.0194384400000000    0.7500000000000000    0.6662887300000000 S
   0.9805615600000001    0.2500000000000000    0.3337112700000000 S
