Cs4 Li4 Ge2 O8
1.0
   5.6876583800000002   -0.0119769900000000    0.0159398300000000
   0.3478172400000000    5.8022333699999997    0.0021696900000000
   2.2356067099999999    0.7794742000000000    9.0564355699999997
Cs Li Ge O
4 4 2 8
direct
   0.2140509700000000    0.2710870800000000    0.9842966399999999 Cs
   0.7859490300000000    0.7289129200000000    0.0157033600000000 Cs
   0.4832501900000000    0.8532296000000000    0.7131786200000000 Cs
   0.5167498100000000    0.1467704000000000    0.2868213800000000 Cs
   0.0686168500000000    0.8155323400000000    0.5606331300000000 Li
   0.9313831500000000    0.1844676600000000    0.4393668700000000 Li
   0.6936811700000000    0.5871974900000000    0.4198321900000000 Li
   0.3063188300000000    0.4128025100000000    0.5801678100000000 Li
   0.8617689500000000    0.3172176000000000    0.7089657900000000 Ge
   0.1382310500000000    0.6827824000000000    0.2910342100000000 Ge
   0.0214088900000000    0.5737279100000000    0.7147137000000000 O
   0.9785911100000000    0.4262720900000000    0.2852863000000000 O
   0.8998351500000000    0.8627448300000000    0.3996343200000000 O
   0.1001648500000000    0.1372551700000000    0.6003656800000000 O
   0.7325547000000000    0.1970224800000000    0.8903767900000000 O
   0.2674453000000000    0.8029775200000000    0.1096232100000000 O
   0.3580504600000000    0.6409271200000000    0.4045578300000000 O
   0.6419495400000000    0.3590728800000000    0.5954421700000000 O
