Na8 Si8 S20
1.0
   6.3123579400000001   -6.2874614400000004    0.0000000000000000
   6.3123579400000001    6.2874614400000004    0.0000000000000000
   0.0000000000000000    0.0000000000000000   10.3083411100000006
Na Si S
8 8 20
direct
   0.5815857900000000    0.0887216900000000    0.7500000000000000 Na
   0.4184142100000000    0.9112783100000000    0.2500000000000000 Na
   0.9112783100000000    0.4184142100000000    0.7500000000000000 Na
   0.0887216900000000    0.5815857900000000    0.2500000000000000 Na
   0.1497582500000000    0.1497582500000000    0.5000000000000000 Na
   0.8502417500000000    0.8502417500000000    0.0000000000000000 Na
   0.8502417500000000    0.8502417500000000    0.5000000000000000 Na
   0.1497582500000000    0.1497582500000000    0.0000000000000000 Na
   0.5858116500000000    0.6859700800000000    0.7500000000000000 Si
   0.4141883500000000    0.3140299200000000    0.2500000000000000 Si
   0.3140299200000000    0.4141883500000000    0.7500000000000000 Si
   0.6859700800000000    0.5858116500000000    0.2500000000000000 Si
   0.2538372300000000    0.7461627700000000    0.9171412100000000 Si
   0.7461627700000000    0.2538372300000000    0.4171412100000000 Si
   0.2538372300000000    0.7461627700000000    0.5828587900000000 Si
   0.7461627700000000    0.2538372300000000    0.0828587900000000 Si
   0.7275486100000000    0.8125188300000000    0.2500000000000000 S
   0.2724513900000000    0.1874811700000000    0.7500000000000000 S
   0.1874811700000000    0.2724513900000000    0.2500000000000000 S
   0.8125188300000000    0.7275486100000000    0.7500000000000000 S
   0.1588854300000000    0.8411145700000000    0.0808035900000000 S
   0.8411145700000000    0.1588854300000000    0.5808035900000000 S
   0.1588854300000000    0.8411145700000000    0.4191964100000000 S
   0.8411145700000000    0.1588854300000000    0.9191964100000000 S
   0.1531473100000000    0.8468526900000000    0.7500000000000000 S
   0.8468526900000000    0.1531473100000000    0.2500000000000000 S
   0.5082795600000000    0.2092921000000000    0.0795573400000000 S
   0.4917204400000000    0.7907079000000000    0.5795573400000000 S
   0.7907079000000000    0.4917204400000000    0.4204426600000000 S
   0.2092921000000000    0.5082795600000000    0.9204426600000000 S
   0.4917204400000000    0.7907079000000000    0.9204426600000000 S
   0.5082795600000000    0.2092921000000000    0.4204426600000000 S
   0.2092921000000000    0.5082795600000000    0.5795573400000000 S
   0.7907079000000000    0.4917204400000000    0.0795573400000000 S
   0.5511020000000000    0.4488980000000000    0.7500000000000000 S
   0.4488980000000000    0.5511020000000000    0.2500000000000000 S
