Na2 Ge8 P6 O24
1.0
   4.7141782200000000    2.7217324600000001    7.8633146700000003
  -4.7141782200000000    2.7217324600000001    7.8633146700000003
   0.0000000000000000   -5.4434639599999999    7.8633146700000003
Na Ge P O
2 8 6 24
direct
   0.7859176400000000    0.7859176400000000    0.7859176400000000 Na
   0.2859176400000000    0.2859176400000000    0.2859176400000000 Na
   0.9276268400000000    0.9276268400000000    0.9276268400000000 Ge
   0.8364184300000000    0.3661075500000000    0.4900974400000000 Ge
   0.3364184300000000    0.9900974400000000    0.8661075499999999 Ge
   0.4276268400000000    0.4276268400000000    0.4276268400000000 Ge
   0.9900974400000000    0.8661075499999999    0.3364184300000000 Ge
   0.3661075500000000    0.4900974400000000    0.8364184300000000 Ge
   0.8661075499999999    0.3364184300000000    0.9900974400000000 Ge
   0.4900974400000000    0.8364184300000000    0.3661075500000000 Ge
   0.4768921800000000    0.5709534800000000    0.0271040200000000 P
   0.0271040200000000    0.4768921800000000    0.5709534800000000 P
   0.0709534800000000    0.9768921800000000    0.5271040200000000 P
   0.5709534800000000    0.0271040200000000    0.4768921800000000 P
   0.5271040200000000    0.0709534800000000    0.9768921800000000 P
   0.9768921800000000    0.5271040200000000    0.0709534800000000 P
   0.5522433600000000    0.9912877800000000    0.6620295000000000 O
   0.0496914500000000    0.8641435100000000    0.7201020100000000 O
   0.7488661700000000    0.9118970400000000    0.3883004300000000 O
   0.9912877800000000    0.6620295000000000    0.5522433600000000 O
   0.2488661700000000    0.8883004300000000    0.4118970400000000 O
   0.5496914500000000    0.2201020100000000    0.3641435100000000 O
   0.9280875500000000    0.9888110300000000    0.4838355900000000 O
   0.1620295000000000    0.4912877800000000    0.0522433600000000 O
   0.4118970400000000    0.2488661700000000    0.8883004300000000 O
   0.9888110300000000    0.4838355900000000    0.9280875500000000 O
   0.4912877800000000    0.0522433600000000    0.1620295000000000 O
   0.3883004300000000    0.7488661700000000    0.9118970400000000 O
   0.4280875500000000    0.9838355900000000    0.4888110300000000 O
   0.9118970400000000    0.3883004300000000    0.7488661700000000 O
   0.2201020100000000    0.3641435100000000    0.5496914500000000 O
   0.8883004300000000    0.4118970400000000    0.2488661700000000 O
   0.6620295000000000    0.5522433600000000    0.9912877800000000 O
   0.3641435100000000    0.5496914500000000    0.2201020100000000 O
   0.4888110300000000    0.4280875500000000    0.9838355900000000 O
   0.8641435100000000    0.7201020100000000    0.0496914500000000 O
   0.9838355900000000    0.4888110300000000    0.4280875500000000 O
   0.4838355900000000    0.9280875500000000    0.9888110300000000 O
   0.7201020100000000    0.0496914500000000    0.8641435100000000 O
   0.0522433600000000    0.1620295000000000    0.4912877800000000 O
