La4 Si4 Pb2 Se16
1.0
   7.9969562999999999   -4.6699538000000000   -0.0105103000000000
   7.9969562999999999    4.6699538000000000   -0.0105103000000000
  -5.0575256700000004    0.0000000000000000    9.3358050899999991
La Si Pb Se
4 4 2 16
direct
   0.4413517700000000    0.2463988800000000    0.7499999500000000 La
   0.0570214900000000    0.9407060100000000    0.7550779399999999 La
   0.2463988800000000    0.4413517700000000    0.2499999500000000 La
   0.9407060100000000    0.0570214900000000    0.2550779400000000 La
   0.8548874400000001    0.3258917700000000    0.0200230800000000 Si
   0.3258917700000000    0.8548874400000001    0.5200230800000000 Si
   0.1707095500000000    0.6488300100000000    0.9806576900000000 Si
   0.6488300100000000    0.1707095500000000    0.4806576900000000 Si
   0.7434236300000000    0.5843467900000000    0.7404662700000000 Pb
   0.5843467900000000    0.7434236300000000    0.2404662700000000 Pb
   0.9287584900000000    0.4068898700000000    0.2654581900000000 Se
   0.4068898700000000    0.9287584900000000    0.7654581900000000 Se
   0.0959343000000000    0.5784548600000000    0.7355046600000000 Se
   0.5784548600000000    0.0959343000000000    0.2355046600000000 Se
   0.6141847900000000    0.5281907100000000    0.9204658100000001 Se
   0.7931854500000000    0.0856208700000000    0.9418117900000000 Se
   0.0858071700000000    0.2638255900000000    0.9515867800000000 Se
   0.0856208700000000    0.7931854500000000    0.4418117900000000 Se
   0.5281907100000000    0.6141847900000000    0.4204658100000000 Se
   0.2638255900000000    0.0858071700000000    0.4515867800000000 Se
   0.4082547700000000    0.4228342100000000    0.0523470400000000 Se
   0.2261696000000000    0.8914979800000000    0.0717235900000000 Se
   0.9525076700000000    0.7043153400000000    0.0648752100000000 Se
   0.8914979800000000    0.2261696000000000    0.5717235899999999 Se
   0.4228342100000000    0.4082547700000000    0.5523470400000000 Se
   0.7043153400000000    0.9525076700000000    0.5648752100000000 Se
