Rb4 Te2 W6 O24
1.0
   7.3055756100000000    0.0000000000000000    0.0000000000000000
  -3.6527878100000000    6.3268139699999999    0.0000000000000000
   0.0000000000000000    0.0000000000000000   12.0691610899999997
Rb Te W O
4 2 6 24
direct
   0.6666670000000000    0.3333330000000000    0.3846678500000000 Rb
   0.3333330000000000    0.6666670000000000    0.8846678500000000 Rb
   0.3333330000000000    0.6666670000000000    0.5031581700000000 Rb
   0.6666670000000000    0.3333330000000000    0.0031581700000000 Rb
   0.0000000000000000    0.0000000000000000    0.9246894200000000 Te
   0.0000000000000000    0.0000000000000000    0.4246894200000000 Te
   0.8308559100000000    0.1691440900000000    0.6698630000000000 W
   0.1691440900000000    0.8308559100000000    0.1698630000000000 W
   0.8308559100000000    0.6617128200000000    0.6698630000000000 W
   0.3382871800000000    0.1691440900000000    0.6698630000000000 W
   0.1691440900000000    0.3382871800000000    0.1698630000000000 W
   0.6617128200000000    0.8308559100000000    0.1698630000000000 W
   0.8037060499999999    0.6074131100000000    0.8123889399999999 O
   0.8683251800000000    0.7366503599999999    0.5012564200000000 O
   0.4557768400000000    0.5442231600000000    0.1308373800000000 O
   0.1232845700000000    0.8767154300000000    0.6819064500000001 O
   0.2633496400000000    0.1316748200000000    0.5012564200000000 O
   0.2465701500000000    0.1232845700000000    0.1819064500000000 O
   0.1962939500000000    0.3925868900000000    0.3123889400000000 O
   0.6074131100000000    0.8037060499999999    0.3123889400000000 O
   0.1232845700000000    0.2465701500000000    0.6819064500000001 O
   0.8767154300000000    0.7534298500000000    0.1819064500000000 O
   0.1962939500000000    0.8037060499999999    0.3123889400000000 O
   0.5442231600000000    0.0884463100000000    0.6308373800000000 O
   0.3925868900000000    0.1962939500000000    0.8123889399999999 O
   0.5442231600000000    0.4557768400000000    0.6308373800000000 O
   0.0884463100000000    0.5442231600000000    0.1308373800000000 O
   0.4557768400000000    0.9115536900000000    0.1308373800000000 O
   0.8037060499999999    0.1962939500000000    0.8123889399999999 O
   0.1316748200000000    0.2633496400000000    0.0012564200000000 O
   0.7366503599999999    0.8683251800000000    0.0012564200000000 O
   0.1316748200000000    0.8683251800000000    0.0012564200000000 O
   0.8683251800000000    0.1316748200000000    0.5012564200000000 O
   0.7534298500000000    0.8767154300000000    0.6819064500000001 O
   0.8767154300000000    0.1232845700000000    0.1819064500000000 O
   0.9115536900000000    0.4557768400000000    0.6308373800000000 O
