Li16 Sb4 S2
1.0
   6.4759251799999999   -4.0653967299999998    0.0102588400000000
   6.4759251799999999    4.0653967299999998    0.0102588400000000
  -3.7536676700000000    0.0000000000000000    7.4284227800000000
Li Sb S
16 4 2
direct
   0.6417381400000000    0.0745900700000000    0.1741524000000000 Li
   0.2090236700000000    0.3943776100000000    0.0914041200000000 Li
   0.6056223900000000    0.7909763300000000    0.4085958800000000 Li
   0.9254099300000000    0.3582618600000000    0.3258476000000000 Li
   0.3231489900000000    0.4821487000000000    0.4220899600000000 Li
   0.4821487000000000    0.3231489900000000    0.9220899600000000 Li
   0.8331463700000000    0.0450702900000000    0.5671481800000000 Li
   0.0450702900000000    0.8331463700000000    0.0671481800000000 Li
   0.9549297100000000    0.1668536300000000    0.9328518200000000 Li
   0.1668536300000000    0.9549297100000000    0.4328518200000000 Li
   0.5178513000000000    0.6768510100000000    0.0779100400000000 Li
   0.6768510100000000    0.5178513000000000    0.5779100400000000 Li
   0.0745900700000000    0.6417381400000000    0.6741524000000000 Li
   0.3943776100000000    0.2090236700000000    0.5914041200000000 Li
   0.7909763300000000    0.6056223900000000    0.9085958800000000 Li
   0.3582618600000000    0.9254099300000000    0.8258476000000000 Li
   0.9309548200000000    0.7128608100000000    0.2826760600000000 Sb
   0.2871391900000000    0.0690451800000000    0.2173239400000000 Sb
   0.7128608100000000    0.9309548200000000    0.7826760600000000 Sb
   0.0690451800000000    0.2871391900000000    0.7173239400000000 Sb
   0.4540772200000000    0.5459227800000001    0.7500000000000000 S
   0.5459227800000001    0.4540772200000000    0.2500000000000000 S
