La6 B2 W2 O18
1.0
   8.7940044299999993   -0.0000005000000000    0.0000000000000000
  -4.3970017900000000    7.6158311300000001    0.0000000000000000
   0.0000000000000000    0.0000000000000000    5.5952864599999996
La B W O
6 2 2 18
direct
   0.2766493000000000    0.3596510500000000    0.7172704200000000 La
   0.6403489500000000    0.9169982500000000    0.7172704200000000 La
   0.3596510500000000    0.0830017500000000    0.2172704200000000 La
   0.7233507000000000    0.6403489500000000    0.2172704200000000 La
   0.0830017500000000    0.7233507000000000    0.7172704200000000 La
   0.9169982500000000    0.2766493000000000    0.2172704200000000 La
   0.0000000000000000    0.0000000000000000    0.3764004100000000 B
   0.0000000000000000    0.0000000000000000    0.8764004100000000 B
   0.3333330000000000    0.6666670000000000    0.2572218200000000 W
   0.6666670000000000    0.3333330000000000    0.7572218200000000 W
   0.8603890900000000    0.4793610000000000    0.9774812500000000 O
   0.6189719200000000    0.1396109100000000    0.9774812500000000 O
   0.1747511600000000    0.0450786300000000    0.8690828900000001 O
   0.7295469800000000    0.2013211000000000    0.5528236900000000 O
   0.0450786300000000    0.8703274700000000    0.3690828900000000 O
   0.8252488400000000    0.9549213700000000    0.3690828900000000 O
   0.7986789000000000    0.5282258800000000    0.5528236900000000 O
   0.4717741200000000    0.2704530200000000    0.5528236900000000 O
   0.4793610000000000    0.6189719200000000    0.4774812500000000 O
   0.1296725300000000    0.1747511600000000    0.3690828900000000 O
   0.2013211000000000    0.4717741200000000    0.0528236900000000 O
   0.8703274700000000    0.8252488400000000    0.8690828900000001 O
   0.1396109100000000    0.5206390000000000    0.4774812500000000 O
   0.9549213700000000    0.1296725300000000    0.8690828900000001 O
   0.5282258800000000    0.7295469800000000    0.0528236900000000 O
   0.2704530200000000    0.7986789000000000    0.0528236900000000 O
   0.3810280800000000    0.8603890900000000    0.4774812500000000 O
   0.5206390000000000    0.3810280800000000    0.9774812500000000 O
