Cs6 Sb10 S18
1.0
   4.5743155000000000  -12.4365475300000004    0.0037992800000000
   4.5743155000000000   12.4365475300000004    0.0037992800000000
  -2.6035402300000001    0.0000000000000000    8.8297564499999996
Cs Sb S
6 10 18
direct
   0.5796338599999999    0.4203661400000000    0.5000000000000000 Cs
   0.4203661400000000    0.5796338599999999    0.5000000000000000 Cs
   0.9828917700000001    0.5492415000000000    0.2387309300000000 Cs
   0.5492415000000000    0.9828917700000001    0.2387309300000000 Cs
   0.0171082300000000    0.4507585000000000    0.7612690700000000 Cs
   0.4507585000000000    0.0171082300000000    0.7612690700000000 Cs
   0.9615311300000000    0.7217252700000000    0.8400775600000000 Sb
   0.7217252700000000    0.9615311300000000    0.8400775600000000 Sb
   0.0384688700000000    0.2782747300000000    0.1599224400000000 Sb
   0.2782747300000000    0.0384688700000000    0.1599224400000000 Sb
   0.5762418900000000    0.4237581100000000    0.0000000000000000 Sb
   0.4237581100000000    0.5762418900000000    0.0000000000000000 Sb
   0.0762067500000000    0.9237932500000000    0.5000000000000000 Sb
   0.9237932500000000    0.0762067500000000    0.5000000000000000 Sb
   0.8804830400000000    0.8804830400000000    0.1200060800000000 Sb
   0.1195169600000000    0.1195169600000000    0.8799939200000000 Sb
   0.0003672900000000    0.6841679600000000    0.5980381000000000 S
   0.6841679600000000    0.0003672900000000    0.5980381000000000 S
   0.9996327100000000    0.3158320400000000    0.4019619000000000 S
   0.3158320400000000    0.9996327100000000    0.4019619000000000 S
   0.7529135100000000    0.4398330700000000    0.8423412900000000 S
   0.4398330700000000    0.7529135100000000    0.8423412900000000 S
   0.2470864900000000    0.5601669300000000    0.1576587100000000 S
   0.5601669300000000    0.2470864900000000    0.1576587100000000 S
   0.8725626200000000    0.8725626200000000    0.6281494300000000 S
   0.1274373800000000    0.1274373800000000    0.3718505700000000 S
   0.6336419000000000    0.6336419000000000    0.8753368200000000 S
   0.3663581000000000    0.3663581000000000    0.1246631800000000 S
   0.1918472200000000    0.8081527800000000    0.0000000000000000 S
   0.8081527800000000    0.1918472200000000    0.0000000000000000 S
   0.8474612600000000    0.6947150400000000    0.2290395600000000 S
   0.6947150400000000    0.8474612600000000    0.2290395600000000 S
   0.1525387400000000    0.3052849600000000    0.7709604400000000 S
   0.3052849600000000    0.1525387400000000    0.7709604400000000 S
