Tl4 B12 O20
1.0
   4.9743292700000001   -4.4275846799999998   -0.0217569100000000
   4.9743292700000001    4.4275846799999998   -0.0217569100000000
  -2.1129166499999998    0.0000000000000000    8.8634148499999998
Tl B O
4 12 20
direct
   0.5662699700000000    0.2682597300000000    0.5607107300000000 Tl
   0.7317402700000000    0.4337300300000000    0.9392892700000000 Tl
   0.4337300300000000    0.7317402700000000    0.4392892700000000 Tl
   0.2682597300000000    0.5662699700000000    0.0607107300000000 Tl
   0.7893049100000000    0.8088300700000000    0.7645663200000000 B
   0.1911699300000000    0.2106950900000000    0.7354336800000000 B
   0.2106950900000000    0.1911699300000000    0.2354336800000000 B
   0.8088300700000000    0.7893049100000000    0.2645663200000000 B
   0.4270588700000000    0.9287078600000001    0.8191022100000001 B
   0.0712921400000000    0.5729411300000000    0.6808977899999999 B
   0.5729411300000000    0.0712921400000000    0.1808977900000000 B
   0.9287078600000001    0.4270588700000000    0.3191022100000000 B
   0.1120459400000000    0.0350279700000000    0.9339526100000000 B
   0.9649720300000000    0.8879540600000000    0.5660473900000000 B
   0.8879540600000000    0.9649720300000000    0.0660473900000000 B
   0.0350279700000000    0.1120459400000000    0.4339526100000000 B
   0.9077115200000000    0.9347802700000000    0.9005415700000000 O
   0.0652197300000000    0.0922884800000000    0.5994584300000000 O
   0.0922884800000000    0.0652197300000000    0.0994584300000000 O
   0.9347802700000000    0.9077115200000000    0.4005415700000000 O
   0.7818354100000000    0.9012732300000000    0.6299393500000000 O
   0.0987267700000000    0.2181645900000000    0.8700606500000000 O
   0.2181645900000000    0.0987267700000000    0.3700606500000000 O
   0.9012732300000000    0.7818354100000000    0.1299393500000000 O
   0.3980794500000000    0.1013268300000000    0.7518381000000000 O
   0.8986731700000000    0.6019205500000000    0.7481619000000000 O
   0.6019205500000000    0.8986731700000000    0.2481619000000000 O
   0.1013268300000000    0.3980794500000000    0.2518381000000000 O
   0.5913948500000000    0.7877454100000000    0.8025314300000000 O
   0.2122545900000000    0.4086051500000000    0.6974685700000000 O
   0.4086051500000000    0.2122545900000000    0.1974685700000000 O
   0.7877454100000000    0.5913948500000000    0.3025314300000000 O
   0.2848501200000000    0.8919945100000000    0.9024967200000000 O
   0.1080054900000000    0.7151498800000000    0.5975032800000000 O
   0.7151498800000000    0.1080054900000000    0.0975032800000000 O
   0.8919945100000000    0.2848501200000000    0.4024967200000000 O
