Sr4 La4 Cu4 S12
1.0
  11.0623116300000000    0.0000000000000000    0.0000000000000000
   0.0000000000000000    4.0743927099999997    0.0000000000000000
   0.0000000000000000    0.0000000000000000   11.4447938400000009
Sr La Cu S
4 4 4 12
direct
   0.3192801900000000    0.2500000000000000    0.9925528400000000 Sr
   0.8192801900000000    0.2500000000000000    0.5074471600000000 Sr
   0.6807198100000000    0.7500000000000000    0.0074471600000000 Sr
   0.1807198100000000    0.7500000000000000    0.4925528400000000 Sr
   0.4884044200000000    0.2500000000000000    0.3180695300000000 La
   0.9884044200000000    0.2500000000000000    0.1819304700000000 La
   0.5115955800000000    0.7500000000000000    0.6819304700000000 La
   0.0115955800000000    0.7500000000000000    0.8180695300000000 La
   0.2460433900000000    0.2500000000000000    0.7105538500000000 Cu
   0.7460433900000000    0.2500000000000000    0.7894461500000000 Cu
   0.7539566100000000    0.7500000000000000    0.2894461500000000 Cu
   0.2539566100000000    0.7500000000000000    0.2105538500000000 Cu
   0.2233737500000000    0.2500000000000000    0.3031605900000000 S
   0.7233737500000000    0.2500000000000000    0.1968394100000000 S
   0.7766262500000000    0.7500000000000000    0.6968394100000000 S
   0.2766262500000000    0.7500000000000000    0.8031605900000000 S
   0.0510218600000000    0.2500000000000000    0.6413837000000000 S
   0.5510218600000000    0.2500000000000000    0.8586163000000000 S
   0.9489781400000000    0.7500000000000000    0.3586163000000000 S
   0.4489781400000000    0.7500000000000000    0.1413837000000000 S
   0.3829212400000000    0.2500000000000000    0.5569416100000000 S
   0.8829212400000001    0.2500000000000000    0.9430583900000000 S
   0.6170787599999999    0.7500000000000000    0.4430583900000000 S
   0.1170787600000000    0.7500000000000000    0.0569416100000000 S
