Na4 P4 Pb2 O14
1.0
   5.4842610000000001    0.0000000000000000    0.0000000000000000
  -2.4022340000000000    6.4806100000000004    0.0000000000000000
  -0.8555290000000000   -3.0944140000000000    8.8059379999999994
Na P Pb O
4 4 2 14
direct
   0.3520250000000000    0.6199200000000000    0.7684000000000000 Na
   0.0687650000000000    0.2781700000000000    0.0039850000000000 Na
   0.9312350000000000    0.7218300000000000    0.9960150000000000 Na
   0.6479750000000000    0.3800800000000000    0.2316000000000000 Na
   0.4864050000000000    0.8549340000000000    0.1528860000000000 P
   0.7387680000000000    0.3620020000000000    0.6360700000000000 P
   0.2612320000000000    0.6379980000000000    0.3639300000000000 P
   0.5135950000000000    0.1450660000000000    0.8471140000000000 P
   0.8643420000000001    0.8815960000000000    0.6298060000000000 Pb
   0.1356580000000000    0.1184040000000000    0.3701940000000000 Pb
   0.3644200000000000    0.6821210000000000    0.5308619999999999 O
   0.4910100000000000    0.2034150000000000    0.6889180000000000 O
   0.0248170000000000    0.6988040000000000    0.3308810000000000 O
   0.2214210000000000    0.0373630000000000    0.8535060000000000 O
   0.3448350000000000    0.0155120000000000    0.1745480000000000 O
   0.6355800000000000    0.3178790000000000    0.4691380000000000 O
   0.7865200000000000    0.5960320000000000    0.7370679999999999 O
   0.3247810000000000    0.6461070000000000    0.0214600000000000 O
   0.5089900000000001    0.7965850000000000    0.3110820000000000 O
   0.6752190000000000    0.3538930000000000    0.9785400000000000 O
   0.9751830000000000    0.3011960000000000    0.6691190000000000 O
   0.7785790000000000    0.9626370000000000    0.1464940000000000 O
   0.2134800000000000    0.4039680000000000    0.2629320000000000 O
   0.6551650000000000    0.9844880000000000    0.8254520000000000 O
