Ca3 Ta1 Ga3 Si2 O14
1.0
   8.0996590800000003    0.0000000000000000    0.0000000000000000
  -4.0498295400000002    7.0145101500000004    0.0000000000000000
   0.0000000000000000    0.0000000000000000    4.9801428000000003
Ca Ta Ga Si O
3 1 3 2 14
direct
   1.0000000000000000    0.4234803200000000    0.0000000000000000 Ca
   0.5765196800000000    0.5765196800000000    0.0000000000000000 Ca
   0.4234803200000000    0.0000000000000000    0.0000000000000000 Ca
   0.0000000000000000    0.0000000000000000    0.0000000000000000 Ta
   0.2552393000000000    0.2552393000000000    0.5000000000000000 Ga
   0.7447607000000001    0.0000000000000000    0.5000000000000000 Ga
   1.0000000000000000    0.7447607000000001    0.5000000000000000 Ga
   0.3333330000000000    0.6666670000000000    0.5514598000000001 Si
   0.6666670000000000    0.3333330000000000    0.4485402000000000 Si
   0.0840875800000000    0.2267496400000000    0.2365554200000000 O
   0.7732503600000000    0.8573369500000000    0.2365554200000000 O
   0.1426630500000000    0.9159124199999999    0.2365554200000000 O
   0.8573369500000000    0.7732503600000000    0.7634445800000000 O
   0.9159124199999999    0.1426630500000000    0.7634445800000000 O
   0.2267496400000000    0.0840875800000000    0.7634445800000000 O
   0.3225868100000000    0.4764389300000000    0.6936602900000000 O
   0.5235610700000000    0.8461478800000000    0.6936602900000000 O
   0.1538521200000000    0.6774131900000000    0.6936602900000000 O
   0.3333330000000000    0.6666670000000000    0.2285821300000000 O
   0.6666670000000000    0.3333330000000000    0.7714178700000000 O
   0.4764389300000000    0.3225868100000000    0.3063397100000000 O
   0.6774131900000000    0.1538521200000000    0.3063397100000000 O
   0.8461478800000000    0.5235610700000000    0.3063397100000000 O
