Rb4 Se4 O14
1.0
   6.6235942000000003   -3.9034829100000001    0.0349683800000000
   6.6235942000000003    3.9034829100000001    0.0349683800000000
  -0.4619944300000000    0.0000000000000000    7.7827275599999997
Rb Se O
4 4 14
direct
   0.4974143600000000    0.7931348600000000    0.3593351000000000 Rb
   0.2068651400000000    0.5025856399999999    0.1406649000000000 Rb
   0.5025856399999999    0.2068651400000000    0.6406649000000000 Rb
   0.7931348600000000    0.4974143600000000    0.8593351000000000 Rb
   0.9254877700000000    0.2833610400000000    0.3641571100000000 Se
   0.7166389600000000    0.0745122300000000    0.1358428900000000 Se
   0.0745122300000000    0.7166389600000000    0.6358428900000000 Se
   0.2833610400000000    0.9254877700000000    0.8641571100000000 Se
   0.7586596000000000    0.3527897000000000    0.5130670899999999 O
   0.6472103000000000    0.2413404000000000    0.9869329100000001 O
   0.2413404000000000    0.6472103000000000    0.4869329100000000 O
   0.3527897000000000    0.7586596000000000    0.0130670900000000 O
   0.8601328700000000    0.4565670600000000    0.2216419600000000 O
   0.5434329400000000    0.1398671300000000    0.2783580400000000 O
   0.1398671300000000    0.5434329400000000    0.7783580400000000 O
   0.4565670600000000    0.8601328700000000    0.7216419600000000 O
   0.1567006300000000    0.1883931100000000    0.4323794900000000 O
   0.8116068900000000    0.8432993700000000    0.0676205100000000 O
   0.8432993700000000    0.8116068900000000    0.5676205100000000 O
   0.1883931100000000    0.1567006300000000    0.9323794900000000 O
   0.9336754900000001    0.0663245100000000    0.2500000000000000 O
   0.0663245100000000    0.9336754900000001    0.7500000000000000 O
