Ca2 La4 S8
1.0
  -4.2726024999999996    4.2726024999999996    4.2952961399999996
   4.2726024999999996   -4.2726024999999996    4.2952961399999996
   4.2726024999999996    4.2726024999999996   -4.2952961399999996
Ca La S
2 4 8
direct
   0.7500000000000000    0.2500000000000000    0.5000000000000000 Ca
   0.0000000000000000    0.0000000000000000    0.0000000000000000 Ca
   0.5043443300000000    0.1250000000000000    0.8793443300000000 La
   0.8750000000000000    0.7543443300000000    0.3793443300000000 La
   0.2456556700000000    0.6250000000000000    0.1206556700000000 La
   0.3750000000000000    0.4956556700000000    0.6206556700000000 La
   0.9759592000000000    0.3731399100000000    0.2479420600000000 S
   0.4780171400000000    0.3751978600000000    0.2520579400000000 S
   0.6268600900000000    0.8748021400000000    0.6028192800000000 S
   0.1231399100000000    0.2259592000000000    0.7479420600000000 S
   0.7740408000000000    0.5219828600000000    0.8971807200000000 S
   0.6248021400000000    0.8768600900000000    0.1028192800000000 S
   0.2719828600000000    0.0240408000000000    0.3971807200000000 S
   0.1251978600000000    0.7280171400000000    0.7520579400000000 S
