Nb4 Sb4 O16
1.0
   5.5684480699999996    0.0000000000000000    0.0000000000000000
   0.0000000000000000    4.9711898000000003    0.0000000000000000
   0.0000000000000000    0.0000000000000000   11.8954214799999995
Nb Sb O
4 4 16
direct
   0.6236220300000000    0.5080815900000000    0.4994041500000000 Nb
   0.3763779700000000    0.4919184100000000    0.9994041500000000 Nb
   0.1236220300000000    0.9919184100000000    0.4994041500000000 Nb
   0.8763779700000000    0.0080815900000000    0.9994041500000000 Nb
   0.9721278000000000    0.4523788300000000    0.2508987400000000 Sb
   0.0278722000000000    0.5476211700000000    0.7508987400000000 Sb
   0.4721278000000000    0.0476211700000000    0.2508987400000000 Sb
   0.5278722000000000    0.9523788300000000    0.7508987400000000 Sb
   0.8657350000000000    0.2176979400000000    0.5462415000000000 O
   0.1342650000000000    0.7823020600000000    0.0462415000000000 O
   0.3657350000000000    0.2823020600000000    0.5462415000000000 O
   0.6342650000000000    0.7176979400000000    0.0462415000000000 O
   0.6518097500000000    0.3346231100000000    0.3390208100000000 O
   0.3481902500000000    0.6653768900000000    0.8390208100000000 O
   0.1518097500000000    0.1653768900000000    0.3390208100000000 O
   0.8481902500000000    0.8346231100000000    0.8390208100000000 O
   0.8119755600000000    0.1676063800000000    0.1513344000000000 O
   0.1880244400000000    0.8323936199999999    0.6513344000000000 O
   0.3119755600000000    0.3323936200000000    0.1513344000000000 O
   0.6880244400000000    0.6676063800000001    0.6513344000000000 O
   0.5694586600000000    0.1990189200000000    0.9382003900000000 O
   0.4305413400000000    0.8009810800000000    0.4382003900000000 O
   0.0694586600000000    0.3009810800000000    0.9382003900000000 O
   0.9305413400000000    0.6990189200000000    0.4382003900000000 O
