Tl2 Bi2 P4 S12
1.0
   6.5167206699999998    0.0000000000000000   -0.0000694900000000
   0.0000000000000000    7.2991737499999996    0.0000000000000000
  -0.2381221100000000    0.0000000000000000    9.7525066099999993
Tl Bi P S
2 2 4 12
direct
   0.1905897300000000    0.8524854800000000    0.9975433500000001 Tl
   0.8094102700000000    0.3524854800000000    0.0024566500000000 Tl
   0.7131599600000000    0.1138704300000000    0.5125945800000000 Bi
   0.2868400400000000    0.6138704300000000    0.4874054200000000 Bi
   0.8145160800000000    0.6321151500000000    0.6739454499999999 P
   0.3056777200000000    0.3618509400000000    0.2001538600000000 P
   0.6943222800000000    0.8618509400000000    0.7998461400000000 P
   0.1854839200000000    0.1321151500000000    0.3260545500000000 P
   0.3367479400000000    0.2764133000000000    0.0095927200000000 S
   0.6632520600000000    0.7764133000000000    0.9904072800000000 S
   0.8535898200000001    0.7488764900000000    0.4837737000000000 S
   0.0899302400000000    0.5582149300000000    0.2292468000000000 S
   0.5633559900000000    0.4408058100000000    0.3115289500000000 S
   0.4155754100000000    0.9400473800000000    0.3247533000000000 S
   0.0818484000000000    0.5441300800000000    0.7566972300000000 S
   0.4366440100000000    0.9408058100000000    0.6884710500000000 S
   0.1464101800000000    0.2488764900000000    0.5162263000000000 S
   0.9181516000000000    0.0441300800000000    0.2433027700000000 S
   0.5844245900000000    0.4400473800000000    0.6752467000000000 S
   0.9100697599999999    0.0582149300000000    0.7707532000000000 S
