La4 B4 O12
1.0
   5.7902991300000002    0.0000000000000000    0.0000000000000000
   0.0000000000000000    5.0885513700000002    0.0000000000000000
   0.0000000000000000    0.0000000000000000    8.2158483400000009
La B O
4 4 12
direct
   0.7565179300000000    0.2500000000000000    0.9155008600000000 La
   0.2434820700000000    0.7500000000000000    0.0844991400000000 La
   0.2565179300000000    0.2500000000000000    0.5844991400000000 La
   0.7434820700000000    0.7500000000000000    0.4155008600000000 La
   0.9167477500000000    0.2500000000000000    0.2605135900000000 B
   0.0832522500000000    0.7500000000000000    0.7394864100000000 B
   0.4167477500000000    0.2500000000000000    0.2394864100000000 B
   0.5832522500000000    0.7500000000000000    0.7605135900000000 B
   0.5971617900000000    0.7500000000000000    0.9275817900000000 O
   0.4028382100000000    0.2500000000000000    0.0724182100000000 O
   0.0971617900000000    0.7500000000000000    0.5724182100000000 O
   0.9028382100000000    0.2500000000000000    0.4275817900000000 O
   0.5878694900000000    0.5160191300000000    0.6755583100000000 O
   0.4121305100000000    0.0160191300000000    0.3244416900000000 O
   0.0878694900000000    0.9839808700000000    0.8244416900000000 O
   0.9121305100000000    0.4839808700000000    0.1755583100000000 O
   0.4121305100000000    0.4839808700000000    0.3244416900000000 O
   0.5878694900000000    0.9839808700000000    0.6755583100000000 O
   0.9121305100000000    0.0160191300000000    0.1755583100000000 O
   0.0878694900000000    0.5160191300000000    0.8244416900000000 O
