Te4 P4 O18
1.0
   2.6895796600000001   -6.8401703100000004   -0.0000085700000000
   2.6895796600000001    6.8401703100000004   -0.0000085700000000
  -2.2186631700000001    0.0000000000000000    9.3698863600000006
Te P O
4 4 18
direct
   0.0520922700000000    0.6285670400000000    0.5663454800000000 Te
   0.6285670400000000    0.0520922700000000    0.0663454800000000 Te
   0.5412714000000000    0.6056048600000000    0.8015970100000001 Te
   0.6056048600000000    0.5412714000000000    0.3015970100000000 Te
   0.1950560500000000    0.0021553200000000    0.8583179200000000 P
   0.0021553200000000    0.1950560500000000    0.3583179200000000 P
   0.8532345900000000    0.2236625700000000    0.7684929200000000 P
   0.2236625700000000    0.8532345900000000    0.2684929200000000 P
   0.2928759600000000    0.8865527300000000    0.9087601700000000 O
   0.8865527300000000    0.2928759600000000    0.4087601700000000 O
   0.7738436800000000    0.3456632800000000    0.6984617000000000 O
   0.3456632800000000    0.7738436800000000    0.1984617000000000 O
   0.2803209900000000    0.8960601500000001    0.4329969200000000 O
   0.8960601500000001    0.2803209900000000    0.9329969200000000 O
   0.1195321800000000    0.9317449200000000    0.6926963000000000 O
   0.9317449200000000    0.1195321800000000    0.1926963000000000 O
   0.7269589500000000    0.5099634700000000    0.4737579300000000 O
   0.5099634700000000    0.7269589500000000    0.9737579300000000 O
   0.1217539700000000    0.3560076700000000    0.7254903300000000 O
   0.3560076700000000    0.1217539700000000    0.2254903300000000 O
   0.4264049000000000    0.3164405400000000    0.9165373000000000 O
   0.3164405400000000    0.4264049000000000    0.4165373000000000 O
   0.9394567800000000    0.8746457200000000    0.9163215000000000 O
   0.8746457200000000    0.9394567800000000    0.4163215000000000 O
   0.6196591600000000    0.9089108500000000    0.7112055200000000 O
   0.9089108500000000    0.6196591600000000    0.2112055200000000 O
