Ba2 Zr2 B4 O12
1.0
   2.5888971999999999    1.4946998300000001   11.3868517800000006
  -2.5888971999999999    1.4946998300000001   11.3868517800000006
   0.0000000000000000   -2.9894006499999999   11.3868517800000006
Ba Zr B O
2 2 4 12
direct
   0.7500000000000000    0.7500000000000000    0.7500000000000000 Ba
   0.2500000000000000    0.2500000000000000    0.2500000000000000 Ba
   0.0000000000000000    0.0000000000000000    0.0000000000000000 Zr
   0.5000000000000000    0.5000000000000000    0.5000000000000000 Zr
   0.6308630400000000    0.6308630400000000    0.6308630400000000 B
   0.8691369600000000    0.8691369600000000    0.8691369600000000 B
   0.3691369600000000    0.3691369600000000    0.3691369600000000 B
   0.1308630400000000    0.1308630400000000    0.1308630400000000 B
   0.3434241000000000    0.8318365400000000    0.2149167900000000 O
   0.3318365400000000    0.8434241000000000    0.7149167900000000 O
   0.1565759000000000    0.2850832100000000    0.6681634600000000 O
   0.7149167900000000    0.3318365400000000    0.8434241000000000 O
   0.6565759000000000    0.1681634600000000    0.7850832100000000 O
   0.2850832100000000    0.6681634600000000    0.1565759000000000 O
   0.6681634600000000    0.1565759000000000    0.2850832100000000 O
   0.8318365400000000    0.2149167900000000    0.3434241000000000 O
   0.1681634600000000    0.7850832100000000    0.6565759000000000 O
   0.7850832100000000    0.6565759000000000    0.1681634600000000 O
   0.2149167900000000    0.3434241000000000    0.8318365400000000 O
   0.8434241000000000    0.7149167900000000    0.3318365400000000 O
