La8 Te4 O24
1.0
   5.5025601699999998    0.0000000000000000    0.0000000000000000
   0.0000000000000000    9.4300763399999994    0.0000000000000000
   0.0000000000000000    0.0000000000000000   10.3424154099999992
La Te O
8 4 24
direct
   0.5264946600000000    0.1042552900000000    0.9570727700000000 La
   0.0264946600000000    0.3957447100000000    0.0429272300000000 La
   0.4735053400000000    0.6042552900000000    0.5429272300000000 La
   0.9735053400000000    0.8957447100000000    0.4570727700000000 La
   0.5297635300000000    0.2179197200000000    0.3598396800000000 La
   0.0297635300000000    0.2820802800000000    0.6401603200000000 La
   0.4702364700000000    0.7179197200000000    0.1401603200000000 La
   0.9702364700000000    0.7820802800000000    0.8598396800000000 La
   0.4593328900000000    0.9959604900000000    0.6408491800000000 Te
   0.9593328900000000    0.5040395100000000    0.3591508200000000 Te
   0.5406671100000000    0.4959604900000000    0.8591508200000000 Te
   0.0406671100000000    0.0040395100000000    0.1408491800000000 Te
   0.3021591400000000    0.1380101100000000    0.1752936300000000 O
   0.8021591400000000    0.3619898900000000    0.8247063700000000 O
   0.6978408600000000    0.6380101100000000    0.3247063700000000 O
   0.1978408600000000    0.8619898900000000    0.6752936300000000 O
   0.7194562100000000    0.1116232200000000    0.5634153700000000 O
   0.2194562100000000    0.3883767800000000    0.4365846300000000 O
   0.2805437900000000    0.6116232200000000    0.9365846300000000 O
   0.7805437900000000    0.8883767800000000    0.0634153700000000 O
   0.6766434400000000    0.6360674400000000    0.7450451900000000 O
   0.1766434400000000    0.8639325600000000    0.2549548100000000 O
   0.3233565600000000    0.1360674400000000    0.7549548100000000 O
   0.8233565600000000    0.3639325600000000    0.2450451900000000 O
   0.6695248000000000    0.9463345000000000    0.7820404399999999 O
   0.1695248000000000    0.5536655000000000    0.2179595600000000 O
   0.3304752000000000    0.4463345000000000    0.7179595600000001 O
   0.8304752000000000    0.0536655000000000    0.2820404400000000 O
   0.2519573900000000    0.0864120800000000    0.5088272000000000 O
   0.7519573899999999    0.4135879200000000    0.4911728000000000 O
   0.7480426100000001    0.5864120800000000    0.9911728000000000 O
   0.2480426100000000    0.9135879200000000    0.0088272000000000 O
   0.0676338100000000    0.6479649900000000    0.4801971200000000 O
   0.5676338100000000    0.8520350100000000    0.5198028800000000 O
   0.9323661900000000    0.1479649900000000    0.0198028800000000 O
   0.4323661900000000    0.3520350100000000    0.9801971200000000 O
