Mg2 P2 O7
1.0
   3.2236014700000002   -4.1514941399999996    0.0088479900000000
   3.2236014700000002    4.1514941399999996    0.0088479900000000
  -1.0596182700000001    0.0000000000000000    4.3842189200000004
Mg P O
2 2 7
direct
   0.3119507200000000    0.6880492800000000    0.5000000000000000 Mg
   0.6880492800000000    0.3119507200000000    0.5000000000000000 Mg
   0.7787893700000000    0.7787893700000000    0.0938792000000000 P
   0.2212106300000000    0.2212106300000000    0.9061207999999999 P
   0.6193320000000000    0.9256741100000000    0.2805457800000000 O
   0.0743258900000000    0.3806680000000000    0.7194542200000000 O
   0.3806680000000000    0.0743258900000000    0.7194542200000000 O
   0.9256741100000000    0.6193320000000000    0.2805457800000000 O
   0.0000000000000000    0.0000000000000000    0.0000000000000000 O
   0.6173677300000000    0.6173677300000000    0.7859351500000000 O
   0.3826322700000000    0.3826322700000000    0.2140648500000000 O
