Ba2 Zn1 Mo1 O6
1.0
   0.0000000000000000    4.0346818899999999    4.0346818899999999
   4.0346818899999999    0.0000000000000000    4.0346818899999999
   4.0346818899999999    4.0346818899999999    0.0000000000000000
Ba Zn Mo O
2 1 1 6
direct
   0.2500000000000000    0.2500000000000000    0.2500000000000000 Ba
   0.7500000000000000    0.7500000000000000    0.7500000000000000 Ba
   0.5000000000000000    0.5000000000000000    0.5000000000000000 Zn
   0.0000000000000000    0.0000000000000000    0.0000000000000000 Mo
   0.7593830100000000    0.2406169900000000    0.2406169900000000 O
   0.2406169900000000    0.7593830100000000    0.7593830100000000 O
   0.2406169900000000    0.7593830100000000    0.2406169900000000 O
   0.7593830100000000    0.2406169900000000    0.7593830100000000 O
   0.2406169900000000    0.2406169900000000    0.7593830100000000 O
   0.7593830100000000    0.7593830100000000    0.2406169900000000 O
