Ca3 P2 O8
1.0
   2.6159067999999999    1.5102945600000000    6.1805607000000000
  -2.6159067999999999    1.5102945600000000    6.1805607000000000
   0.0000000000000000   -3.0205891199999999    6.1805607000000000
Ca P O
3 2 8
direct
   0.0000000000000000    0.0000000000000000    0.0000000000000000 Ca
   0.2029479800000000    0.2029479800000000    0.2029479800000000 Ca
   0.7970520200000000    0.7970520200000000    0.7970520200000000 Ca
   0.4051306200000000    0.4051306200000000    0.4051306200000000 P
   0.5948693800000000    0.5948693800000000    0.5948693800000000 P
   0.7282884200000000    0.2437337700000000    0.7282884200000000 O
   0.7282884200000000    0.7282884200000000    0.2437337700000000 O
   0.2437337700000000    0.7282884200000000    0.7282884200000000 O
   0.7562662300000000    0.2717115800000000    0.2717115800000000 O
   0.2717115800000000    0.7562662300000000    0.2717115800000000 O
   0.3225116600000000    0.3225116600000000    0.3225116600000000 O
   0.6774883400000000    0.6774883400000000    0.6774883400000000 O
   0.2717115800000000    0.2717115800000000    0.7562662300000000 O
