Li4 Ga4 S8
1.0
   6.5099037900000001    0.0000000000000000    0.0000000000000000
   0.0000000000000000    7.8124634899999998    0.0000000000000000
   0.0000000000000000    0.0000000000000000    6.2143487500000001
Li Ga S
4 4 8
direct
   0.9134817800000000    0.6215783100000000    0.1188216200000000 Li
   0.0865182200000000    0.3784216900000000    0.6188216200000000 Li
   0.5865182200000000    0.1215783100000000    0.6188216200000000 Li
   0.4134817800000000    0.8784216900000000    0.1188216200000000 Li
   0.5737500500000000    0.6259141900000000    0.6225234200000000 Ga
   0.4262499500000000    0.3740858100000000    0.1225234200000000 Ga
   0.9262499500000000    0.1259141900000000    0.1225234200000000 Ga
   0.0737500500000000    0.8740858100000000    0.6225234200000000 Ga
   0.9062445300000000    0.6351712800000000    0.5066581999999999 S
   0.0937554700000000    0.3648287200000000    0.0066582000000000 S
   0.5937554700000000    0.1351712800000000    0.0066582000000000 S
   0.4062445300000000    0.8648287200000000    0.5066581999999999 S
   0.0667869700000000    0.8819210900000000    0.9899967600000000 S
   0.9332130300000000    0.1180789100000000    0.4899967600000000 S
   0.4332130300000000    0.3819210900000000    0.4899967600000000 S
   0.5667869700000000    0.6180789100000000    0.9899967600000000 S
