Rb2 Be4 P6 O20
1.0
   6.1253414900000003   -4.3589276799999999   -0.0268259600000000
   6.1253414900000003    4.3589276799999999   -0.0268259600000000
  -4.1435443999999997    0.0000000000000000    7.9913019800000002
Rb Be P O
2 4 6 20
direct
   0.3015000000000000    0.6985000000000000    0.2500000000000000 Rb
   0.6985000000000000    0.3015000000000000    0.7500000000000000 Rb
   0.3004449900000000    0.2129042800000000    0.9375035200000000 Be
   0.6995550100000000    0.7870957200000001    0.0624964800000000 Be
   0.7870957200000001    0.6995550100000000    0.5624964800000000 Be
   0.2129042800000000    0.3004449900000000    0.4375035200000000 Be
   0.1332110400000000    0.5025473499999999    0.7533373799999999 P
   0.5025473499999999    0.1332110400000000    0.2533373800000000 P
   0.8667889600000001    0.4974526500000000    0.2466626200000000 P
   0.8821612900000000    0.1178387100000000    0.2500000000000000 P
   0.1178387100000000    0.8821612900000000    0.7500000000000000 P
   0.4974526500000000    0.8667889600000001    0.7466626200000001 P
   0.3967317100000000    0.2633702700000000    0.1375351900000000 O
   0.6032682900000000    0.7366297300000000    0.8624648100000000 O
   0.7366297300000000    0.6032682900000000    0.3624648100000000 O
   0.0863764400000000    0.4649403800000000    0.3373075700000000 O
   0.2762439300000000    0.8188224700000000    0.6512483100000001 O
   0.9187463400000000    0.8677418700000000    0.6240460200000000 O
   0.1811775300000000    0.7237560700000000    0.8487516899999999 O
   0.8084392000000000    0.5792307799999999    0.1009887500000000 O
   0.2633702700000000    0.3967317100000000    0.6375351900000000 O
   0.7237560700000000    0.1811775300000000    0.3487516900000000 O
   0.4649403800000000    0.0863764400000000    0.8373075700000000 O
   0.1322581300000000    0.0812536600000000    0.8759539800000000 O
   0.5350596200000000    0.9136235600000000    0.1626924300000000 O
   0.9136235600000000    0.5350596200000000    0.6626924300000000 O
   0.4207692200000000    0.1915608000000000    0.3990112500000000 O
   0.0812536600000000    0.1322581300000000    0.3759539800000000 O
   0.8188224700000000    0.2762439300000000    0.1512483100000000 O
   0.5792307799999999    0.8084392000000000    0.6009887500000000 O
   0.1915608000000000    0.4207692200000000    0.8990112500000000 O
   0.8677418700000000    0.9187463400000000    0.1240460200000000 O
