Na8 W2 N4 O4
1.0
   5.8016351000000004    0.0160079300000000   -0.0034527700000000
   2.0418777600000002    5.4649821200000002    0.0115204900000000
   2.8251115200000001    0.0783598800000000    8.3653747400000000
Na W N O
8 2 4 4
direct
   0.2415758800000000    0.7631454400000000    0.9840672100000000 Na
   0.7584241200000000    0.2368545600000000    0.0159327900000000 Na
   0.0555303700000000    0.7583744500000000    0.4042338300000000 Na
   0.9444696299999999    0.2416255500000000    0.5957661700000000 Na
   0.4787671900000000    0.7415499800000001    0.5544359800000001 Na
   0.5212328100000000    0.2584500200000000    0.4455640200000000 Na
   0.6137855500000000    0.7229054100000000    0.1866928800000000 Na
   0.3862144500000000    0.2770945900000000    0.8133071200000001 Na
   0.8400010000000000    0.7176645200000000    0.7650104200000000 W
   0.1599990000000000    0.2823354800000000    0.2349895800000000 W
   0.2973750300000000    0.0375898200000000    0.3611139800000000 N
   0.1585503800000000    0.5415652900000000    0.6446194200000001 N
   0.8414496200000000    0.4584347100000000    0.3553805800000000 N
   0.7026249700000000    0.9624101800000000    0.6388860200000001 N
   0.6382128800000000    0.5103522600000000    0.8164195000000000 O
   0.1498356600000000    0.1573182400000000    0.0510500500000000 O
   0.3617871200000000    0.4896477400000000    0.1835805000000000 O
   0.8501643400000000    0.8426817599999999    0.9489499500000000 O
