Mg2 Zn4 As4 O16
1.0
   5.2715594299999999    0.0000000000000000    0.0113497500000000
   0.0000000000000000    8.3483483700000001    0.0000000000000000
  -4.3609689899999999    0.0000000000000000    7.6803725800000002
Mg Zn As O
2 4 4 16
direct
   0.0000000000000000    0.0000000000000000    0.0000000000000000 Mg
   0.0000000000000000    0.5000000000000000    0.5000000000000000 Mg
   0.0110015200000000    0.3609246700000000    0.1076170900000000 Zn
   0.9889984800000000    0.6390753300000001    0.8923829100000000 Zn
   0.9889984800000000    0.8609246699999999    0.3923829100000000 Zn
   0.0110015200000000    0.1390753300000000    0.6076170900000000 Zn
   0.3535734600000000    0.6956660099999999    0.3058477800000000 As
   0.6464265400000000    0.3043339900000000    0.6941522200000000 As
   0.6464265400000000    0.1956660100000000    0.1941522200000000 As
   0.3535734600000000    0.8043339900000001    0.8058477800000000 As
   0.2795538600000000    0.6410938600000000    0.4656946300000000 O
   0.7204461400000000    0.3589061400000000    0.5343053700000000 O
   0.7204461400000000    0.1410938600000000    0.0343053700000000 O
   0.2795538600000000    0.8589061400000000    0.9656946300000000 O
   0.2097352400000000    0.5638414200000000    0.1347573000000000 O
   0.7902647600000000    0.4361585800000000    0.8652427000000000 O
   0.7902647600000000    0.0638414200000000    0.3652427000000000 O
   0.2097352400000000    0.9361585800000000    0.6347573000000000 O
   0.1680252400000000    0.8757608900000000    0.2432918100000000 O
   0.8319747600000000    0.1242391100000000    0.7567081900000000 O
   0.8319747600000000    0.3757608900000000    0.2567081900000000 O
   0.1680252400000000    0.6242391100000000    0.7432918100000000 O
   0.7198185100000000    0.6998308500000000    0.3819291200000000 O
   0.2801814900000000    0.3001691500000000    0.6180708800000000 O
   0.2801814900000000    0.1998308500000000    0.1180708800000000 O
   0.7198185100000000    0.8001691500000000    0.8819291200000000 O
