Na8 Se4 O12
1.0
   4.8093959999999996    0.0000000000000000    0.0000000000000000
   0.0000000000000000    9.8950929999999993    0.0000000000000000
  -0.0786190000000000    0.0000000000000000    6.7516040000000004
Na Se O
8 4 12
direct
   0.7403920000000001    0.5864800000000000    0.1464900000000000 Na
   0.2440970000000000    0.7537880000000000    0.9054550000000000 Na
   0.2440970000000000    0.7462120000000000    0.4054550000000000 Na
   0.7559030000000000    0.2462120000000000    0.0945450000000000 Na
   0.2596080000000000    0.4135200000000000    0.8535100000000000 Na
   0.7403920000000001    0.9135200000000000    0.6464900000000000 Na
   0.2596080000000000    0.0864800000000000    0.3535100000000000 Na
   0.7559030000000000    0.2537880000000000    0.5945450000000000 Na
   0.2212970000000000    0.0841020000000000    0.8168800000000001 Se
   0.7787030000000000    0.5841020000000000    0.6831199999999999 Se
   0.7787030000000000    0.9158980000000000    0.1831200000000000 Se
   0.2212970000000000    0.4158980000000000    0.3168800000000000 Se
   0.8663430000000000    0.4019110000000000    0.3419760000000000 O
   0.1336570000000000    0.9019110000000000    0.1580240000000000 O
   0.1336570000000000    0.5980890000000000    0.6580240000000001 O
   0.8663430000000000    0.0980890000000000    0.8419759999999999 O
   0.2768810000000000    0.2867320000000000    0.1479500000000000 O
   0.7231190000000000    0.7867320000000000    0.3520500000000000 O
   0.7231190000000000    0.7132680000000000    0.8520500000000000 O
   0.2768810000000000    0.2132680000000000    0.6479500000000000 O
   0.2478720000000000    0.5583540000000000    0.1686930000000000 O
   0.2478720000000000    0.9416460000000000    0.6686930000000000 O
   0.7521280000000000    0.4416460000000000    0.8313070000000000 O
   0.7521280000000000    0.0583540000000000    0.3313070000000000 O
