Rb4 Li2 As2 O8
1.0
   2.9029276099999999   -5.8754544600000003    0.0000000000000000
   2.9029276099999999    5.8754544600000003    0.0000000000000000
   0.0000000000000000    0.0000000000000000    7.8479847700000001
Rb Li As O
4 2 2 8
direct
   0.9419755399999999    0.0580244600000000    0.8493932500000000 Rb
   0.0580244600000000    0.9419755399999999    0.3493932500000000 Rb
   0.3976010200000000    0.6023989800000000    0.4969444800000000 Rb
   0.6023989800000000    0.3976010200000000    0.9969444800000000 Rb
   0.2035724400000000    0.7964275600000000    0.7690032000000000 Li
   0.7964275600000000    0.2035724400000000    0.2690032000000000 Li
   0.3122295600000000    0.6877704400000000    0.0556166100000000 As
   0.6877704400000000    0.3122295600000000    0.5556166100000000 As
   0.1198543700000000    0.4010575800000000    0.1613007000000000 O
   0.8801456300000000    0.5989424200000000    0.6613007000000000 O
   0.3669769100000000    0.6330230900000000    0.8517627500000000 O
   0.6330230900000000    0.3669769100000000    0.3517627500000000 O
   0.5989424200000000    0.8801456300000000    0.1613007000000000 O
   0.4010575800000000    0.1198543700000000    0.6613007000000000 O
   0.8332230200000000    0.1667769800000000    0.5255783000000001 O
   0.1667769800000000    0.8332230200000000    0.0255783000000000 O
