Ca2 Al2 B6 O14
1.0
   3.9733555100000002   -5.8641935500000004    0.0000000000000000
   3.9733555100000002    5.8641935500000004    0.0000000000000000
   0.0000000000000000    0.0000000000000000    4.3750189700000002
Ca Al B O
2 2 6 14
direct
   0.0000000000000000    0.5000000000000000    0.0000000000000000 Ca
   0.5000000000000000    0.0000000000000000    0.0000000000000000 Ca
   0.5000000000000000    0.5000000000000000    0.0000000000000000 Al
   0.0000000000000000    0.0000000000000000    0.0000000000000000 Al
   0.8632216500000000    0.1367783500000000    0.4571561800000000 B
   0.3632216500000000    0.6367783500000000    0.5428438200000000 B
   0.2500000000000000    0.2500000000000000    0.5000000000000000 B
   0.6367783500000000    0.3632216500000000    0.4571561800000000 B
   0.1367783500000000    0.8632216500000000    0.5428438200000000 B
   0.7500000000000000    0.7500000000000000    0.5000000000000000 B
   0.1319611000000000    0.8680388999999999    0.2231695300000000 O
   0.6319611000000001    0.3680389000000000    0.7768304700000001 O
   0.2798954800000000    0.4263803900000000    0.7005583300000000 O
   0.5736196099999999    0.7201045200000000    0.7005583300000000 O
   0.2201045200000000    0.0736196100000000    0.7005583300000000 O
   0.7201045200000000    0.5736196099999999    0.2994416700000000 O
   0.9263803900000001    0.7798954800000000    0.7005583300000000 O
   0.8680388999999999    0.1319611000000000    0.7768304700000001 O
   0.4263803900000000    0.2798954800000000    0.2994416700000000 O
   0.7500000000000000    0.2500000000000000    0.3266183300000000 O
   0.2500000000000000    0.7500000000000000    0.6733816700000000 O
   0.7798954800000000    0.9263803900000001    0.2994416700000000 O
   0.0736196100000000    0.2201045200000000    0.2994416700000000 O
   0.3680389000000000    0.6319611000000001    0.2231695300000000 O
