Ba3 Zn1 N2 O1
1.0
   4.0775809599999997    0.0000000000000000    0.0000000000000000
   0.0000000000000000    4.0775809599999997    0.0000000000000000
   0.0000000000000000    0.0000000000000000    9.1389336799999992
Ba Zn N O
3 1 2 1
direct
   0.0000000000000000    0.0000000000000000    0.2164087000000000 Ba
   0.0000000000000000    0.0000000000000000    0.7835913000000000 Ba
   0.5000000000000000    0.5000000000000000    0.5000000000000000 Ba
   0.5000000000000000    0.5000000000000000    0.0000000000000000 Zn
   0.5000000000000000    0.5000000000000000    0.8028209600000000 N
   0.5000000000000000    0.5000000000000000    0.1971790400000000 N
   0.0000000000000000    0.0000000000000000    0.5000000000000000 O
