Sc4 Cd2 S8
1.0
   0.0000000000000000    5.3258773000000001    5.3258773000000001
   5.3258773000000001    0.0000000000000000    5.3258773000000001
   5.3258773000000001    5.3258773000000001    0.0000000000000000
Sc Cd S
4 2 8
direct
   0.1250000000000000    0.6250000000000000    0.6250000000000000 Sc
   0.6250000000000000    0.1250000000000000    0.6250000000000000 Sc
   0.6250000000000000    0.6250000000000000    0.1250000000000000 Sc
   0.6250000000000000    0.6250000000000000    0.6250000000000000 Sc
   0.2500000000000000    0.2500000000000000    0.2500000000000000 Cd
   0.0000000000000000    0.0000000000000000    0.0000000000000000 Cd
   0.8437282200000000    0.3854235900000000    0.3854235900000000 S
   0.3854235900000000    0.8437282200000000    0.3854235900000000 S
   0.3854235900000000    0.3854235900000000    0.8437282200000000 S
   0.3854235900000000    0.3854235900000000    0.3854235900000000 S
   0.4062717800000000    0.8645764100000000    0.8645764100000000 S
   0.8645764100000000    0.4062717800000000    0.8645764100000000 S
   0.8645764100000000    0.8645764100000000    0.4062717800000000 S
   0.8645764100000000    0.8645764100000000    0.8645764100000000 S
