Na6 Ag2 O4
1.0
  -2.6980609300000000    5.3818702199999997    2.9015513400000001
   2.6980609300000000   -5.3818702199999997    2.9015513400000001
   2.6980609300000000    5.3818702199999997   -2.9015513400000001
Na Ag O
6 2 4
direct
   0.7500000000000000    0.2500000000000000    0.5000000000000000 Na
   0.2500000000000000    0.7500000000000000    0.5000000000000000 Na
   0.9891998900000000    0.7500000000000000    0.2391998900000000 Na
   0.5108001100000000    0.7500000000000000    0.7608001100000000 Na
   0.0108001100000000    0.2500000000000000    0.7608001100000000 Na
   0.4891998900000000    0.2500000000000000    0.2391998900000000 Na
   0.5000000000000000    0.5000000000000000    0.0000000000000000 Ag
   0.0000000000000000    0.0000000000000000    0.0000000000000000 Ag
   0.6350614100000000    0.2264222600000000    0.8614836600000000 O
   0.8649385900000000    0.7264222600000000    0.5913608500000000 O
   0.1350614100000000    0.2735777400000000    0.4086391500000000 O
   0.3649385900000000    0.7735777400000000    0.1385163400000000 O
