Nb4 Tl8 Se22
1.0
   7.7658366100000000   -0.0799382700000000    0.0403831400000000
   0.5640755300000000    8.9373018999999996    0.0258082700000000
   0.2339187200000000    3.9062518399999999   13.2550856699999997
Nb Tl Se
4 8 22
direct
   0.8846258100000000    0.6309983000000000    0.7013381800000000 Nb
   0.1153741900000000    0.3690017000000000    0.2986618200000000 Nb
   0.6669658800000000    0.8951335900000000    0.8102479000000000 Nb
   0.3330341200000000    0.1048664100000000    0.1897521000000000 Nb
   0.4882904000000000    0.7212921400000000    0.1083452300000000 Tl
   0.2378763000000000    0.4124540200000000    0.5779145900000000 Tl
   0.2163704700000000    0.9874263500000000    0.5737670300000000 Tl
   0.7836295300000000    0.0125736500000000    0.4262329700000000 Tl
   0.5117096000000000    0.2787078600000000    0.8916547700000000 Tl
   0.7621237000000000    0.5875459800000000    0.4220854100000000 Tl
   0.9478918100000000    0.2430599900000000    0.0090958400000000 Tl
   0.0521081900000000    0.7569400100000000    0.9909041600000000 Tl
   0.9429177000000000    0.3306570300000000    0.7529505700000000 Se
   0.3982983600000000    0.0855142500000000    0.7532558400000000 Se
   0.6085288200000000    0.8229512200000000    0.6297182800000000 Se
   0.4433005000000000    0.6870488100000000    0.8806947600000000 Se
   0.6604437100000000    0.1591800100000000    0.6640108500000000 Se
   0.5566995000000000    0.3129511900000000    0.1193052400000000 Se
   0.7386462499999999    0.5941592900000000    0.8927999000000000 Se
   0.4046405600000000    0.4528514700000000    0.3480334400000000 Se
   0.7310310700000000    0.9664468000000001    0.9651815900000000 Se
   0.8618111899999999    0.5146470200000000    0.1860087800000000 Se
   0.9921015200000000    0.8730062500000000    0.7567695200000000 Se
   0.0078984800000000    0.1269937500000000    0.2432304800000000 Se
   0.2613537500000000    0.4058407100000000    0.1072001000000000 Se
   0.2689689300000000    0.0335532000000000    0.0348184100000000 Se
   0.0570823000000000    0.6693429700000000    0.2470494300000000 Se
   0.6017016400000000    0.9144857500000000    0.2467441600000000 Se
   0.3914711800000000    0.1770487800000000    0.3702817200000000 Se
   0.3395562900000000    0.8408199900000000    0.3359891500000000 Se
   0.5953594400000000    0.5471485300000000    0.6519665600000000 Se
   0.1381888100000000    0.4853529800000000    0.8139912200000000 Se
   0.0310416900000000    0.7162221400000000    0.5331715700000000 Se
   0.9689583100000000    0.2837778600000000    0.4668284300000000 Se
