Zn4 P6 S18
1.0
   9.0644600000000004   -5.2575415599999999   -0.0147329300000000
   9.0644600000000004    5.2575415599999999   -0.0147329300000000
  -0.6307100200000000    0.0000000000000000    6.5353371600000001
Zn P S
4 6 18
direct
   0.0481358600000000    0.7028145000000000    0.3270580500000000 Zn
   0.2971855000000000    0.9518641400000000    0.6729419500000000 Zn
   0.9518641400000000    0.2971855000000000    0.6729419500000000 Zn
   0.7028145000000000    0.0481358600000000    0.3270580500000000 Zn
   0.7215192400000000    0.7215192400000000    0.3785987900000000 P
   0.2784807600000000    0.2784807600000000    0.6214012100000000 P
   0.9753176300000000    0.9753176300000000    0.6487792999999999 P
   0.0246823700000000    0.0246823700000000    0.3512207000000000 P
   0.6259190100000001    0.6259190100000001    0.7043844400000000 P
   0.3740809900000000    0.3740809900000000    0.2956155600000000 P
   0.7430555400000000    0.7430555400000000    0.7040605400000000 S
   0.9271832700000000    0.9271832700000000    0.1581425200000000 S
   0.3948971000000000    0.3948971000000000    0.6204907800000000 S
   0.6051029000000000    0.6051029000000000    0.3795092200000000 S
   0.7551587800000000    0.0827786200000000    0.6683289900000000 S
   0.0728167300000000    0.0728167300000000    0.8418574800000000 S
   0.2448412200000000    0.9172213800000000    0.3316710100000000 S
   0.0827786200000000    0.7551587800000000    0.6683289900000000 S
   0.5861596000000000    0.9131436500000000    0.2494691000000000 S
   0.0868563500000000    0.4138404000000000    0.7505309000000000 S
   0.4138404000000000    0.0868563500000000    0.7505309000000000 S
   0.9131436500000000    0.5861596000000000    0.2494691000000000 S
   0.4330684100000000    0.7356920000000000    0.8379713600000001 S
   0.2643080000000000    0.5669315900000000    0.1620286400000000 S
   0.5669315900000000    0.2643080000000000    0.1620286400000000 S
   0.7356920000000000    0.4330684100000000    0.8379713600000001 S
   0.9172213800000000    0.2448412200000000    0.3316710100000000 S
   0.2569444600000000    0.2569444600000000    0.2959394600000000 S
