Na6 As2 O8
1.0
   6.9843692500000003    0.0000000000000000    0.0000000000000000
   0.0000000000000000    6.0138537200000002    0.0000000000000000
   0.0000000000000000    0.0000000000000000    5.5182428600000000
Na As O
6 2 8
direct
   0.0000000000000000    0.1524597900000000    0.4915673300000000 Na
   0.7551056000000000    0.3242919400000000    0.9935164500000000 Na
   0.7448944000000000    0.6757080600000001    0.4935164500000000 Na
   0.5000000000000000    0.8475402100000000    0.9915673300000000 Na
   0.2551056000000000    0.6757080600000001    0.4935164500000000 Na
   0.2448944000000000    0.3242919400000000    0.9935164500000000 Na
   0.0000000000000000    0.8226854600000000    0.0026127500000000 As
   0.5000000000000000    0.1773145400000000    0.5026127500000001 As
   0.0000000000000000    0.0935939600000000    0.9039732900000000 O
   0.0000000000000000    0.8168894400000000    0.3127978700000000 O
   0.7023708200000000    0.3116963500000000    0.4011524200000000 O
   0.7976291800000000    0.6883036500000000    0.9011524200000000 O
   0.5000000000000000    0.1831105600000000    0.8127978700000000 O
   0.5000000000000000    0.9064060400000000    0.4039732900000000 O
   0.2023708200000000    0.6883036500000000    0.9011524200000000 O
   0.2976291800000000    0.3116963500000000    0.4011524200000000 O
