Na2 Re2 O8
1.0
  -2.6738477000000000    2.6738477999999999    5.7227562699999996
   2.6738477000000000   -2.6738477999999999    5.7227562699999996
   2.6738477999999999    2.6738477000000000   -5.7227562699999996
Na Re O
2 2 8
direct
   0.2500000000000000    0.7500000000000000    0.5000000000000000 Na
   0.5000000000000000    0.5000000000000000    0.0000000000000000 Na
   0.7500000000000000    0.2500000000000000    0.5000000000000000 Re
   0.0000000000000000    0.0000000000000000    0.0000000000000000 Re
   0.9497127400000001    0.3195865300000000    0.0963801100000000 O
   0.6033326400000000    0.1997127400000000    0.1301262100000000 O
   0.0695865300000000    0.4732074300000000    0.8698737900000000 O
   0.2232074300000000    0.8533326400000000    0.9036198900000000 O
   0.5267925700000000    0.3966673600000000    0.5963801100000000 O
   0.6804134700000000    0.7767925700000000    0.6301262100000000 O
   0.1466673600000000    0.0502872600000000    0.3698737900000000 O
   0.8002872599999999    0.9304134700000000    0.4036198900000000 O
