Ca4 Be2 Si4 O14
1.0
   7.4086552799999996    0.0000000000000000    0.0000000000000000
   0.0000000000000000    7.4086552799999996    0.0000000000000000
   0.0000000000000000    0.0000000000000000    4.9717202399999998
Ca Be Si O
4 2 4 14
direct
   0.8361259400000000    0.6638740600000000    0.5136384100000000 Ca
   0.3361259400000000    0.8361259400000000    0.4863615900000000 Ca
   0.6638740600000000    0.1638740600000000    0.4863615900000000 Ca
   0.1638740600000000    0.3361259400000000    0.5136384100000000 Ca
   0.0000000000000000    0.0000000000000000    0.0000000000000000 Be
   0.5000000000000000    0.5000000000000000    0.0000000000000000 Be
   0.6478174300000000    0.8521825700000000    0.9610356300000000 Si
   0.1478174300000000    0.6478174300000000    0.0389643700000000 Si
   0.8521825700000000    0.3521825700000000    0.0389643700000000 Si
   0.3521825700000000    0.1478174300000000    0.9610356300000000 Si
   0.1632531800000000    0.0871762900000000    0.8164705400000000 O
   0.8367468200000000    0.9128237100000000    0.8164705400000000 O
   0.9128237100000000    0.1632531800000000    0.1835294600000000 O
   0.0871762900000000    0.8367468200000000    0.1835294600000000 O
   0.6632531800000000    0.4128237100000000    0.1835294600000000 O
   0.5871762900000000    0.6632531800000000    0.8164705400000000 O
   0.4128237100000000    0.3367468200000000    0.8164705400000000 O
   0.3367468200000000    0.5871762900000000    0.1835294600000000 O
   0.5000000000000000    0.0000000000000000    0.8312296900000000 O
   0.0000000000000000    0.5000000000000000    0.1687703100000000 O
   0.3600456800000000    0.1399543200000000    0.2851431600000000 O
   0.8600456800000000    0.3600456800000000    0.7148568400000000 O
   0.1399543200000000    0.6399543200000000    0.7148568400000000 O
   0.6399543200000000    0.8600456800000000    0.2851431600000000 O
