Ba8 Sn4 Se16
1.0
   8.4637245799999992    0.0000000000000000   -0.0362204700000000
   0.0000000000000000    9.3316906100000008    0.0000000000000000
  -5.0421251500000004    0.0000000000000000   11.2679954099999993
Ba Sn Se
8 4 16
direct
   0.9020335000000000    0.8842150800000000    0.1531557700000000 Ba
   0.0979665000000000    0.3842150800000000    0.3468442300000000 Ba
   0.0979665000000000    0.1157849200000000    0.8468442300000000 Ba
   0.9020335000000000    0.6157849200000000    0.6531557700000000 Ba
   0.5338546600000000    0.8570331300000000    0.3383911700000000 Ba
   0.4661453400000000    0.3570331300000000    0.1616088300000000 Ba
   0.4661453400000000    0.1429668700000000    0.6616088300000000 Ba
   0.5338546600000000    0.6429668700000000    0.8383911700000000 Ba
   0.1928963200000000    0.8144318300000000    0.5050303600000000 Sn
   0.8071036800000000    0.3144318300000000    0.9949696400000000 Sn
   0.8071036800000000    0.1855681700000000    0.4949696400000000 Sn
   0.1928963200000000    0.6855681700000000    0.0050303600000000 Sn
   0.2415414900000000    0.8773368800000000    0.7169386900000000 Se
   0.7584585100000000    0.3773368800000000    0.7830613100000000 Se
   0.7584585100000000    0.1226631200000000    0.2830613100000000 Se
   0.2415414900000000    0.6226631200000000    0.2169386900000000 Se
   0.2321881000000000    0.0256351500000000    0.3876604100000000 Se
   0.7678119000000000    0.5256351500000001    0.1123395900000000 Se
   0.7678119000000000    0.9743648499999999    0.6123395900000000 Se
   0.2321881000000000    0.4743648500000000    0.8876604100000000 Se
   0.9034611000000000    0.6881093900000000    0.3883261800000000 Se
   0.0965389000000000    0.1881093900000000    0.1116738200000000 Se
   0.0965389000000000    0.3118906100000000    0.6116738200000000 Se
   0.9034611000000000    0.8118906100000000    0.8883261800000000 Se
   0.4270990600000000    0.6298355900000000    0.5367869300000000 Se
   0.5729009400000000    0.1298355900000000    0.9632130700000000 Se
   0.5729009400000000    0.3701644100000000    0.4632130700000000 Se
   0.4270990600000000    0.8701644100000000    0.0367869300000000 Se
