Sr4 Sc2 Nb2 O12
1.0
   5.6957202100000002    0.0000000000000000    0.0016400900000000
   0.0000000000000000    5.7183998300000001    0.0000000000000000
  -5.7026566299999999    0.0000000000000000    8.0495710000000003
Sr Sc Nb O
4 2 2 12
direct
   0.7560150600000000    0.4729906300000000    0.7502609900000000 Sr
   0.2439849400000000    0.5270093700000000    0.2497390100000000 Sr
   0.2439849400000000    0.9729906300000000    0.7497390100000000 Sr
   0.7560150600000000    0.0270093700000000    0.2502609900000000 Sr
   0.0000000000000000    0.0000000000000000    0.0000000000000000 Sc
   0.0000000000000000    0.5000000000000000    0.5000000000000000 Sc
   0.5000000000000000    0.0000000000000000    0.5000000000000000 Nb
   0.5000000000000000    0.5000000000000000    0.0000000000000000 Nb
   0.1894403600000000    0.7153314500000000    0.9653429400000000 O
   0.8105596400000000    0.2846685500000000    0.0346570600000000 O
   0.8105596400000000    0.2153314500000000    0.5346570600000000 O
   0.1894403600000000    0.7846685500000000    0.4653429400000000 O
   0.6787882500000000    0.0137394500000000    0.7455767200000000 O
   0.3212117500000000    0.9862605500000000    0.2544232800000000 O
   0.3212117500000000    0.5137394500000000    0.7544232800000000 O
   0.6787882500000000    0.4862605500000000    0.2455767200000000 O
   0.2497717900000000    0.2232915000000000    0.9642752900000000 O
   0.7502282100000000    0.7767085000000000    0.0357247100000000 O
   0.7502282100000000    0.7232915000000000    0.5357247100000000 O
   0.2497717900000000    0.2767085000000000    0.4642752900000000 O
