Rb2 V6 Cd8 O24
1.0
   6.5439908600000001   -6.7704940100000002   -0.0075721300000000
   6.5439908600000001    6.7704940100000002   -0.0075721300000000
  -3.0049190700000001    0.0000000000000000    6.4117376600000000
Rb V Cd O
2 6 8 24
direct
   0.0281838600000000    0.9689869200000000    0.7496785300000000 Rb
   0.9689869200000000    0.0281838600000000    0.2496785300000000 Rb
   0.2956138500000000    0.7012804900000000    0.7496918299999999 V
   0.7012804900000000    0.2956138500000000    0.2496918300000000 V
   0.8746814300000000    0.6482629400000000    0.8579462600000000 V
   0.3491610200000000    0.1302123400000000    0.6391613400000000 V
   0.1302123400000000    0.3491610200000000    0.1391613400000000 V
   0.6482629400000000    0.8746814300000000    0.3579462600000000 V
   0.7374133100000000    0.2646943500000000    0.7561961100000000 Cd
   0.2646943500000000    0.7374133100000000    0.2561961100000000 Cd
   0.0598754700000000    0.3840940400000000    0.6467477000000000 Cd
   0.6165084300000000    0.9343762799999999    0.8468213700000000 Cd
   0.9343762799999999    0.6165084300000000    0.3468213700000000 Cd
   0.3840940400000000    0.0598754700000000    0.1467477000000000 Cd
   0.4843370000000000    0.4720013800000000    0.5390818900000000 Cd
   0.4720013800000000    0.4843370000000000    0.0390818900000000 Cd
   0.8196515200000000    0.8196056900000001    0.8685412600000000 O
   0.1775431200000000    0.1813040700000000    0.6330612600000000 O
   0.1813040700000000    0.1775431200000000    0.1330612600000000 O
   0.8196056900000001    0.8196515200000000    0.3685412600000000 O
   0.2860296000000000    0.5202285600000000    0.7712921500000000 O
   0.4736766100000000    0.7132493100000000    0.7261199500000000 O
   0.7132493100000000    0.4736766100000000    0.2261199500000000 O
   0.5202285600000000    0.2860296000000000    0.2712921500000000 O
   0.1788778700000000    0.7296544200000000    0.5276698700000000 O
   0.2688569500000000    0.8203918100000001    0.9699950000000001 O
   0.8203918100000001    0.2688569500000000    0.4699950000000000 O
   0.7296544200000000    0.1788778700000000    0.0276698700000000 O
   0.0099427800000000    0.6675736700000000    0.0983907400000000 O
   0.3268530800000000    0.9956850300000000    0.3999592700000000 O
   0.9956850300000000    0.3268530800000000    0.8999592700000000 O
   0.6675736700000000    0.0099427800000000    0.5983907400000000 O
   0.7195640200000000    0.5112852600000000    0.7828712100000000 O
   0.4800080300000000    0.2960292300000000    0.7136991100000000 O
   0.2960292300000000    0.4800080300000000    0.2136991100000000 O
   0.5112852600000000    0.7195640200000000    0.2828712100000000 O
   0.9669791500000000    0.6071079500000000    0.6752701200000000 O
   0.3974145200000000    0.0414056400000000    0.8236050100000000 O
   0.0414056400000000    0.3974145200000000    0.3236050100000000 O
   0.6071079500000000    0.9669791500000000    0.1752701200000000 O
