Nb4 Tl8 S22
1.0
   7.6516784800000002   -0.0137315400000000   -0.0075097900000000
   0.5742738500000000    8.7598436399999997    0.0418373300000000
   0.2483181500000000    3.7844684399999999   12.6239357900000009
Nb Tl S
4 8 22
direct
   0.8835162800000000    0.6328553900000000    0.6997787600000001 Nb
   0.1164837200000000    0.3671446100000000    0.3002212400000000 Nb
   0.6679523400000000    0.8917334600000000    0.8100118800000000 Nb
   0.3320476600000000    0.1082665400000000    0.1899881200000000 Nb
   0.4933409700000000    0.7251848500000000    0.1132475000000000 Tl
   0.2434782700000000    0.4168788100000000    0.5803970899999999 Tl
   0.2165559500000000    0.9775805800000000    0.5703988500000000 Tl
   0.7834440499999999    0.0224194200000000    0.4296011500000000 Tl
   0.5066590300000000    0.2748151500000000    0.8867525000000001 Tl
   0.7565217300000000    0.5831211900000000    0.4196029100000000 Tl
   0.9397063900000000    0.2397669700000000    0.0170236100000000 Tl
   0.0602936100000000    0.7602330300000000    0.9829763900000000 Tl
   0.9563731600000001    0.3437737400000000    0.7557100400000000 S
   0.4089459800000000    0.0776719900000000    0.7466899000000000 S
   0.6073802100000000    0.8065160000000000    0.6314094600000000 S
   0.4688008700000000    0.6774991200000000    0.8833155499999999 S
   0.6414946400000000    0.1454760800000000    0.6665544100000000 S
   0.5311991300000000    0.3225008800000000    0.1166844500000000 S
   0.7299390900000000    0.5974893700000000    0.8915021700000000 S
   0.4022114400000000    0.4369944900000000    0.3471714600000000 S
   0.7310938800000000    0.9606967000000000    0.9624878200000000 S
   0.8777875200000000    0.5219181300000000    0.1848899400000000 S
   0.9780799900000000    0.8688436800000000    0.7516517500000000 S
   0.0219200100000000    0.1311563200000000    0.2483482500000000 S
   0.2700609100000000    0.4025106300000000    0.1084978300000000 S
   0.2689061200000000    0.0393033000000000    0.0375121800000000 S
   0.0436268400000000    0.6562262600000000    0.2442899600000000 S
   0.5910540200000000    0.9223280100000000    0.2533101000000000 S
   0.3926197900000000    0.1934840000000000    0.3685905400000000 S
   0.3585053600000000    0.8545239200000000    0.3334455900000000 S
   0.5977885600000000    0.5630055100000000    0.6528285400000000 S
   0.1222124800000000    0.4780818700000000    0.8151100600000000 S
   0.0195561200000000    0.7100894800000001    0.5331622200000000 S
   0.9804438800000000    0.2899105200000000    0.4668377800000000 S
