Cs2 Zr4 P6 O24
1.0
   4.3425830799999998    2.5071916999999999    8.3572372799999997
  -4.3425830799999998    2.5071916999999999    8.3572372799999997
   0.0000000000000000   -5.0143824099999996    8.3572372799999997
Cs Zr P O
2 4 6 24
direct
   0.0000000000000000    0.0000000000000000    0.0000000000000000 Cs
   0.5000000000000000    0.5000000000000000    0.5000000000000000 Cs
   0.1527554400000000    0.1527554400000000    0.1527554400000000 Zr
   0.6527554400000000    0.6527554400000000    0.6527554400000000 Zr
   0.3472445600000000    0.3472445600000000    0.3472445600000000 Zr
   0.8472445600000000    0.8472445600000000    0.8472445600000000 Zr
   0.5335302400000000    0.9664697600000000    0.2500000000000000 P
   0.9664697600000000    0.2500000000000000    0.5335302400000000 P
   0.2500000000000000    0.5335302400000000    0.9664697600000000 P
   0.0335302400000000    0.7500000000000000    0.4664697600000000 P
   0.4664697600000000    0.0335302400000000    0.7500000000000000 P
   0.7500000000000000    0.4664697600000000    0.0335302400000000 P
   0.1940867700000000    0.5755333100000000    0.4233088300000000 O
   0.8059132300000000    0.4244666900000000    0.5766911700000000 O
   0.0147253800000000    0.7337866900000000    0.6438689600000000 O
   0.0766911700000000    0.9244666900000000    0.3059132300000000 O
   0.7337866900000000    0.6438689600000000    0.0147253800000000 O
   0.6940867700000000    0.9233088300000000    0.0755333100000000 O
   0.6438689600000000    0.0147253800000000    0.7337866900000000 O
   0.5755333100000000    0.4233088300000000    0.1940867700000000 O
   0.7662133100000000    0.4852746200000000    0.8561310400000000 O
   0.5766911700000000    0.8059132300000000    0.4244666900000000 O
   0.1438689600000000    0.2337866900000000    0.5147253800000000 O
   0.9244666900000000    0.3059132300000000    0.0766911700000000 O
   0.4244666900000000    0.5766911700000000    0.8059132300000000 O
   0.4852746200000000    0.8561310400000000    0.7662133100000000 O
   0.9852746200000000    0.2662133100000000    0.3561310400000000 O
   0.3561310400000000    0.9852746200000000    0.2662133100000000 O
   0.2662133100000000    0.3561310400000000    0.9852746200000000 O
   0.9233088300000000    0.0755333100000000    0.6940867700000000 O
   0.5147253800000000    0.1438689600000000    0.2337866900000000 O
   0.0755333100000000    0.6940867700000000    0.9233088300000000 O
   0.2337866900000000    0.5147253800000000    0.1438689600000000 O
   0.3059132300000000    0.0766911700000000    0.9244666900000000 O
   0.8561310400000000    0.7662133100000000    0.4852746200000000 O
   0.4233088300000000    0.1940867700000000    0.5755333100000000 O
