Na4 Ga2 P2 C2 O14
1.0
   5.1283040000000000    0.0000000000000000    0.0000000000000000
   0.0000000000000000    6.4433199999999999    0.0000000000000000
  -0.3284540000000000    0.0000000000000000    8.8678509999999999
Na Ga P C O
4 2 2 2 14
direct
   0.2331560000000000    0.5029300000000000    0.7787430000000000 Na
   0.2331560000000000    0.9970700000000000    0.7787430000000000 Na
   0.7668440000000000    0.4970700000000000    0.2212570000000000 Na
   0.7668440000000000    0.0029300000000000    0.2212570000000000 Na
   0.7850840000000000    0.2500000000000000    0.6430530000000000 Ga
   0.2149160000000000    0.7500000000000000    0.3569470000000000 Ga
   0.7230580000000000    0.7500000000000000    0.5717820000000000 P
   0.2769420000000000    0.2500000000000000    0.4282180000000000 P
   0.7253320000000000    0.2500000000000000    0.9168370000000000 C
   0.2746680000000000    0.7500000000000000    0.0831630000000000 C
   0.3224280000000000    0.7500000000000000    0.9457330000000000 O
   0.9576390000000000    0.2500000000000000    0.8621880000000000 O
   0.5369180000000000    0.2500000000000000    0.8096220000000000 O
   0.8062810000000000    0.9427280000000000    0.6637310000000000 O
   0.8062810000000000    0.5572720000000000    0.6637310000000000 O
   0.1475710000000000    0.2500000000000000    0.5835980000000000 O
   0.4189740000000000    0.7500000000000000    0.5439929999999999 O
   0.5810260000000000    0.2500000000000000    0.4560070000000000 O
   0.8524290000000000    0.7500000000000000    0.4164020000000000 O
   0.1937190000000000    0.4427280000000000    0.3362690000000000 O
   0.1937190000000000    0.0572720000000000    0.3362690000000000 O
   0.4630820000000000    0.7500000000000000    0.1903780000000000 O
   0.0423610000000000    0.7500000000000000    0.1378120000000000 O
   0.6775720000000000    0.2500000000000000    0.0542670000000000 O
