Mg2 P2 Se6
1.0
   3.1791720799999998    1.8354958800000001    6.7972277400000003
  -3.1791723599999999    1.8354953899999999    6.7972277400000003
   0.0000002800000000   -3.6709921799999998    6.7972277200000004
Mg P Se
2 2 6
direct
   0.1685554700000000    0.1685554700000000    0.1685554700000000 Mg
   0.8314445300000000    0.8314445300000000    0.8314445300000000 Mg
   0.4454740400000000    0.4454740400000000    0.4454740400000000 P
   0.5545259600000000    0.5545259600000000    0.5545259600000000 P
   0.7512581800000000    0.4090415700000000    0.0858763900000000 Se
   0.4090415700000000    0.0858763900000000    0.7512581800000000 Se
   0.0858763900000000    0.7512581800000000    0.4090415700000000 Se
   0.2487418200000000    0.5909584300000000    0.9141236100000000 Se
   0.5909584300000000    0.9141236100000000    0.2487418200000000 Se
   0.9141236100000000    0.2487418200000000    0.5909584300000000 Se
