Ca2 Zn4 P4 O16
1.0
   4.9382816199999997    0.0021426500000000    0.0024249900000000
  -0.5697729000000000    8.3031930700000007    0.0068052300000000
  -1.8858301000000000   -3.6475160199999999    7.8628395500000003
Ca Zn P O
2 4 4 16
direct
   0.7745572200000000    0.2686292800000000    0.9445387000000000 Ca
   0.2254427800000000    0.7313707200000000    0.0554613000000000 Ca
   0.6218382200000000    0.3916586200000000    0.5864324000000000 Zn
   0.3781617800000000    0.6083413800000000    0.4135676000000000 Zn
   0.8369337300000000    0.0817019200000000    0.2854855600000000 Zn
   0.1630662700000000    0.9182980800000000    0.7145144400000000 Zn
   0.8915341300000000    0.7202522600000000    0.3083274900000000 P
   0.1084658700000000    0.2797477400000000    0.6916725100000000 P
   0.3137220300000000    0.2077136400000000    0.1796528600000000 P
   0.6862779700000000    0.7922863600000000    0.8203471400000000 P
   0.0321686400000000    0.4407253900000000    0.8273411800000000 O
   0.9678313600000000    0.5592746100000000    0.1726588200000000 O
   0.4423067200000000    0.0485423000000000    0.1960404500000000 O
   0.5576932800000000    0.9514577000000000    0.8039595500000000 O
   0.0677029800000000    0.7288818700000000    0.4831102600000000 O
   0.9322970200000000    0.2711181300000000    0.5168897400000000 O
   0.9964136400000000    0.1128132600000000    0.7103433700000000 O
   0.0035863600000000    0.8871867400000000    0.2896566300000000 O
   0.4260942600000000    0.3674665600000000    0.3594514100000000 O
   0.5739057400000001    0.6325334400000000    0.6405485900000000 O
   0.6184329600000000    0.7396887000000000    0.9551899200000000 O
   0.3815670400000000    0.2603113000000000    0.0448100800000000 O
   0.4250167000000000    0.2897543100000000    0.6995988400000001 O
   0.5749833000000000    0.7102456900000000    0.3004011600000000 O
   0.0107946700000000    0.8331187000000000    0.8544079600000000 O
   0.9892053300000000    0.1668813000000000    0.1455920400000000 O
