Sr4 Ta4 O14
1.0
   1.9862105600000000  -13.7033791199999992    0.0000000000000000
   1.9862105600000000   13.7033791199999992    0.0000000000000000
   0.0000000000000000    0.0000000000000000    5.6911572899999996
Sr Ta O
4 4 14
direct
   0.2845699500000000    0.7154300500000000    0.7500000000000000 Sr
   0.7154300500000000    0.2845699500000000    0.2500000000000000 Sr
   0.4455012200000000    0.5544987800000000    0.2500000000000000 Sr
   0.5544987800000000    0.4455012200000000    0.7500000000000000 Sr
   0.8410745400000000    0.1589254600000000    0.2500000000000000 Ta
   0.1589254600000000    0.8410745400000000    0.7500000000000000 Ta
   0.9458436800000000    0.0541563200000000    0.7500000000000000 Ta
   0.0541563200000000    0.9458436800000000    0.2500000000000000 Ta
   0.0000000000000000    0.0000000000000000    0.0000000000000000 O
   0.0000000000000000    0.0000000000000000    0.5000000000000000 O
   0.5466877500000000    0.4533122500000000    0.2500000000000000 O
   0.4533122500000000    0.5466877500000000    0.7500000000000000 O
   0.9010866400000000    0.0989133600000000    0.0102548200000000 O
   0.0989133600000000    0.9010866400000000    0.9897451800000000 O
   0.0989133600000000    0.9010866400000000    0.5102548200000000 O
   0.9010866400000000    0.0989133600000000    0.4897451800000000 O
   0.7937007900000000    0.2062992100000000    0.4897012700000000 O
   0.2062992100000000    0.7937007900000000    0.5102987300000000 O
   0.2062992100000000    0.7937007900000000    0.9897012700000000 O
   0.7937007900000000    0.2062992100000000    0.0102987300000000 O
   0.3510534800000000    0.6489465200000000    0.2500000000000000 O
   0.6489465200000000    0.3510534800000000    0.7500000000000000 O
