Ba4 Ge4 Pb4 O16
1.0
   6.2727196300000001    0.0000000000000000    0.0000000000000000
   0.0000000000000000    7.5676965599999999    0.0000000000000000
   0.0000000000000000    0.0000000000000000   10.2402272399999994
Ba Ge Pb O
4 4 4 16
direct
   0.4744645500000000    0.7479237500000000    0.7903058200000000 Ba
   0.9744645500000000    0.7520762500000000    0.2096941800000000 Ba
   0.0255354500000000    0.2520762500000000    0.2903058200000000 Ba
   0.5255354500000000    0.2479237500000000    0.7096941800000000 Ba
   0.5195687800000000    0.9607473800000000    0.0895070500000000 Ge
   0.0195687800000000    0.5392526200000000    0.9104929500000000 Ge
   0.9804312200000000    0.0392526200000000    0.5895070500000000 Ge
   0.4804312200000000    0.4607473800000000    0.4104929500000000 Ge
   0.4268076600000000    0.9413505200000000    0.4073853400000000 Pb
   0.9268076600000000    0.5586494800000000    0.5926146600000000 Pb
   0.0731923400000000    0.0586494800000000    0.9073853400000000 Pb
   0.5731923400000000    0.4413505200000000    0.0926146600000000 Pb
   0.4376138000000000    0.0576154500000000    0.9370794400000000 O
   0.9376138000000001    0.4423845500000000    0.0629205600000000 O
   0.0623862000000000    0.9423845500000000    0.4370794400000000 O
   0.5623861999999999    0.5576154500000000    0.5629205600000000 O
   0.7430059500000000    0.0569047600000000    0.1679092400000000 O
   0.2430059500000000    0.4430952400000000    0.8320907600000000 O
   0.7569940500000000    0.9430952400000000    0.6679092400000000 O
   0.2569940500000000    0.5569047600000000    0.3320907600000000 O
   0.5957343100000000    0.7366727400000000    0.0516684300000000 O
   0.0957343100000000    0.7633272600000000    0.9483315700000000 O
   0.9042656900000000    0.2633272600000000    0.5516684300000000 O
   0.4042656900000000    0.2366727400000000    0.4483315700000000 O
   0.2960990900000000    0.9855691100000000    0.1987532600000000 O
   0.7960990900000000    0.5144308900000000    0.8012467400000000 O
   0.2039009100000000    0.0144308900000000    0.6987532600000000 O
   0.7039009100000000    0.4855691100000000    0.3012467400000000 O
