Li6 Re6 O24
1.0
   6.9416077200000004    0.0030548700000000   -0.0406205600000000
  -1.6996571700000001    8.2699749699999998    0.0346931700000000
  -2.7979243399999998   -1.7917996899999999    9.1755214899999995
Li Re O
6 6 24
direct
   0.5341709100000001    0.6187102200000000    0.7854422900000000 Li
   0.4658290900000000    0.3812897800000000    0.2145577100000000 Li
   0.0361880900000000    0.1926953200000000    0.9909674700000000 Li
   0.9638119100000000    0.8073046800000000    0.0090325300000000 Li
   0.2458009000000000    0.8017411000000000    0.5901349600000000 Li
   0.7541991000000000    0.1982589000000000    0.4098650400000000 Li
   0.7986355000000001    0.9024037800000000    0.6608603800000000 Re
   0.2013645000000000    0.0975962200000000    0.3391396200000000 Re
   0.9945288500000000    0.5091752100000000    0.7442108700000000 Re
   0.0054711500000000    0.4908247900000000    0.2557891300000000 Re
   0.4768738000000000    0.2077847200000000    0.8788798000000000 Re
   0.5231262000000000    0.7922152800000000    0.1211202000000000 Re
   0.9336183300000001    0.7922735400000001    0.5762712800000001 O
   0.0663816700000000    0.2077264600000000    0.4237287200000000 O
   0.1438567500000000    0.3673873300000000    0.1841798000000000 O
   0.8561432500000000    0.6326126700000000    0.8158202000000000 O
   0.7316453400000000    0.1965237600000000    0.9584613199999999 O
   0.2683546600000000    0.8034762400000000    0.0415386800000000 O
   0.9544130500000000    0.6366300000000000    0.1479923000000000 O
   0.0455869500000000    0.3633700000000000    0.8520077000000000 O
   0.2443868100000000    0.9345502000000000    0.4262689400000000 O
   0.7556131900000000    0.0654498000000000    0.5737310600000000 O
   0.7685792000000000    0.3720351000000000    0.2581602900000000 O
   0.2314208000000000    0.6279649000000000    0.7418397100000000 O
   0.9448375500000000    0.9803369600000000    0.8447223300000000 O
   0.0551624500000000    0.0196630400000000    0.1552776700000000 O
   0.5192541200000000    0.6191874700000000    0.2031112300000000 O
   0.4807458800000000    0.3808125300000000    0.7968887700000000 O
   0.6580319700000000    0.9690423100000000    0.2521240700000000 O
   0.3419680300000000    0.0309576900000000    0.7478759300000000 O
   0.1566287900000000    0.5923829800000000    0.4305299300000000 O
   0.8433712100000000    0.4076170200000000    0.5694700700000001 O
   0.3615551900000000    0.2259515300000000    0.0163985000000000 O
   0.6384448100000000    0.7740484700000000    0.9836015000000000 O
   0.5554176000000000    0.7774345700000000    0.6461949600000000 O
   0.4445824000000000    0.2225654300000000    0.3538050400000000 O
