La8 Se6 N4
1.0
   6.6216840200000000   -5.1232016900000001   -0.0120587700000000
   6.6216840200000000    5.1232016900000001   -0.0120587700000000
  -0.0184377400000000    0.0000000000000000    6.5019817599999996
La Se N
8 6 4
direct
   0.4438298100000000    0.8065522899999999    0.9699053399999999 La
   0.1934477100000000    0.5561701900000000    0.5300946600000001 La
   0.5561701900000000    0.1934477100000000    0.0300946600000000 La
   0.8065522899999999    0.4438298100000000    0.4699053400000000 La
   0.0862564000000000    0.2429699000000000    0.9272429100000000 La
   0.7570301000000000    0.9137436000000000    0.5727570900000000 La
   0.9137436000000000    0.7570301000000000    0.0727570900000000 La
   0.2429699000000000    0.0862564000000000    0.4272429100000000 La
   0.0975461100000000    0.9024538900000000    0.7500000000000000 Se
   0.9024538900000000    0.0975461100000000    0.2500000000000000 Se
   0.7464068200000000    0.4854694700000000    0.9664942300000000 Se
   0.5145305300000000    0.2535931800000000    0.5335057700000000 Se
   0.2535931800000000    0.5145305300000000    0.0335057700000000 Se
   0.4854694700000000    0.7464068200000000    0.4664942300000000 Se
   0.6686121500000000    0.9199183600000000    0.9164499600000000 N
   0.0800816400000000    0.3313878500000000    0.5835500400000000 N
   0.3313878500000000    0.0800816400000000    0.0835500400000000 N
   0.9199183600000000    0.6686121500000000    0.4164499600000000 N
