Na6 In4 P6 O24
1.0
   6.2531935000000001   -6.4009075199999996    0.0030314800000000
   6.2531935000000001    6.4009075199999996    0.0030314800000000
  -2.7362396699999998    0.0000000000000000    6.0397948100000001
Na In P O
6 4 6 24
direct
   0.2754411600000000    0.7245588400000000    0.2500000000000000 Na
   0.9782511400000000    0.0217488600000000    0.2500000000000000 Na
   0.5000000000000000    0.5000000000000000    0.0000000000000000 Na
   0.0217488600000000    0.9782511400000000    0.7500000000000000 Na
   0.7245588400000000    0.2754411600000000    0.7500000000000000 Na
   0.5000000000000000    0.5000000000000000    0.5000000000000000 Na
   0.9289382600000000    0.6164187600000000    0.3428237200000000 In
   0.0710617400000000    0.3835812400000000    0.6571762799999999 In
   0.6164187600000000    0.9289382600000000    0.8428237200000001 In
   0.3835812400000000    0.0710617400000000    0.1571762800000000 In
   0.1351190600000000    0.3396809800000000    0.1334698100000000 P
   0.3396809800000000    0.1351190600000000    0.6334698100000000 P
   0.7238804900000000    0.2761195100000000    0.2500000000000000 P
   0.2761195100000000    0.7238804900000000    0.7500000000000000 P
   0.6603190200000000    0.8648809400000000    0.3665301900000000 P
   0.8648809400000000    0.6603190200000000    0.8665301900000000 P
   0.5601292900000000    0.2642682100000000    0.2846077500000000 O
   0.7357317900000000    0.4398707100000000    0.2153922500000000 O
   0.4398707100000000    0.7357317900000000    0.7153922500000000 O
   0.2642682100000000    0.5601292900000000    0.7846077500000000 O
   0.7455785600000000    0.1554093700000000    0.0431944400000000 O
   0.8445906300000000    0.2544214400000000    0.4568055600000000 O
   0.2544214400000000    0.8445906300000000    0.9568055600000001 O
   0.1554093700000000    0.7455785600000000    0.5431944399999999 O
   0.9963899500000000    0.6665857600000000    0.0826045500000000 O
   0.3334142400000000    0.0036100500000000    0.4173954500000000 O
   0.0036100500000000    0.3334142400000000    0.9173954500000000 O
   0.6665857600000000    0.9963899500000000    0.5826045500000000 O
   0.8404603400000000    0.8356543400000001    0.8793810900000000 O
   0.1643456600000000    0.1595396600000000    0.6206189100000000 O
   0.1595396600000000    0.1643456600000000    0.1206189100000000 O
   0.8356543400000001    0.8404603400000000    0.3793810900000000 O
   0.5604462400000000    0.7144545800000000    0.3307449600000000 O
   0.2855454200000000    0.4395537600000000    0.1692550400000000 O
   0.4395537600000000    0.2855454200000000    0.6692550400000000 O
   0.7144545800000000    0.5604462400000000    0.8307449600000000 O
   0.5931053700000000    0.9358497800000000    0.1715009500000000 O
   0.0641502200000000    0.4068946300000000    0.3284990500000000 O
   0.4068946300000000    0.0641502200000000    0.8284990500000000 O
   0.9358497800000000    0.5931053700000000    0.6715009500000000 O
