Li1 As1 Se2
1.0
   2.7317366399999998   -2.6789972700000000   -0.0062311800000000
   2.7317366399999998    2.6789972700000000   -0.0062311800000000
  -0.2922877000000000    0.0000000000000000    5.6437153300000000
Li As Se
1 1 2
direct
   0.7512441200000000    0.7512441200000000    0.9977472200000000 Li
   0.2968790800000000    0.2968790800000000    0.4324141100000000 As
   0.7515254700000000    0.7515254700000000    0.5144966500000000 Se
   0.2470623300000000    0.2470623300000000    0.0181830100000000 Se
