Mg2 Te2 Mo2 O12
1.0
   5.0515756100000004    0.0000000000000000    0.0000000000000000
   0.0000000000000000    5.2698265600000003    0.0000000000000000
   0.0000000000000000    0.0000000000000000    8.8251468400000004
Mg Te Mo O
2 2 2 12
direct
   0.0000000000000000    0.5000000000000000    0.0299435900000000 Mg
   0.5000000000000000    0.0000000000000000    0.9700564100000000 Mg
   0.0000000000000000    0.0000000000000000    0.2484870500000000 Te
   0.5000000000000000    0.5000000000000000    0.7515129500000000 Te
   0.0000000000000000    0.0000000000000000    0.6920508700000000 Mo
   0.5000000000000000    0.5000000000000000    0.3079491300000000 Mo
   0.2330825900000000    0.6769255300000000    0.2048029800000000 O
   0.7669174100000000    0.3230744700000000    0.2048029800000000 O
   0.2669174100000000    0.1769255300000000    0.7951970200000000 O
   0.7330825900000000    0.8230744700000000    0.7951970200000000 O
   0.2238063000000000    0.1737007100000000    0.1076433800000000 O
   0.7761937000000000    0.8262992900000000    0.1076433800000000 O
   0.2761937000000000    0.6737007100000000    0.8923566200000000 O
   0.7238063000000000    0.3262992900000000    0.8923566200000000 O
   0.3476832300000000    0.2836235100000000    0.4272713100000000 O
   0.6523167700000000    0.7163764900000000    0.4272713100000000 O
   0.1523167700000000    0.7836235100000000    0.5727286900000000 O
   0.8476832300000000    0.2163764900000000    0.5727286900000000 O
