Ca4 Ti4 O12
1.0
   5.4998565700000004    0.0000000000000000    0.0000000000000000
   0.0000000000000000    7.6572291699999999    0.0000000000000000
   0.0000000000000000    0.0000000000000000    5.3702041600000001
Ca Ti O
4 4 12
direct
   0.5485704100000000    0.7500000000000000    0.5111476100000000 Ca
   0.4514295900000000    0.2500000000000000    0.4888523900000000 Ca
   0.0485704100000000    0.7500000000000000    0.9888523900000000 Ca
   0.9514295900000000    0.2500000000000000    0.0111476100000000 Ca
   0.5000000000000000    0.5000000000000000    0.0000000000000000 Ti
   0.5000000000000000    0.0000000000000000    0.0000000000000000 Ti
   0.0000000000000000    0.5000000000000000    0.5000000000000000 Ti
   0.0000000000000000    0.0000000000000000    0.5000000000000000 Ti
   0.4752593300000000    0.7500000000000000    0.0868329500000000 O
   0.5247406700000000    0.2500000000000000    0.9131670500000000 O
   0.9752593300000000    0.7500000000000000    0.4131670500000000 O
   0.0247406700000000    0.2500000000000000    0.5868329500000000 O
   0.7937826300000000    0.9542753700000000    0.7951422900000000 O
   0.2062173700000000    0.4542753700000000    0.2048577100000000 O
   0.2062173700000000    0.0457246300000000    0.2048577100000000 O
   0.7937826300000000    0.5457246300000000    0.7951422900000000 O
   0.2937826300000000    0.9542753700000000    0.7048577100000000 O
   0.7062173700000000    0.4542753700000000    0.2951422900000000 O
   0.7062173700000000    0.0457246300000000    0.2951422900000000 O
   0.2937826300000000    0.5457246300000000    0.7048577100000000 O
