Ca4 Mg2 W2 O12
1.0
   5.3827459700000002    0.0000000000000000    0.0012578200000000
   0.0000000000000000    5.5519622599999998    0.0000000000000000
  -5.3596487100000001    0.0000000000000000    7.6827978200000002
Ca Mg W O
4 2 2 12
direct
   0.7651967100000000    0.9473227500000000    0.7525846500000000 Ca
   0.2348032900000000    0.4473227500000000    0.7474153500000000 Ca
   0.7651967100000000    0.5526772500000000    0.2525846500000000 Ca
   0.2348032900000000    0.0526772500000000    0.2474153500000000 Ca
   0.0000000000000000    0.5000000000000000    0.0000000000000000 Mg
   0.0000000000000000    0.0000000000000000    0.5000000000000000 Mg
   0.5000000000000000    0.0000000000000000    0.0000000000000000 W
   0.5000000000000000    0.5000000000000000    0.5000000000000000 W
   0.8333320400000001    0.6949598900000000    0.5452035400000000 O
   0.1666679600000000    0.1949598900000000    0.9547964600000000 O
   0.1666679600000000    0.3050401100000000    0.4547964600000000 O
   0.8333320400000001    0.8050401100000000    0.0452035400000000 O
   0.2570015300000000    0.7849327400000000    0.4484472000000000 O
   0.7429984700000000    0.2849327400000000    0.0515528000000000 O
   0.7429984700000000    0.2150672600000000    0.5515528000000000 O
   0.2570015300000000    0.7150672600000000    0.9484472000000000 O
   0.6484043600000000    0.5299295000000001    0.7408899600000000 O
   0.3515956400000000    0.0299295000000000    0.7591100400000000 O
   0.3515956400000000    0.4700705000000000    0.2591100400000000 O
   0.6484043600000000    0.9700704999999999    0.2408899600000000 O
