La6 Ta2 O14
1.0
   5.5534730999999997   -3.7659264499999998    0.0000000000000000
   5.5534730999999997    3.7659264499999998    0.0000000000000000
   0.0000000000000000    0.0000000000000000    7.7558270299999998
La Ta O
6 2 14
direct
   0.0000000000000000    0.0000000000000000    0.0000000000000000 La
   0.0000000000000000    0.0000000000000000    0.5000000000000000 La
   0.0682655700000000    0.4763615800000000    0.7500000000000000 La
   0.9317344300000000    0.5236384200000000    0.2500000000000000 La
   0.5236384200000000    0.9317344300000000    0.7500000000000000 La
   0.4763615800000000    0.0682655700000000    0.2500000000000000 La
   0.5000000000000000    0.5000000000000000    0.0000000000000000 Ta
   0.5000000000000000    0.5000000000000000    0.5000000000000000 Ta
   0.8938516100000000    0.8465967400000000    0.7500000000000000 O
   0.1061483900000000    0.1534032600000000    0.2500000000000000 O
   0.1534032600000000    0.1061483900000000    0.7500000000000000 O
   0.8465967400000000    0.8938516100000000    0.2500000000000000 O
   0.8131832400000000    0.4375217400000000    0.9670903600000000 O
   0.1868167600000000    0.5624782600000000    0.4670903600000000 O
   0.5624782600000000    0.1868167600000000    0.5329096400000000 O
   0.4375217400000000    0.8131832400000000    0.0329096400000000 O
   0.5652161100000000    0.4347838900000000    0.2500000000000000 O
   0.4347838900000000    0.5652161100000000    0.7500000000000000 O
   0.5624782600000000    0.1868167600000000    0.9670903600000000 O
   0.4375217400000000    0.8131832400000000    0.4670903600000000 O
   0.8131832400000000    0.4375217400000000    0.5329096400000000 O
   0.1868167600000000    0.5624782600000000    0.0329096400000000 O
