Pb12 O16
1.0
   7.3864089399999999    0.0000000000000000    0.0000000000000000
   0.0000000000000000    9.8099639500000002    0.0000000000000000
   0.0000000000000000    0.0000000000000000    6.7711152200000004
Pb O
12 16
direct
   0.4380969100000000    0.3159056300000000    0.5000000000000000 Pb
   0.5619030900000000    0.6840943700000000    0.5000000000000000 Pb
   0.9380969100000000    0.1840943700000000    0.5000000000000000 Pb
   0.0619030900000000    0.8159056300000000    0.5000000000000000 Pb
   0.6253118500000000    0.3149491100000000    0.0000000000000000 Pb
   0.3746881500000000    0.6850508900000000    0.0000000000000000 Pb
   0.1253118500000000    0.1850508900000000    0.0000000000000000 Pb
   0.8746881500000000    0.8149491100000000    0.0000000000000000 Pb
   0.0000000000000000    0.5000000000000000    0.7520104600000000 Pb
   0.5000000000000000    0.0000000000000000    0.2479895400000000 Pb
   0.0000000000000000    0.5000000000000000    0.2479895400000000 Pb
   0.5000000000000000    0.0000000000000000    0.7520104600000000 Pb
   0.1318880400000000    0.3925164500000000    0.5000000000000000 O
   0.8681119600000000    0.6074835500000000    0.5000000000000000 O
   0.6318880400000000    0.1074835500000000    0.5000000000000000 O
   0.3681119600000000    0.8925164500000000    0.5000000000000000 O
   0.1684034000000000    0.4206001400000000    0.0000000000000000 O
   0.8315966000000000    0.5793998600000000    0.0000000000000000 O
   0.6684034000000000    0.0793998600000000    0.0000000000000000 O
   0.3315966000000000    0.9206001400000000    0.0000000000000000 O
   0.3405332200000000    0.1857867000000000    0.7548915800000000 O
   0.6594667800000000    0.8142133000000000    0.7548915800000000 O
   0.8405332200000000    0.3142133000000000    0.2451084200000000 O
   0.1594667800000000    0.6857867000000000    0.2451084200000000 O
   0.8405332200000000    0.3142133000000000    0.7548915800000000 O
   0.1594667800000000    0.6857867000000000    0.7548915800000000 O
   0.3405332200000000    0.1857867000000000    0.2451084200000000 O
   0.6594667800000000    0.8142133000000000    0.2451084200000000 O
