Hf4 V8 O28
1.0
   8.9512434699999996    0.0000000000000000    0.0000000000000000
   0.0000000000000000    8.9512434699999996    0.0000000000000000
   0.0000000000000000    0.0000000000000000    8.9512434699999996
Hf V O
4 8 28
direct
   0.0000000000000000    0.5000000000000000    0.5000000000000000 Hf
   0.5000000000000000    0.5000000000000000    0.0000000000000000 Hf
   0.5000000000000000    0.0000000000000000    0.5000000000000000 Hf
   0.0000000000000000    0.0000000000000000    0.0000000000000000 Hf
   0.3856479500000000    0.1143520500000000    0.8856479500000000 V
   0.1143520500000000    0.8856479500000000    0.3856479500000000 V
   0.8856479500000000    0.3856479500000000    0.1143520500000000 V
   0.6143520500000000    0.6143520500000000    0.6143520500000000 V
   0.6143520500000000    0.8856479500000000    0.1143520500000000 V
   0.8856479500000000    0.1143520500000000    0.6143520500000000 V
   0.1143520500000000    0.6143520500000000    0.8856479500000000 V
   0.3856479500000000    0.3856479500000000    0.3856479500000000 V
   0.5000000000000000    0.0000000000000000    0.0000000000000000 O
   0.0000000000000000    0.0000000000000000    0.5000000000000000 O
   0.0000000000000000    0.5000000000000000    0.0000000000000000 O
   0.5000000000000000    0.5000000000000000    0.5000000000000000 O
   0.9368970800000000    0.2041849600000000    0.0913589100000000 O
   0.4368970800000000    0.2958150400000000    0.9086410900000000 O
   0.0631029200000000    0.7041849600000000    0.4086410900000000 O
   0.2958150400000000    0.9086410900000000    0.4368970800000000 O
   0.4086410900000000    0.0631029200000000    0.7041849600000000 O
   0.9086410900000000    0.4368970800000000    0.2958150400000000 O
   0.2041849600000000    0.0913589100000000    0.9368970800000000 O
   0.0913589100000000    0.9368970800000000    0.2041849600000000 O
   0.4368970800000000    0.2041849600000000    0.4086410900000000 O
   0.4086410900000000    0.4368970800000000    0.2041849600000000 O
   0.2041849600000000    0.4086410900000000    0.4368970800000000 O
   0.2958150400000000    0.5913589100000000    0.9368970800000000 O
   0.9086410900000000    0.0631029200000000    0.7958150400000000 O
   0.7958150400000000    0.9086410900000000    0.0631029200000000 O
   0.0913589100000000    0.5631029200000000    0.7041849600000000 O
   0.5913589100000000    0.9368970800000000    0.2958150400000000 O
   0.7041849600000000    0.0913589100000000    0.5631029200000000 O
   0.9368970800000000    0.2958150400000000    0.5913589100000000 O
   0.5631029200000000    0.7041849600000000    0.0913589100000000 O
   0.0631029200000000    0.7958150400000000    0.9086410900000000 O
   0.5631029200000000    0.7958150400000000    0.5913589100000000 O
   0.5913589100000000    0.5631029200000000    0.7958150400000000 O
   0.7958150400000000    0.5913589100000000    0.5631029200000000 O
   0.7041849600000000    0.4086410900000000    0.0631029200000000 O
