Na4 Cu4 O4
1.0
  -4.3476741800000003    4.3476741800000003    2.3047967300000001
   4.3476741800000003   -4.3476741800000003    2.3047967300000001
   4.3476741800000003    4.3476741800000003   -2.3047967300000001
Na Cu O
4 4 4
direct
   0.5000000000000000    0.1719838200000000    0.6719838200000000 Na
   0.5000000000000000    0.8280161800000000    0.3280161800000000 Na
   0.1719838200000000    0.5000000000000000    0.6719838200000000 Na
   0.8280161800000000    0.5000000000000000    0.3280161800000000 Na
   0.8522149000000000    0.8522149000000000    0.7044298000000000 Cu
   0.1477851000000000    0.1477851000000000    0.2955702000000000 Cu
   0.8522149000000000    0.1477851000000000    0.0000000000000000 Cu
   0.1477851000000000    0.8522149000000000    0.0000000000000000 Cu
   0.0000000000000000    0.2947725200000000    0.2947725200000000 O
   0.0000000000000000    0.7052274800000000    0.7052274800000000 O
   0.2947725200000000    0.0000000000000000    0.2947725200000000 O
   0.7052274800000000    0.0000000000000000    0.7052274800000000 O
