Si4 Pb8 Se16
1.0
   8.3950473100000007    0.0000000000000000   -0.0039505400000000
   0.0000000000000000    7.1230705600000004    0.0000000000000000
  -4.1425081099999996    0.0000000000000000   12.9565164500000005
Si Pb Se
4 8 16
direct
   0.8006764700000000    0.2399812400000000    0.8581173300000000 Si
   0.1993235300000000    0.7399812400000000    0.6418826700000000 Si
   0.1993235300000000    0.7600187600000000    0.1418826700000000 Si
   0.8006764700000000    0.2600187600000000    0.3581173300000000 Si
   0.4445945600000000    0.1451654000000000    0.6370514300000000 Pb
   0.5554054400000000    0.6451654000000000    0.8629485700000000 Pb
   0.5554054400000000    0.8548346000000000    0.3629485700000000 Pb
   0.4445945600000000    0.3548346000000000    0.1370514300000000 Pb
   0.9438434400000000    0.1526516200000000    0.6287839300000000 Pb
   0.0561565600000000    0.6526516200000000    0.8712160700000000 Pb
   0.0561565600000000    0.8473483800000000    0.3712160700000000 Pb
   0.9438434400000000    0.3473483800000000    0.1287839300000000 Pb
   0.0777568000000000    0.2621308700000000    0.9489182500000000 Se
   0.9222432000000000    0.7621308700000000    0.5510817500000000 Se
   0.9222432000000000    0.7378691300000000    0.0510817500000000 Se
   0.0777568000000000    0.2378691300000000    0.4489182500000000 Se
   0.7323310400000000    0.0308378700000000    0.2339787400000000 Se
   0.2676689600000000    0.5308378700000000    0.2660212600000000 Se
   0.2676689600000000    0.9691621300000000    0.7660212600000000 Se
   0.7323310400000000    0.4691621300000000    0.7339787400000000 Se
   0.2497089600000000    0.0337494500000000    0.2331338300000000 Se
   0.7502910400000000    0.5337494500000000    0.2668661700000000 Se
   0.7502910400000000    0.9662505500000000    0.7668661700000000 Se
   0.2497089600000000    0.4662505500000000    0.7331338300000000 Se
   0.6262613900000000    0.2322308700000000    0.4583879800000000 Se
   0.3737386100000000    0.7322308700000000    0.0416120200000000 Se
   0.3737386100000000    0.7677691300000000    0.5416120200000000 Se
   0.6262613900000000    0.2677691300000000    0.9583879800000000 Se
