Rb4 Ga12 S20
1.0
   7.1211468900000003    0.0000000000000000   -0.0013419600000000
   0.0000000000000000   12.6553275299999992    0.0000000000000000
  -2.4013462099999998    0.0000000000000000    9.9811213799999994
Rb Ga S
4 12 20
direct
   0.8365212200000000    0.6142403500000000    0.6041246500000000 Rb
   0.1634787800000000    0.1142403500000000    0.8958753500000000 Rb
   0.1634787800000000    0.3857596500000000    0.3958753500000000 Rb
   0.8365212200000000    0.8857596500000000    0.1041246500000000 Rb
   0.8014031900000000    0.9194222500000000    0.6002960100000000 Ga
   0.8014031900000000    0.5805777500000000    0.1002960100000000 Ga
   0.1985968100000000    0.4194222500000000    0.8997039900000000 Ga
   0.5608363100000000    0.3980632600000000    0.1971813000000000 Ga
   0.5608363100000000    0.1019367400000000    0.6971813000000000 Ga
   0.7089659400000000    0.3353220700000000    0.8759870400000001 Ga
   0.4391636900000000    0.6019367400000000    0.8028187000000000 Ga
   0.1985968100000000    0.0805777500000000    0.3997039900000000 Ga
   0.2910340600000000    0.6646779300000000    0.1240129600000000 Ga
   0.4391636900000000    0.8980632600000000    0.3028187000000000 Ga
   0.7089659400000000    0.1646779300000000    0.3759870400000000 Ga
   0.2910340600000000    0.8353220700000000    0.6240129599999999 Ga
   0.7202091500000000    0.8297917200000000    0.4092836500000000 S
   0.8146177999999999    0.1028895500000000    0.5918197300000000 S
   0.7202091500000000    0.6702082800000000    0.9092836500000000 S
   0.8146177999999999    0.3971104500000000    0.0918197300000000 S
   0.2797908500000000    0.3297917200000000    0.0907163500000000 S
   0.3438014300000000    0.6622249300000000    0.5926369100000000 S
   0.5738859900000000    0.5812342500000000    0.2340539700000000 S
   0.1853822000000000    0.6028895500000000    0.9081802700000000 S
   0.1853822000000000    0.8971104500000000    0.4081802700000000 S
   0.0694146400000000    0.6363130700000000    0.2449535100000000 S
   0.9305853600000000    0.3636869300000000    0.7550464900000000 S
   0.2797908500000000    0.1702082800000000    0.5907163500000000 S
   0.4261140100000000    0.0812342500000000    0.2659460300000000 S
   0.5738859900000000    0.9187657500000000    0.7340539699999999 S
   0.0694146400000000    0.8636869300000000    0.7449535100000000 S
   0.9305853600000000    0.1363130700000000    0.2550464900000000 S
   0.3438014300000000    0.8377750700000000    0.0926369100000000 S
   0.6561985700000000    0.3377750700000000    0.4073630900000000 S
   0.4261140100000000    0.4187657500000000    0.7659460300000001 S
   0.6561985700000000    0.1622249300000000    0.9073630900000000 S
