Ca6 B4 O12
1.0
   4.2983576200000000    2.4816581300000000    3.8854303600000000
  -4.2983576200000000    2.4816581300000000    3.8854303600000000
   0.0000000000000000   -4.9633162600000000    3.8854303600000000
Ca B O
6 4 12
direct
   0.6088749100000000    0.8911250900000000    0.2500000000000000 Ca
   0.2500000000000000    0.6088749100000000    0.8911250900000000 Ca
   0.8911250900000000    0.2500000000000000    0.6088749100000000 Ca
   0.3911250900000000    0.1088749100000000    0.7500000000000000 Ca
   0.7500000000000000    0.3911250900000000    0.1088749100000000 Ca
   0.1088749100000000    0.7500000000000000    0.3911250900000000 Ca
   0.8829367299999999    0.8829367299999999    0.8829367299999999 B
   0.1170632700000000    0.1170632700000000    0.1170632700000000 B
   0.3829367300000000    0.3829367300000000    0.3829367300000000 B
   0.6170632700000001    0.6170632700000001    0.6170632700000001 B
   0.3985962700000000    0.5396324600000000    0.2175394200000000 O
   0.2175394200000000    0.3985962700000000    0.5396324600000000 O
   0.5396324600000000    0.2175394200000000    0.3985962700000000 O
   0.2824605800000000    0.9603675400000000    0.1014037300000000 O
   0.9603675400000000    0.1014037300000000    0.2824605800000000 O
   0.1014037300000000    0.2824605800000000    0.9603675400000000 O
   0.7824605800000000    0.6014037300000000    0.4603675400000000 O
   0.6014037300000000    0.4603675400000000    0.7824605800000000 O
   0.4603675400000000    0.7824605800000000    0.6014037300000000 O
   0.0396324600000000    0.8985962700000000    0.7175394200000000 O
   0.8985962700000000    0.7175394200000000    0.0396324600000000 O
   0.7175394200000000    0.0396324600000000    0.8985962700000000 O
