Pb4 S2 O10
1.0
   6.8320293000000003   -2.8167593100000001    0.0021583500000000
   6.8320293000000003    2.8167593100000001    0.0021583500000000
  -2.9346212000000000    0.0000000000000000    6.3687644299999997
Pb S O
4 2 10
direct
   0.5256788999999999    0.5256788999999999    0.2746988500000000 Pb
   0.4743211000000000    0.4743211000000000    0.7253011500000000 Pb
   0.1470769700000000    0.1470769700000000    0.1026935000000000 Pb
   0.8529230300000000    0.8529230300000000    0.8973065000000000 Pb
   0.8308663300000000    0.8308663300000000    0.3420620100000000 S
   0.1691336700000000    0.1691336700000000    0.6579379900000000 S
   0.7474449399999999    0.2525550600000000    0.0000000000000000 O
   0.2525550600000000    0.7474449399999999    0.0000000000000000 O
   0.7129000500000000    0.7129000500000000    0.2873515800000000 O
   0.2870999500000000    0.2870999500000000    0.7126484199999999 O
   0.9274511500000000    0.3582147700000000    0.7516118400000000 O
   0.6417852300000000    0.0725488500000000    0.2483881600000000 O
   0.8939898900000000    0.8939898900000000    0.5737654800000000 O
   0.1060101100000000    0.1060101100000000    0.4262345200000000 O
   0.3582147700000000    0.9274511500000000    0.7516118400000000 O
   0.0725488500000000    0.6417852300000000    0.2483881600000000 O
