Nb4 Se8 O26
1.0
  11.5044954599999993    0.0000000000000000   -0.0571239000000000
   0.0000000000000000    6.6953601100000002    0.0000000000000000
  -2.5039880499999998    0.0000000000000000    7.1117228199999998
Nb Se O
4 8 26
direct
   0.6035332000000000    0.4961029800000000    0.9139789699999999 Nb
   0.6035332000000000    0.5038970200000000    0.4139789700000000 Nb
   0.9521693300000000    0.0074697100000000    0.8574607200000000 Nb
   0.9521693300000000    0.9925302900000000    0.3574607200000000 Nb
   0.2914029600000000    0.4755289300000000    0.8926194000000000 Se
   0.2914029600000000    0.5244710700000000    0.3926194000000000 Se
   0.2821760200000000    0.9243479100000001    0.0573023100000000 Se
   0.2821760200000000    0.0756520900000000    0.5573023100000000 Se
   0.6112991400000000    0.9539375100000000    0.6703029300000000 Se
   0.6112991400000000    0.0460624900000000    0.1703029300000000 Se
   0.9452076800000000    0.4537365400000000    0.5926122500000000 Se
   0.9452076800000000    0.5462634600000000    0.0926122500000000 Se
   0.3688965200000000    0.9020792300000000    0.5058589200000000 O
   0.3688965200000000    0.0979207700000000    0.0058589200000000 O
   0.1809499200000000    0.4128882300000000    0.6937610700000000 O
   0.1809499200000000    0.5871117700000000    0.1937610700000000 O
   0.2766408900000000    0.7510183300000000    0.8664950300000001 O
   0.2766408900000000    0.2489816700000000    0.3664950300000000 O
   0.5934617200000000    0.4224480700000000    0.6552335800000000 O
   0.5934617200000000    0.5775519300000000    0.1552335800000000 O
   0.4169498100000000    0.4657613100000000    0.8101995500000000 O
   0.4169498100000000    0.5342386900000000    0.3101995500000000 O
   0.5958066700000000    0.7892070799999999    0.8383473400000000 O
   0.5958066700000000    0.2107929200000000    0.3383473400000000 O
   0.7662239500000000    0.9986338299999999    0.2648229900000000 O
   0.7662239500000000    0.0013661700000000    0.7648229900000000 O
   0.9477942700000000    0.7016855800000000    0.2782546200000000 O
   0.9477942700000000    0.2983144200000000    0.7782546200000000 O
   0.9567051900000000    0.7108978400000000    0.9226915400000000 O
   0.9567051900000000    0.2891021600000000    0.4226915400000000 O
   0.1359312400000000    0.9771072700000000    0.4466236800000000 O
   0.1359312400000000    0.0228927300000000    0.9466236800000000 O
   0.9495920900000000    0.0774014300000000    0.1051544800000000 O
   0.9495920900000000    0.9225985700000000    0.6051544800000001 O
   0.7872565800000000    0.5079756000000000    0.0026884900000000 O
   0.7872565800000000    0.4920244000000000    0.5026884900000000 O
   0.6140038100000000    0.7958603500000000    0.4892941300000000 O
   0.6140038100000000    0.2041396500000000    0.9892941300000000 O
