Li2 S1
1.0
   0.0000000000000000    2.8352355299999998    2.8352355299999998
   2.8352355299999998    0.0000000000000000    2.8352355299999998
   2.8352355299999998    2.8352355299999998    0.0000000000000000
Li S
2 1
direct
   0.7500000000000000    0.7500000000000000    0.7500000000000000 Li
   0.2500000000000000    0.2500000000000000    0.2500000000000000 Li
   0.0000000000000000    0.0000000000000000    0.0000000000000000 S
