Na2 Hg2 P2 O8
1.0
   2.9129054100000000   -4.6618632199999999    0.0000000000000000
   2.9129054100000000    4.6618632199999999    0.0000000000000000
   0.0000000000000000    0.0000000000000000    6.4720514700000003
Na Hg P O
2 2 2 8
direct
   0.5000000000000000    0.5000000000000000    0.0000000000000000 Na
   0.5000000000000000    0.5000000000000000    0.5000000000000000 Na
   0.8080795000000000    0.1919205000000000    0.2500000000000000 Hg
   0.1919205000000000    0.8080795000000000    0.7500000000000000 Hg
   0.1398869400000000    0.8601130600000000    0.2500000000000000 P
   0.8601130600000000    0.1398869400000000    0.7500000000000000 P
   0.7368182599999999    0.8283301800000000    0.7500000000000000 O
   0.2631817400000000    0.1716698200000000    0.2500000000000000 O
   0.8283301800000000    0.7368182599999999    0.2500000000000000 O
   0.1716698200000000    0.2631817400000000    0.7500000000000000 O
   0.7513464200000000    0.2486535800000000    0.9355531700000000 O
   0.2486535800000000    0.7513464200000000    0.4355531700000000 O
   0.7513464200000000    0.2486535800000000    0.5644468300000000 O
   0.2486535800000000    0.7513464200000000    0.0644468300000000 O
