Cr4 Ag1 Bi1 O14
1.0
  -4.2593767600000003    4.2593765899999996    4.0457204899999999
   4.2593767600000003   -4.2593765899999996    4.0457204899999999
   4.2593765899999996    4.2593767600000003   -4.0457204899999999
Cr Ag Bi O
4 1 1 14
direct
   0.8297634100000000    0.3704865800000000    0.7846101900000000 Cr
   0.0451532200000000    0.8297634100000000    0.4592768400000000 Cr
   0.3704865800000000    0.5858763900000000    0.5407231600000000 Cr
   0.5858763900000000    0.0451532200000000    0.2153898100000000 Cr
   0.4226379200000000    0.4226379200000000    0.0000000000000000 Ag
   0.0079722500000000    0.0079722500000000    0.0000000000000000 Bi
   0.2289185600000000    0.7289185600000000    0.5000000000000000 O
   0.7289185600000000    0.2289185600000000    0.5000000000000000 O
   0.9719971900000000    0.6456203800000000    0.8757984900000000 O
   0.0961987000000000    0.9719971900000000    0.3263768100000000 O
   0.6456203800000000    0.7698218900000000    0.6736231900000000 O
   0.7698218900000000    0.0961987000000000    0.1242015100000000 O
   0.4687865400000000    0.7859409100000000    0.1661268300000000 O
   0.3026597100000000    0.4687865400000000    0.6828456300000000 O
   0.7859409100000000    0.6198140800000000    0.3171543700000000 O
   0.6198140800000000    0.3026597100000000    0.8338731700000001 O
   0.3906627100000000    0.0937329000000000    0.0933282600000000 O
   0.2973354500000000    0.3906627100000000    0.2969298200000000 O
   0.0937329000000000    0.0004046400000000    0.7030701800000000 O
   0.0004046400000000    0.2973354500000000    0.9066717399999999 O
