Cs4 Te4 Se12
1.0
   7.4366908399999998    0.0000000000000000    0.0065963100000000
   0.0000000000000000    6.6829154300000004    0.0000000000000000
  -1.0571250400000001    0.0000000000000000   13.0377587300000002
Cs Te Se
4 4 12
direct
   0.8623391100000000    0.8894927600000000    0.6435870500000000 Cs
   0.1376608900000000    0.3894927600000000    0.8564129500000000 Cs
   0.1376608900000000    0.1105072400000000    0.3564129500000000 Cs
   0.8623391100000000    0.6105072400000000    0.1435870500000000 Cs
   0.6212236300000000    0.0700310000000000    0.8765367100000000 Te
   0.3787763700000000    0.5700310000000000    0.6234632900000000 Te
   0.3787763700000000    0.9299690000000000    0.1234632900000000 Te
   0.6212236300000000    0.4299690000000000    0.3765367100000000 Te
   0.3516125800000000    0.0007423000000000    0.7085015600000000 Se
   0.6483874200000000    0.5007423000000000    0.7914984400000000 Se
   0.6483874200000000    0.9992577000000000    0.2914984400000000 Se
   0.3516125800000000    0.4992577000000000    0.2085015600000000 Se
   0.5379082900000000    0.6968429600000000    0.9272758100000000 Se
   0.4620917100000000    0.1968429600000000    0.5727241900000000 Se
   0.4620917100000000    0.3031570400000000    0.0727241900000000 Se
   0.5379082900000000    0.8031570400000000    0.4272758100000000 Se
   0.1179581000000000    0.5977286900000000    0.4661886300000000 Se
   0.8820419000000000    0.0977286900000000    0.0338113700000000 Se
   0.8820419000000000    0.4022713100000000    0.5338113700000000 Se
   0.1179581000000000    0.9022713100000000    0.9661886300000000 Se
