Sr2 Bi4 O8
1.0
   9.6121170100000004   -2.1625842000000000   -0.0004127900000000
   9.6121170100000004    2.1625842000000000   -0.0004127900000000
  -0.4448192900000000    0.0000000000000000    6.0492909700000004
Sr Bi O
2 4 8
direct
   0.2353878200000000    0.2353878200000000    0.2592784900000000 Sr
   0.7646121800000000    0.7646121800000000    0.7407215100000000 Sr
   0.4253553100000000    0.4253553100000000    0.7232891200000000 Bi
   0.5746446900000000    0.5746446900000000    0.2767108800000000 Bi
   0.0988267200000000    0.0988267200000000    0.8148452500000000 Bi
   0.9011732800000000    0.9011732800000000    0.1851547500000000 Bi
   0.0903734800000000    0.0903734800000000    0.1727376100000000 O
   0.9096265200000000    0.9096265200000000    0.8272623900000000 O
   0.2048845700000000    0.2048845700000000    0.8551319500000000 O
   0.7951154300000000    0.7951154300000000    0.1448680500000000 O
   0.3245972000000000    0.3245972000000000    0.5799654500000000 O
   0.6754028000000000    0.6754028000000000    0.4200345500000000 O
   0.5877246800000000    0.5877246800000000    0.9249471900000000 O
   0.4122753200000000    0.4122753200000000    0.0750528100000000 O
