Ba4 La4 Cu4 S12
1.0
  10.8022179000000005    0.0000000000000000    0.0000000000000000
   0.0000000000000000    4.1057042199999998    0.0000000000000000
   0.0000000000000000    0.0000000000000000   13.1130342500000001
Ba La Cu S
4 4 4 12
direct
   0.7094859300000000    0.7500000000000000    0.9938689100000000 Ba
   0.2905140700000000    0.2500000000000000    0.0061310900000000 Ba
   0.2094859300000000    0.7500000000000000    0.5061310900000000 Ba
   0.7905140700000000    0.2500000000000000    0.4938689100000000 Ba
   0.9859734300000000    0.7500000000000000    0.2273940600000000 La
   0.0140265700000000    0.2500000000000000    0.7726059400000000 La
   0.4859734300000000    0.7500000000000000    0.2726059400000000 La
   0.5140265700000000    0.2500000000000000    0.7273940600000000 La
   0.7662569200000000    0.7500000000000000    0.7185818200000000 Cu
   0.2337430800000000    0.2500000000000000    0.2814181800000000 Cu
   0.2662569200000000    0.7500000000000000    0.7814181800000000 Cu
   0.7337430800000000    0.2500000000000000    0.2185818200000000 Cu
   0.9501272300000000    0.7500000000000000    0.6277289100000000 S
   0.0498727700000000    0.2500000000000000    0.3722710900000000 S
   0.4501272300000000    0.7500000000000000    0.8722710900000000 S
   0.5498727700000000    0.2500000000000000    0.1277289100000000 S
   0.7443258500000000    0.7500000000000000    0.3146302300000000 S
   0.2556741500000000    0.2500000000000000    0.6853697700000000 S
   0.2443258500000000    0.7500000000000000    0.1853697700000000 S
   0.7556741500000000    0.2500000000000000    0.8146302300000000 S
   0.6064071599999999    0.7500000000000000    0.6007315000000000 S
   0.3935928400000000    0.2500000000000000    0.3992685000000000 S
   0.1064071600000000    0.7500000000000000    0.8992685000000000 S
   0.8935928400000001    0.2500000000000000    0.1007315000000000 S
