In4 P6 Se18
1.0
   6.3654915299999999    0.0001476200000000    0.0008832000000000
   0.0700859300000000    7.6020209400000001   -0.0001377100000000
   3.0698561600000001    0.3509536200000000   14.5224613700000003
In P Se
4 6 18
direct
   0.5603524800000000    0.3831687000000000    0.8793100800000000 In
   0.2168970200000000    0.0732198100000000    0.5672736100000000 In
   0.4396475200000000    0.6168313000000000    0.1206899200000000 In
   0.7831029800000000    0.9267801900000000    0.4327263900000000 In
   0.3176049100000000    0.7012868200000000    0.3696141000000000 P
   0.9717287800000000    0.3700661500000000    0.0384323900000000 P
   0.6544226100000000    0.0339236100000000    0.7046276400000000 P
   0.3455773900000000    0.9660763900000000    0.2953723600000000 P
   0.0282712200000000    0.6299338500000000    0.9615676100000000 P
   0.6823950900000000    0.2987131800000000    0.6303859000000001 P
   0.1380450400000000    0.8156691900000000    0.0518024300000000 Se
   0.8317395900000000    0.4715521700000000    0.7131881000000000 Se
   0.4698074800000000    0.1478808200000000    0.3889979800000000 Se
   0.6976253400000000    0.7049779600000000    0.9437237700000000 Se
   0.3588353200000000    0.3809203700000000    0.6192424900000000 Se
   0.0292919300000000    0.0375506900000000    0.2706559700000000 Se
   0.2316042000000000    0.5761507000000000    0.8269197800000000 Se
   0.9085952400000000    0.2559103400000000    0.4954511600000000 Se
   0.5866920100000000    0.9358368600000000    0.1698660400000000 Se
   0.8619549600000000    0.1843308100000000    0.9481975700000000 Se
   0.5301925199999999    0.8521191800000000    0.6110020200000000 Se
   0.1682604100000000    0.5284478300000000    0.2868119000000000 Se
   0.3023746600000000    0.2950220400000000    0.0562762300000000 Se
   0.9707080700000000    0.9624493100000000    0.7293440300000000 Se
   0.6411646800000000    0.6190796300000000    0.3807575100000000 Se
   0.7683958000000000    0.4238493000000000    0.1730802200000000 Se
   0.4133079900000000    0.0641631400000000    0.8301339599999999 Se
   0.0914047600000000    0.7440896600000000    0.5045488400000000 Se
