Sr4 Sn4 S12
1.0
   8.1199453699999999    0.0000000000000000    0.0000000000000000
   0.0000000000000000    3.8720346000000001    0.0000000000000000
   0.0000000000000000    0.0000000000000000   14.1275799099999997
Sr Sn S
4 4 12
direct
   0.4171564800000000    0.2500000000000000    0.6766122400000000 Sr
   0.5828435199999999    0.7500000000000000    0.3233877600000000 Sr
   0.0828435200000000    0.7500000000000000    0.1766122400000000 Sr
   0.9171564800000001    0.2500000000000000    0.8233877600000000 Sr
   0.1738372700000000    0.2500000000000000    0.4401568000000000 Sn
   0.8261627300000000    0.7500000000000000    0.5598432000000000 Sn
   0.3261627300000000    0.7500000000000000    0.9401568000000000 Sn
   0.6738372700000000    0.2500000000000000    0.0598432000000000 Sn
   0.0298383500000000    0.2500000000000000    0.6059145900000000 S
   0.9701616500000000    0.7500000000000000    0.3940854100000000 S
   0.4701616500000000    0.7500000000000000    0.1059145900000000 S
   0.5298383500000000    0.2500000000000000    0.8940854100000000 S
   0.1460120400000000    0.2500000000000000    0.0029488100000000 S
   0.8539879600000000    0.7500000000000000    0.9970511900000000 S
   0.3539879600000000    0.7500000000000000    0.5029488100000000 S
   0.6460120400000000    0.2500000000000000    0.4970511900000000 S
   0.3031382600000000    0.2500000000000000    0.2824629700000000 S
   0.6968617400000000    0.7500000000000000    0.7175370300000000 S
   0.1968617400000000    0.7500000000000000    0.7824629700000000 S
   0.8031382600000000    0.2500000000000000    0.2175370300000000 S
