Cs4 Re4 O16
1.0
   5.7342056899999996    0.0000000000000000    0.0000000000000000
   0.0000000000000000    5.9931512800000002    0.0000000000000000
   0.0000000000000000    0.0000000000000000   14.2545927999999993
Cs Re O
4 4 16
direct
   0.4767267400000000    0.2500000000000000    0.6289594400000000 Cs
   0.9767267400000000    0.2500000000000000    0.8710405600000000 Cs
   0.5232732600000000    0.7500000000000000    0.3710405600000000 Cs
   0.0232732600000000    0.7500000000000000    0.1289594400000000 Cs
   0.4593084100000000    0.7500000000000000    0.8825499800000000 Re
   0.9593084100000000    0.7500000000000000    0.6174500200000000 Re
   0.5406915900000000    0.2500000000000000    0.1174500200000000 Re
   0.0406915900000000    0.2500000000000000    0.3825499800000000 Re
   0.5186163300000000    0.5121699000000000    0.8158215500000000 O
   0.0186163300000000    0.9878301000000000    0.6841784500000000 O
   0.4813836700000000    0.0121699000000000    0.1841784500000000 O
   0.9813836700000000    0.4878301000000000    0.3158215500000000 O
   0.4813836700000000    0.4878301000000000    0.1841784500000000 O
   0.9813836700000000    0.0121699000000000    0.3158215500000000 O
   0.5186163300000000    0.9878301000000000    0.8158215500000000 O
   0.0186163300000000    0.5121699000000000    0.6841784500000000 O
   0.8353754600000000    0.2500000000000000    0.0848095600000000 O
   0.3353754600000000    0.2500000000000000    0.4151904400000000 O
   0.1646245400000000    0.7500000000000000    0.9151904400000000 O
   0.6646245400000000    0.7500000000000000    0.5848095600000000 O
   0.8650510800000000    0.2500000000000000    0.4825756200000000 O
   0.3650510800000000    0.2500000000000000    0.0174243800000000 O
   0.1349489200000000    0.7500000000000000    0.5174243800000000 O
   0.6349489200000000    0.7500000000000000    0.9825756200000000 O
