Rb2 Hf2 O5
1.0
   4.0813823600000001    0.0000000000000000    0.0000000000000000
   0.0000000000000000    4.0813823600000001    0.0000000000000000
   0.0000000000000000    0.0000000000000000    8.9933280999999994
Rb Hf O
2 2 5
direct
   0.0000000000000000    0.0000000000000000    0.0000000000000000 Rb
   0.0000000000000000    0.0000000000000000    0.5000000000000000 Rb
   0.5000000000000000    0.5000000000000000    0.2754465000000000 Hf
   0.5000000000000000    0.5000000000000000    0.7245535000000000 Hf
   0.5000000000000000    0.0000000000000000    0.2320076600000000 O
   0.5000000000000000    0.0000000000000000    0.7679923400000001 O
   0.5000000000000000    0.5000000000000000    0.5000000000000000 O
   0.0000000000000000    0.5000000000000000    0.2320076600000000 O
   0.0000000000000000    0.5000000000000000    0.7679923400000001 O
