Ba4 Nb2 W1 O12
1.0
   2.8958939199999998    1.6719453000000000    9.3964758199999991
  -2.8958939199999998    1.6719453000000000    9.3964758199999991
   0.0000000000000000   -3.3438896100000002    9.3964758199999991
Ba Nb W O
4 2 1 12
direct
   0.2896218200000000    0.2896218200000000    0.2896218200000000 Ba
   0.7122722500000001    0.7122722500000001    0.7122722500000001 Ba
   0.1348637100000000    0.1348637100000000    0.1348637100000000 Ba
   0.8634711100000000    0.8634711100000000    0.8634711100000000 Ba
   0.0001234400000000    0.0001234400000000    0.0001234400000000 Nb
   0.4232907300000000    0.4232907300000000    0.4232907300000000 Nb
   0.5789969500000000    0.5789969500000000    0.5789969500000000 W
   0.2982375700000000    0.7881802100000000    0.7881802100000000 O
   0.7881802100000000    0.7881802100000000    0.2982375700000000 O
   0.7881802100000000    0.2982375700000000    0.7881802100000000 O
   0.7087385600000000    0.2041616800000000    0.2041616800000000 O
   0.2041616800000000    0.2041616800000000    0.7087385600000000 O
   0.2041616800000000    0.7087385600000000    0.2041616800000000 O
   0.1219785800000000    0.6210298300000000    0.6210298300000000 O
   0.6210298300000000    0.6210298300000000    0.1219785800000000 O
   0.6210298300000000    0.1219785800000000    0.6210298300000000 O
   0.8644335300000000    0.3886146600000000    0.3886146600000000 O
   0.3886146600000000    0.3886146600000000    0.8644335300000000 O
   0.3886146600000000    0.8644335300000000    0.3886146600000000 O
