Ag12 As4 S12
1.0
   5.9015272999999997   -3.1224227600000001    0.0037629400000000
   5.9015272999999997    3.1224227600000001    0.0037629400000000
  -5.7590981100000000    0.0000000000000000   15.4002491799999994
Ag As S
12 4 12
direct
   0.4648676100000000    0.8793358400000000    0.7811458200000000 Ag
   0.1206641600000000    0.5351323900000000    0.7188541800000000 Ag
   0.7813587100000000    0.1762409200000000    0.8643000500000000 Ag
   0.2186412900000000    0.8237590800000000    0.1356999500000000 Ag
   0.6874064400000000    0.0502289400000000    0.0634798700000000 Ag
   0.0502289400000000    0.6874064400000000    0.5634798700000000 Ag
   0.5351323900000000    0.1206641600000000    0.2188541800000000 Ag
   0.9497710600000000    0.3125935600000000    0.4365201300000000 Ag
   0.8237590800000000    0.2186412900000000    0.6356999500000000 Ag
   0.3125935600000000    0.9497710600000000    0.9365201300000000 Ag
   0.8793358400000000    0.4648676100000000    0.2811458200000000 Ag
   0.1762409200000000    0.7813587100000000    0.3643000500000000 Ag
   0.1347418500000000    0.5119996700000000    0.9326776600000000 As
   0.4880003300000000    0.8652581499999999    0.5673223400000000 As
   0.5119996700000000    0.1347418500000000    0.4326776600000000 As
   0.8652581499999999    0.4880003300000000    0.0673223400000000 As
   0.1254066000000000    0.2332943400000000    0.5856521600000000 S
   0.0537146300000000    0.2498096900000000    0.8215437100000000 S
   0.4523729000000000    0.6422039700000000    0.6358030800000000 S
   0.3577960300000000    0.5476271000000000    0.8641969200000000 S
   0.7501903100000000    0.9462853700000000    0.6784562900000000 S
   0.5476271000000000    0.3577960300000000    0.3641969200000000 S
   0.6422039700000000    0.4523729000000000    0.1358030800000000 S
   0.9462853700000000    0.7501903100000000    0.1784562900000000 S
   0.2332943400000000    0.1254066000000000    0.0856521600000000 S
   0.7667056600000000    0.8745934000000000    0.9143478400000000 S
   0.8745934000000000    0.7667056600000000    0.4143478400000000 S
   0.2498096900000000    0.0537146300000000    0.3215437100000000 S
