Sr1 Sb2 O6
1.0
   5.3036920800000003    0.0000000000000000    0.0000000000000000
  -2.6518460400000001    4.5931323800000001    0.0000000000000000
   0.0000000000000000    0.0000000000000000    5.3807292699999998
Sr Sb O
1 2 6
direct
   0.0000000000000000    0.0000000000000000    0.0000000000000000 Sr
   0.3333330000000000    0.6666670000000000    0.5000000000000000 Sb
   0.6666670000000000    0.3333330000000000    0.5000000000000000 Sb
   0.3762030900000000    0.3762030900000000    0.7078673000000000 O
   0.6237969100000000    0.0000000000000000    0.7078673000000000 O
   0.0000000000000000    0.6237969100000000    0.7078673000000000 O
   0.3762030900000000    0.0000000000000000    0.2921327000000000 O
   0.0000000000000000    0.3762030900000000    0.2921327000000000 O
   0.6237969100000000    0.6237969100000000    0.2921327000000000 O
