Ta2 Re2 O12
1.0
   5.3280086300000002    0.0000000000000000    0.0021021800000000
   0.0000000000000000    7.4990314099999997    0.0000000000000000
  -0.0062051900000000    0.0000000000000000    5.4425182599999999
Ta Re O
2 2 12
direct
   0.0000000000000000    0.0000000000000000    0.5000000000000000 Ta
   0.0000000000000000    0.5000000000000000    0.5000000000000000 Ta
   0.5000000000000000    0.0000000000000000    0.0000000000000000 Re
   0.5000000000000000    0.5000000000000000    0.0000000000000000 Re
   0.2458595200000000    0.4629088100000000    0.7728519200000000 O
   0.7271327000000000    0.5358730200000000    0.7472114200000000 O
   0.7541404800000000    0.5370911900000001    0.2271480800000000 O
   0.2728673000000000    0.0358730200000000    0.2527885800000000 O
   0.9203614700000000    0.2500000000000000    0.4949199600000000 O
   0.2728673000000000    0.4641269800000000    0.2527885800000000 O
   0.7271327000000000    0.9641269800000000    0.7472114200000000 O
   0.2458595200000000    0.0370911900000000    0.7728519200000000 O
   0.4287457700000000    0.7500000000000000    0.0023958800000000 O
   0.7541404800000000    0.9629088099999999    0.2271480800000000 O
   0.5712542300000000    0.2500000000000000    0.9976041200000000 O
   0.0796385300000000    0.7500000000000000    0.5050800400000000 O
