Sc2 Cu6 S6
1.0
   3.2285993300000002    1.8640321099999999    6.0304763799999996
  -3.2285992900000000    1.8640321799999999    6.0304763799999996
  -0.0000000400000000   -3.7280652999999999    6.0304763799999996
Sc Cu S
2 6 6
direct
   0.8336649699999999    0.8336649699999999    0.8336649699999999 Sc
   0.1663350300000000    0.1663350300000000    0.1663350300000000 Sc
   0.2881823400000000    0.9594134900000000    0.6242725900000000 Cu
   0.6242725900000000    0.2881823400000000    0.9594134900000000 Cu
   0.9594134900000000    0.6242725900000000    0.2881823400000000 Cu
   0.0405865100000000    0.3757274100000000    0.7118176600000000 Cu
   0.3757274100000000    0.7118176600000000    0.0405865100000000 Cu
   0.7118176600000000    0.0405865100000000    0.3757274100000000 Cu
   0.0843819400000000    0.7563371100000000    0.4221227200000000 S
   0.7563371100000000    0.4221227200000000    0.0843819400000000 S
   0.4221227200000000    0.0843819400000000    0.7563371100000000 S
   0.5778772800000000    0.9156180600000000    0.2436628900000000 S
   0.2436628900000000    0.5778772800000000    0.9156180600000000 S
   0.9156180600000000    0.2436628900000000    0.5778772800000000 S
