Ba8 Cd4 Se12
1.0
   9.2119812900000007    0.0000000000000000    0.0000000000000000
   0.0000000000000000    4.4712913299999997    0.0000000000000000
   0.0000000000000000    0.0000000000000000   17.7999581199999994
Ba Cd Se
8 4 12
direct
   0.2591144400000000    0.2500000000000000    0.4602613100000000 Ba
   0.2408855600000000    0.7500000000000000    0.9602613100000000 Ba
   0.7591144399999999    0.2500000000000000    0.0397386900000000 Ba
   0.7408855600000001    0.7500000000000000    0.5397386900000000 Ba
   0.9233520600000000    0.2500000000000000    0.7853050300000000 Ba
   0.0766479400000000    0.7500000000000000    0.2146949700000000 Ba
   0.4233520600000000    0.2500000000000000    0.7146949700000000 Ba
   0.5766479400000000    0.7500000000000000    0.2853050300000000 Ba
   0.6254714600000000    0.7500000000000000    0.8666548900000000 Cd
   0.1254714600000000    0.7500000000000000    0.6333451100000000 Cd
   0.3745285400000000    0.2500000000000000    0.1333451100000000 Cd
   0.8745285400000000    0.2500000000000000    0.3666548900000000 Cd
   0.4865470800000000    0.2500000000000000    0.9046883500000000 Se
   0.5134529200000000    0.7500000000000000    0.0953116500000000 Se
   0.9865470800000000    0.2500000000000000    0.5953116500000000 Se
   0.0134529200000000    0.7500000000000000    0.4046883500000000 Se
   0.6148813800000000    0.2500000000000000    0.4279194500000000 Se
   0.3851186200000000    0.7500000000000000    0.5720805500000000 Se
   0.1148813800000000    0.2500000000000000    0.0720805500000000 Se
   0.6883166800000000    0.7500000000000000    0.7220149400000000 Se
   0.8116833200000000    0.2500000000000000    0.2220149400000000 Se
   0.1883166800000000    0.7500000000000000    0.7779850600000000 Se
   0.3116833200000000    0.2500000000000000    0.2779850600000000 Se
   0.8851186200000000    0.7500000000000000    0.9279194500000000 Se
