Ca1 Cd1 C2 O6
1.0
   2.4925706900000000    1.4390866200000001    5.4827311099999996
  -2.4925706800000000    1.4390866499999999    5.4827311099999996
  -0.0000000200000000   -2.8781722900000002    5.4827311200000004
Ca Cd C O
1 1 2 6
direct
   0.0000000000000000    0.0000000000000000    0.0000000000000000 Ca
   0.5000000000000000    0.5000000000000000    0.5000000000000000 Cd
   0.2474982500000000    0.2474982500000000    0.2474982500000000 C
   0.7525017500000000    0.7525017500000000    0.7525017500000000 C
   0.9888881400000000    0.2476733600000000    0.5081647000000000 O
   0.5081647000000000    0.9888881400000000    0.2476733600000000 O
   0.2476733600000000    0.5081647000000000    0.9888881400000000 O
   0.0111118600000000    0.7523266400000000    0.4918353000000000 O
   0.4918353000000000    0.0111118600000000    0.7523266400000000 O
   0.7523266400000000    0.4918353000000000    0.0111118600000000 O
