Si6 Bi8 O24
1.0
  -5.1327633400000003    5.1327633400000003    5.1327633400000003
   5.1327633400000003   -5.1327633400000003    5.1327633400000003
   5.1327633400000003    5.1327633400000003   -5.1327633400000003
Si Bi O
6 8 24
direct
   0.6250000000000000    0.3750000000000000    0.2500000000000000 Si
   0.3750000000000000    0.2500000000000000    0.6250000000000000 Si
   0.2500000000000000    0.6250000000000000    0.3750000000000000 Si
   0.8750000000000000    0.1250000000000000    0.7500000000000000 Si
   0.7500000000000000    0.8750000000000000    0.1250000000000000 Si
   0.1250000000000000    0.7500000000000000    0.8750000000000000 Si
   0.5000000000000000    0.0000000000000000    0.3382242200000000 Bi
   0.3382242200000000    0.5000000000000000    0.0000000000000000 Bi
   0.8382242200000000    0.5000000000000000    0.0000000000000000 Bi
   0.6617757800000000    0.6617757800000000    0.6617757800000000 Bi
   0.0000000000000000    0.8382242200000000    0.5000000000000000 Bi
   0.0000000000000000    0.3382242200000000    0.5000000000000000 Bi
   0.5000000000000000    0.0000000000000000    0.8382242200000000 Bi
   0.1617757800000000    0.1617757800000000    0.1617757800000000 Bi
   0.3496795700000000    0.1906255100000000    0.4186510700000000 O
   0.9186510700000000    0.6906255100000001    0.8496795700000001 O
   0.0813489300000000    0.2719744400000000    0.9310285000000000 O
   0.8496795700000001    0.9186510700000000    0.6906255100000001 O
   0.9310285000000000    0.0813489300000000    0.2719744400000000 O
   0.6906255100000001    0.8496795700000001    0.9186510700000000 O
   0.5813489300000000    0.4310285000000000    0.7719744400000000 O
   0.8093744899999999    0.7280255600000000    0.1590540600000000 O
   0.1503204300000000    0.5689715000000000    0.8409459400000000 O
   0.3409459400000000    0.0689715000000000    0.6503204299999999 O
   0.2719744400000000    0.9310285000000000    0.0813489300000000 O
   0.3093744900000000    0.6590540600000000    0.2280255600000000 O
   0.7719744400000000    0.5813489300000000    0.4310285000000000 O
   0.1590540600000000    0.8093744899999999    0.7280255600000000 O
   0.4310285000000000    0.7719744400000000    0.5813489300000000 O
   0.6503204299999999    0.3409459400000000    0.0689715000000000 O
   0.0689715000000000    0.6503204299999999    0.3409459400000000 O
   0.5689715000000000    0.8409459400000000    0.1503204300000000 O
   0.1906255100000000    0.4186510700000000    0.3496795700000000 O
   0.7280255600000000    0.1590540600000000    0.8093744899999999 O
   0.2280255600000000    0.3093744900000000    0.6590540600000000 O
   0.6590540600000000    0.2280255600000000    0.3093744900000000 O
   0.4186510700000000    0.3496795700000000    0.1906255100000000 O
   0.8409459400000000    0.1503204300000000    0.5689715000000000 O
