Sr6 Y1 Sc1 B6 O18
1.0
   6.0892910699999998    3.5156550300000000    3.0825216800000002
  -6.0892923000000003    3.5156529000000001    3.0825216800000002
   0.0000012300000000   -7.0313089099999999    3.0825216700000002
Sr Y Sc B O
6 1 1 6 18
direct
   0.7360587800000000    0.8388714000000000    0.3517084100000000 Sr
   0.3517084100000000    0.7360587800000000    0.8388714000000000 Sr
   0.8388714000000000    0.3517084100000000    0.7360587800000000 Sr
   0.2639412200000000    0.1611286000000000    0.6482915900000000 Sr
   0.6482915900000000    0.2639412200000000    0.1611286000000000 Sr
   0.1611286000000000    0.6482915900000000    0.2639412200000000 Sr
   0.0000000000000000    0.0000000000000000    0.0000000000000000 Y
   0.5000000000000000    0.5000000000000000    0.5000000000000000 Sc
   0.0413689600000000    0.2954551700000000    0.3770672500000000 B
   0.3770672500000000    0.0413689600000000    0.2954551700000000 B
   0.2954551700000000    0.3770672500000000    0.0413689600000000 B
   0.6229327500000000    0.9586310400000000    0.7045448300000000 B
   0.7045448300000000    0.6229327500000000    0.9586310400000000 B
   0.9586310400000000    0.7045448300000000    0.6229327500000000 B
   0.4977878900000000    0.2193963500000000    0.4335896800000000 O
   0.4335896800000000    0.4977878900000000    0.2193963500000000 O
   0.0167949000000000    0.7264168400000000    0.8172810800000000 O
   0.7264168400000000    0.8172810800000000    0.0167949000000000 O
   0.8172810800000000    0.0167949000000000    0.7264168400000000 O
   0.1827189200000000    0.9832051000000001    0.2735831600000000 O
   0.9832051000000001    0.2735831600000000    0.1827189200000000 O
   0.2735831600000000    0.1827189200000000    0.9832051000000001 O
   0.0751441600000000    0.8086177000000000    0.5501173700000000 O
   0.8086177000000000    0.5501173700000000    0.0751441600000000 O
   0.5501173700000000    0.0751441600000000    0.8086177000000000 O
   0.9248558400000000    0.1913823000000000    0.4498826300000000 O
   0.1913823000000000    0.4498826300000000    0.9248558400000000 O
   0.4498826300000000    0.9248558400000000    0.1913823000000000 O
   0.7806036500000000    0.5664103200000000    0.5022121100000000 O
   0.5664103200000000    0.5022121100000000    0.7806036500000000 O
   0.5022121100000000    0.7806036500000000    0.5664103200000000 O
   0.2193963500000000    0.4335896800000000    0.4977878900000000 O
