Ge2 Bi4 O10
1.0
   7.8526822699999999   -2.7533388599999999    0.0000000000000000
   7.8526822699999999    2.7533388599999999    0.0000000000000000
   0.0000000000000000    0.0000000000000000    5.3506455900000001
Ge Bi O
2 4 10
direct
   0.6866976000000000    0.3133024000000000    0.7939444000000000 Ge
   0.3133024000000000    0.6866976000000000    0.2939444000000000 Ge
   0.6073867200000000    0.0554001000000000    0.2732751900000000 Bi
   0.3926132800000000    0.9445999000000000    0.7732751900000000 Bi
   0.0554001000000000    0.6073867200000000    0.7732751900000000 Bi
   0.9445999000000000    0.3926132800000000    0.2732751900000000 Bi
   0.2574832200000000    0.2451312600000000    0.0391174300000000 O
   0.7425167800000000    0.7548687400000000    0.5391174300000000 O
   0.2451312600000000    0.2574832200000000    0.5391174300000000 O
   0.7548687400000000    0.7425167800000000    0.0391174300000000 O
   0.7273762900000000    0.0750710400000000    0.8535724400000000 O
   0.2726237100000000    0.9249289600000000    0.3535724400000000 O
   0.3968652900000000    0.6031347100000000    0.9626954599999999 O
   0.6031347100000000    0.3968652900000000    0.4626954600000000 O
   0.9249289600000000    0.2726237100000000    0.8535724400000000 O
   0.0750710400000000    0.7273762900000000    0.3535724400000000 O
