Rb8 Cd12 Se16
1.0
  14.5056752000000007    0.0000000000000000    0.0000000000000000
   0.0000000000000000   10.9409929800000008    0.0000000000000000
   0.0000000000000000    0.0000000000000000    6.7831376900000002
Rb Cd Se
8 12 16
direct
   0.4613145500000000    0.2500000000000000    0.0233913900000000 Rb
   0.0386854500000000    0.7500000000000000    0.5233913900000000 Rb
   0.5386854500000000    0.7500000000000000    0.9766086100000000 Rb
   0.9613145500000000    0.2500000000000000    0.4766086100000000 Rb
   0.5000000000000000    0.5000000000000000    0.5000000000000000 Rb
   0.0000000000000000    0.0000000000000000    0.0000000000000000 Rb
   0.5000000000000000    0.0000000000000000    0.5000000000000000 Rb
   0.0000000000000000    0.5000000000000000    0.0000000000000000 Rb
   0.2445545600000000    0.5947054500000000    0.8140034800000000 Cd
   0.2554454400000000    0.4052945500000000    0.3140034800000000 Cd
   0.7554454400000000    0.0947054500000000    0.1859965200000000 Cd
   0.7445545600000000    0.9052945500000000    0.6859965200000000 Cd
   0.7554454400000000    0.4052945500000000    0.1859965200000000 Cd
   0.7445545600000000    0.5947054500000000    0.6859965200000000 Cd
   0.2445545600000000    0.9052945500000000    0.8140034800000000 Cd
   0.2554454400000000    0.0947054500000000    0.3140034800000000 Cd
   0.7043694700000001    0.2500000000000000    0.7537582800000000 Cd
   0.7956305299999999    0.7500000000000000    0.2537582800000000 Cd
   0.2956305300000000    0.7500000000000000    0.2462417200000000 Cd
   0.2043694700000000    0.2500000000000000    0.7462417200000000 Cd
   0.3641478600000000    0.5370549100000001    0.0936813100000000 Se
   0.1358521400000000    0.4629450900000000    0.5936813100000000 Se
   0.6358521400000000    0.0370549100000000    0.9063186900000000 Se
   0.8641478600000000    0.9629450899999999    0.4063186900000000 Se
   0.6358521400000000    0.4629450900000000    0.9063186900000000 Se
   0.8641478600000000    0.5370549100000001    0.4063186900000000 Se
   0.3641478600000000    0.9629450899999999    0.0936813100000000 Se
   0.1358521400000000    0.0370549100000000    0.5936813100000000 Se
   0.8610165600000000    0.2500000000000000    0.9583540400000000 Se
   0.6389834400000000    0.7500000000000000    0.4583540400000000 Se
   0.1389834400000000    0.7500000000000000    0.0416459600000000 Se
   0.3610165600000000    0.2500000000000000    0.5416459600000000 Se
   0.8503826700000000    0.7500000000000000    0.8897462700000000 Se
   0.3503826700000000    0.7500000000000000    0.6102537300000000 Se
   0.1496173300000000    0.2500000000000000    0.1102537300000000 Se
   0.6496173300000000    0.2500000000000000    0.3897462700000000 Se
