Al4 Pb2 Se8
1.0
   3.0993593700000002   -5.3459498200000004    0.0000000000000000
   3.0993593700000002    5.3459498200000004    0.0000000000000000
   0.0000000000000000    0.0000000000000000   10.7243289399999995
Al Pb Se
4 2 8
direct
   0.2382783000000000    0.7588415100000000    0.5000000000000000 Al
   0.2411584900000000    0.7617216999999999    0.0000000000000000 Al
   0.7588415100000000    0.2382783000000000    0.0000000000000000 Al
   0.7617216999999999    0.2411584900000000    0.5000000000000000 Al
   0.5000000000000000    0.5000000000000000    0.7500000000000000 Pb
   0.5000000000000000    0.5000000000000000    0.2500000000000000 Pb
   0.0000000000000000    0.5000000000000000    0.6727690600000000 Se
   0.1874514500000000    0.3441766800000000    0.0000000000000000 Se
   0.5000000000000000    0.0000000000000000    0.8272309400000000 Se
   0.3441766800000000    0.1874514500000000    0.5000000000000000 Se
   0.6558233200000000    0.8125485500000000    0.5000000000000000 Se
   0.5000000000000000    0.0000000000000000    0.1727690600000000 Se
   0.8125485500000000    0.6558233200000000    0.0000000000000000 Se
   0.0000000000000000    0.5000000000000000    0.3272309400000000 Se
