Na8 Nb4 As4 O24
1.0
   7.2475128599999996   -5.4253905900000001   -0.0180874500000000
   7.2475128599999996    5.4253905900000001   -0.0180874500000000
  -2.3136091099999998    0.0000000000000000    7.0042484500000004
Na Nb As O
8 4 4 24
direct
   0.6468863700000000    0.0703012000000000    0.4340160300000000 Na
   0.0703012000000000    0.6468863700000000    0.9340160300000000 Na
   0.3531136300000000    0.9296988000000000    0.5659839700000000 Na
   0.9934750000000000    0.0065250000000000    0.2500000000000000 Na
   0.9296988000000000    0.3531136300000000    0.0659839700000000 Na
   0.4549107500000000    0.5450892500000000    0.7500000000000000 Na
   0.0065250000000000    0.9934750000000000    0.7500000000000000 Na
   0.5450892500000000    0.4549107500000000    0.2500000000000000 Na
   0.2886076600000000    0.2877107000000000    0.8870664300000000 Nb
   0.2877107000000000    0.2886076600000000    0.3870664300000000 Nb
   0.7122893000000000    0.7113923400000000    0.6129335700000000 Nb
   0.7113923400000000    0.7122893000000000    0.1129335700000000 Nb
   0.9377760100000000    0.3155704400000000    0.5464847300000000 As
   0.3155704400000000    0.9377760100000000    0.0464847300000000 As
   0.6844295600000000    0.0622239900000000    0.9535152700000000 As
   0.0622239900000000    0.6844295600000000    0.4535152700000000 As
   0.4856256500000000    0.3187766300000000    0.4393626000000000 O
   0.5143743500000000    0.6812233700000000    0.5606374000000000 O
   0.4747062500000000    0.7852563000000000    0.0021093500000000 O
   0.8744358600000000    0.1540506900000000    0.5270635100000000 O
   0.7940082899999999    0.6879495300000000    0.8763488500000000 O
   0.2059917100000000    0.3120504700000000    0.1236511500000000 O
   0.0436310100000000    0.3629321800000000    0.7760314100000000 O
   0.1540506900000000    0.8744358600000000    0.0270635100000000 O
   0.3120504700000000    0.2059917100000000    0.6236511500000000 O
   0.6879495300000000    0.7940082899999999    0.3763488500000000 O
   0.6370678200000000    0.9563689900000000    0.7239685900000000 O
   0.6812233700000000    0.5143743500000000    0.0606374000000000 O
   0.2147437000000000    0.5252937500000000    0.4978906500000000 O
   0.0418956600000000    0.2796703600000000    0.3684453200000000 O
   0.2796703600000000    0.0418956600000000    0.8684453200000000 O
   0.1255641400000000    0.8459493100000000    0.4729364900000000 O
   0.7852563000000000    0.4747062500000000    0.5021093500000000 O
   0.9581043400000000    0.7203296400000000    0.6315546800000000 O
   0.8459493100000000    0.1255641400000000    0.9729364900000000 O
   0.3187766300000000    0.4856256500000000    0.9393626000000000 O
   0.9563689900000000    0.6370678200000000    0.2239685900000000 O
   0.7203296400000000    0.9581043400000000    0.1315546800000000 O
   0.5252937500000000    0.2147437000000000    0.9978906500000000 O
   0.3629321800000000    0.0436310100000000    0.2760314100000000 O
