Na2 La2 Mg2 Te2 O12
1.0
   5.5638921300000002    0.0000000000000000   -0.0036899100000000
   0.0000000000000000    5.5326801600000000    0.0000000000000000
  -0.0415279600000000    0.0000000000000000    7.8348646100000003
Na La Mg Te O
2 2 2 2 12
direct
   0.7655558800000000    0.2500000000000000    0.5010239500000000 Na
   0.2344441200000000    0.7500000000000000    0.4989760500000000 Na
   0.7550751200000000    0.2500000000000000    0.9982801900000000 La
   0.2449248800000000    0.7500000000000000    0.0017198100000000 La
   0.7482210500000001    0.7500000000000000    0.2674661300000000 Mg
   0.2517789500000000    0.2500000000000000    0.7325338700000000 Mg
   0.2567927800000000    0.2500000000000000    0.2563318500000000 Te
   0.7432072199999999    0.7500000000000000    0.7436681500000000 Te
   0.1890110800000000    0.2500000000000000    0.0055523600000000 O
   0.8109889200000000    0.7500000000000000    0.9944476400000000 O
   0.3389896600000000    0.2500000000000000    0.4878877600000000 O
   0.6610103400000000    0.7500000000000000    0.5121122400000000 O
   0.0166829200000000    0.4969471000000000    0.2681360300000000 O
   0.9833170800000000    0.9969471000000000    0.7318639700000000 O
   0.9833170800000000    0.5030529000000000    0.7318639700000000 O
   0.0166829200000000    0.0030529000000000    0.2681360300000000 O
   0.5028691800000000    0.5079803300000000    0.8033813100000000 O
   0.4971308200000000    0.0079803300000000    0.1966186900000000 O
   0.4971308200000000    0.4920196700000000    0.1966186900000000 O
   0.5028691800000000    0.9920196700000000    0.8033813100000000 O
