Ba4 Ge8 O20
1.0
   2.7866323199999998   -4.9708876799999997    0.0000000000000000
   2.7866323199999998    4.9708876799999997    0.0000000000000000
   0.0000000000000000    0.0000000000000000   14.3525447300000000
Ba Ge O
4 8 20
direct
   0.1631037900000000    0.8368962100000000    0.5815328600000000 Ba
   0.8368962100000000    0.1631037900000000    0.4184671400000000 Ba
   0.3368962100000000    0.6631037900000000    0.0815328600000000 Ba
   0.6631037900000000    0.3368962100000000    0.9184671400000000 Ba
   0.4955983700000000    0.5044016300000000    0.6405935699999999 Ge
   0.5044016300000000    0.4955983700000000    0.3594064300000000 Ge
   0.0044016300000000    0.9955983700000000    0.1405935700000000 Ge
   0.9955983700000000    0.0044016300000000    0.8594064300000001 Ge
   0.8279767600000000    0.1720232400000000    0.6808942900000000 Ge
   0.1720232400000000    0.8279767600000000    0.3191057100000000 Ge
   0.6720232400000000    0.3279767600000000    0.1808942900000000 Ge
   0.3279767600000000    0.6720232400000000    0.8191057100000000 Ge
   0.3338627000000000    0.1503442400000000    0.4084659500000000 O
   0.1503442400000000    0.3338627000000000    0.5915340500000000 O
   0.1661373000000000    0.3496557600000000    0.9084659500000000 O
   0.3496557600000000    0.1661373000000000    0.0915340500000000 O
   0.6661373000000000    0.8496557600000000    0.5915340500000000 O
   0.8496557600000000    0.6661373000000000    0.4084659500000000 O
   0.8338627000000000    0.6503442400000000    0.0915340500000000 O
   0.6503442400000000    0.8338627000000000    0.9084659500000000 O
   0.0018400400000000    0.4981599600000000    0.7500000000000000 O
   0.4981599600000000    0.0018400400000000    0.2500000000000000 O
   0.9981599600000000    0.5018400400000000    0.2500000000000000 O
   0.5018400400000000    0.9981599600000000    0.7500000000000000 O
   0.4970183700000000    0.5029816300000000    0.7632953500000000 O
   0.5029816300000000    0.4970183700000000    0.2367046500000000 O
   0.0029816300000000    0.9970183700000000    0.2632953500000000 O
   0.9970183700000000    0.0029816300000000    0.7367046500000000 O
   0.1681361900000000    0.8318638100000000    0.9015804900000000 O
   0.8318638100000000    0.1681361900000000    0.0984195100000000 O
   0.3318638100000000    0.6681361900000000    0.4015804900000000 O
   0.6681361900000000    0.3318638100000000    0.5984195100000000 O
