Ba4 V4 P4 O24
1.0
   5.6911429599999996    0.0000000000000000   -0.0062287100000000
   0.0000000000000000    9.9941489299999997    0.0000000000000000
  -0.1477976800000000    0.0000000000000000    8.7037500500000000
Ba V P O
4 4 4 24
direct
   0.1434794200000000    0.1919715000000000    0.5889829400000000 Ba
   0.8565205800000000    0.6919715000000000    0.9110170600000000 Ba
   0.8565205800000000    0.8080285000000000    0.4110170600000000 Ba
   0.1434794200000000    0.3080285000000000    0.0889829400000000 Ba
   0.6471475300000000    0.0902198800000000    0.9174278300000001 V
   0.3528524700000000    0.5902198800000000    0.5825721699999999 V
   0.3528524700000000    0.9097801200000000    0.0825721700000000 V
   0.6471475300000000    0.4097801200000000    0.4174278300000000 V
   0.3487937700000000    0.8847617900000000    0.7172472100000000 P
   0.6512062300000000    0.3847617900000000    0.7827527900000000 P
   0.6512062300000000    0.1152382100000000    0.2827527900000000 P
   0.3487937700000000    0.6152382100000000    0.2172472100000000 P
   0.1307109300000000    0.9170255600000000    0.6212681400000000 O
   0.8692890700000000    0.4170255600000000    0.8787318600000000 O
   0.8692890700000000    0.0829744400000000    0.3787318600000000 O
   0.1307109300000000    0.5829744400000000    0.1212681400000000 O
   0.3160045000000000    0.0697005000000000    0.0139837500000000 O
   0.6839955000000000    0.5697005000000001    0.4860162500000000 O
   0.6839955000000000    0.9302994999999999    0.9860162500000000 O
   0.3160045000000000    0.4302995000000000    0.5139837500000000 O
   0.9006365300000000    0.1342483100000000    0.8437050100000000 O
   0.0993634700000000    0.6342483100000000    0.6562949900000000 O
   0.0993634700000000    0.8657516900000000    0.1562949900000000 O
   0.9006365300000000    0.3657516900000000    0.3437050100000000 O
   0.7176145700000000    0.3309057000000000    0.6194811700000000 O
   0.2823854300000000    0.8309057000000000    0.8805188300000000 O
   0.2823854300000000    0.6690943000000000    0.3805188300000000 O
   0.7176145700000000    0.1690943000000000    0.1194811700000000 O
   0.4901810700000000    0.4804363400000000    0.2322610200000000 O
   0.5098189300000000    0.9804363400000000    0.2677389800000000 O
   0.5098189300000000    0.5195636600000000    0.7677389800000000 O
   0.4901810700000000    0.0195636600000000    0.7322610200000000 O
   0.4895584200000000    0.2234887300000000    0.3550573900000000 O
   0.5104415800000000    0.7234887300000000    0.1449426100000000 O
   0.5104415800000000    0.7765112700000000    0.6449426100000000 O
   0.4895584200000000    0.2765112700000000    0.8550573900000000 O
