Ca2 Cr2 O8
1.0
  -3.6141567700000001    3.6141567700000001    3.1072872000000000
   3.6141567700000001   -3.6141567700000001    3.1072872000000000
   3.6141567700000001    3.6141567700000001   -3.1072872000000000
Ca Cr O
2 2 8
direct
   0.0000000000000000    0.0000000000000000    0.0000000000000000 Ca
   0.7500000000000000    0.2500000000000000    0.5000000000000000 Ca
   0.2500000000000000    0.7500000000000000    0.5000000000000000 Cr
   0.5000000000000000    0.5000000000000000    0.0000000000000000 Cr
   0.6622454600000000    0.4812730400000000    0.8190275800000000 O
   0.5932168799999999    0.9122454600000000    0.6809724200000000 O
   0.2312730400000000    0.9122454600000000    0.3190275800000000 O
   0.6622454600000000    0.8432168799999999    0.1809724200000000 O
   0.1567831200000000    0.3377545400000000    0.8190275800000000 O
   0.0877545400000000    0.7687269600000000    0.6809724200000000 O
   0.0877545400000000    0.4067831200000000    0.3190275800000000 O
   0.5187269600000000    0.3377545400000000    0.1809724200000000 O
