Na2 Ag6 O4
1.0
  -2.9896557800000001    5.2025181700000003    2.9291275899999998
   2.9896557800000001   -5.2025181700000003    2.9291275899999998
   2.9896557800000001    5.2025181700000003   -2.9291275899999998
Na Ag O
2 6 4
direct
   0.2500000000000000    0.7500000000000000    0.5000000000000000 Na
   0.7500000000000000    0.2500000000000000    0.5000000000000000 Na
   0.0000000000000000    0.5000000000000000    0.0000000000000000 Ag
   0.5000000000000000    0.5000000000000000    0.5000000000000000 Ag
   0.5000000000000000    0.0000000000000000    0.0000000000000000 Ag
   0.5000000000000000    0.5000000000000000    0.0000000000000000 Ag
   0.0000000000000000    0.0000000000000000    0.0000000000000000 Ag
   0.0000000000000000    0.0000000000000000    0.5000000000000000 Ag
   0.3891089300000000    0.2095686300000000    0.5986775600000001 O
   0.8891089300000000    0.2904313700000000    0.1795402900000000 O
   0.1108910700000000    0.7095686300000000    0.8204597100000000 O
   0.6108910700000000    0.7904313700000000    0.4013224400000000 O
