Cd2 P2 Se6
1.0
   3.2384879999999998    1.8697398400000000    6.6579727899999996
  -3.2384860999999998    1.8697431300000000    6.6579727899999996
  -0.0000019000000000   -3.7394829700000001    6.6579727899999996
Cd P Se
2 2 6
direct
   0.1783422300000000    0.1783422300000000    0.1783422300000000 Cd
   0.8216577700000000    0.8216577700000000    0.8216577700000000 Cd
   0.4434129200000000    0.4434129200000000    0.4434129200000000 P
   0.5565870800000000    0.5565870800000000    0.5565870800000000 P
   0.3840133800000000    0.7501235500000000    0.1005486900000000 Se
   0.7501235500000000    0.1005486900000000    0.3840133800000000 Se
   0.1005486900000000    0.3840133800000000    0.7501235500000000 Se
   0.6159866200000000    0.2498764500000000    0.8994513100000000 Se
   0.2498764500000000    0.8994513100000000    0.6159866200000000 Se
   0.8994513100000000    0.6159866200000000    0.2498764500000000 Se
