Rb2 Te1 Se4
1.0
   5.4282515499999997   -4.3055969400000000   -0.0969158400000000
   5.4282515499999997    4.3055969400000000   -0.0969158400000000
  -2.3606851600000001    0.0000000000000000    4.7196071599999998
Rb Te Se
2 1 4
direct
   0.6760541600000000    0.6760541600000000    0.3374501200000000 Rb
   0.3239458400000000    0.3239458400000000    0.6625498800000000 Rb
   0.0000000000000000    0.0000000000000000    0.0000000000000000 Te
   0.1476242700000000    0.6776384300000000    0.2536560000000000 Se
   0.6776384300000000    0.1476242700000000    0.2536560000000000 Se
   0.8523757300000000    0.3223615700000000    0.7463440000000000 Se
   0.3223615700000000    0.8523757300000000    0.7463440000000000 Se
