Ba2 Mg1 B6 O12
1.0
   3.5369623600000000    2.0420666399999998    5.5126403399999999
  -3.5369623099999998    2.0420667199999998    5.5126403399999999
  -0.0000000500000000   -4.0841323899999997    5.5126403499999999
Ba Mg B O
2 1 6 12
direct
   0.7885652100000000    0.7885652100000000    0.7885652100000000 Ba
   0.2114347900000000    0.2114347900000000    0.2114347900000000 Ba
   0.0000000000000000    0.0000000000000000    0.0000000000000000 Mg
   0.6372351400000000    0.3558658300000000    0.2429107300000000 B
   0.3558658300000000    0.2429107300000000    0.6372351400000000 B
   0.2429107300000000    0.6372351400000000    0.3558658300000000 B
   0.3627648600000000    0.6441341700000000    0.7570892700000000 B
   0.6441341700000000    0.7570892700000000    0.3627648600000000 B
   0.7570892700000000    0.3627648600000000    0.6441341700000000 B
   0.0820375900000000    0.8437614400000000    0.3130765100000000 O
   0.8437614400000000    0.3130765100000000    0.0820375900000000 O
   0.3130765100000000    0.0820375900000000    0.8437614400000000 O
   0.9179624100000000    0.1562385600000000    0.6869234900000000 O
   0.1562385600000000    0.6869234900000000    0.9179624100000000 O
   0.6869234900000000    0.9179624100000000    0.1562385600000000 O
   0.4651243500000000    0.5748557100000000    0.1953900900000000 O
   0.5748557100000000    0.1953900900000000    0.4651243500000000 O
   0.1953900900000000    0.4651243500000000    0.5748557100000000 O
   0.5348756500000000    0.4251442900000000    0.8046099100000000 O
   0.4251442900000000    0.8046099100000000    0.5348756500000000 O
   0.8046099100000000    0.5348756500000000    0.4251442900000000 O
