In4 Si2 Ag4 S12
1.0
   6.0672053300000002   -3.5447751500000000   -0.0183258500000000
   6.0672053300000002    3.5447751500000000   -0.0183258500000000
  -4.0591952400000002    0.0000000000000000   11.3725942399999997
In Si Ag S
4 2 4 12
direct
   0.6828436600000000    0.4805854800000000    0.9378208500000000 In
   0.4805854800000000    0.6828436600000000    0.4378208500000000 In
   0.8304189500000000    0.6986739600000000    0.7400113900000000 In
   0.6986739600000000    0.8304189500000000    0.2400113900000000 In
   0.0655969100000000    0.5963038899999999    0.4983400700000000 Si
   0.5963038899999999    0.0655969100000000    0.9983400700000000 Si
   0.6078572100000000    0.1924593900000000    0.5846524500000000 Ag
   0.0095099500000000    0.2014717600000000    0.2482707600000000 Ag
   0.1924593900000000    0.6078572100000000    0.0846524500000000 Ag
   0.2014717600000000    0.0095099500000000    0.7482707600000000 Ag
   0.4043582100000000    0.8880004400000000    0.9522395700000000 S
   0.9098614100000000    0.9004968300000000    0.9455111200000000 S
   0.8347306700000000    0.3465994000000000    0.7525611600000000 S
   0.9004968300000000    0.9098614100000000    0.4455111200000000 S
   0.9492976800000000    0.4749265500000000    0.1280081200000000 S
   0.6393665500000000    0.1732196200000000    0.1836890700000000 S
   0.8880004400000000    0.4043582100000000    0.4522395700000000 S
   0.3465994000000000    0.8347306700000000    0.2525611600000000 S
   0.4749265500000000    0.9492976800000000    0.6280081199999999 S
   0.3970946200000000    0.3507238500000000    0.9159944400000000 S
   0.3507238500000000    0.3970946200000000    0.4159944400000000 S
   0.1732196200000000    0.6393665500000000    0.6836890700000000 S
