Ca2 Ta4 Bi4 O18
1.0
  12.5028275900000008   -2.7169617399999999    0.0000000000000000
  12.5028275900000008    2.7169617399999999    0.0000000000000000
   0.0000000000000000    0.0000000000000000    5.4846447500000002
Ca Ta Bi O
2 4 4 18
direct
   0.2446977200000000    0.7553022800000000    0.4984804200000000 Ca
   0.7553022800000000    0.2446977200000000    0.9984804200000000 Ca
   0.1695338800000000    0.6670907700000001    0.9575469500000000 Ta
   0.8304661200000000    0.3329092300000000    0.4575469500000000 Ta
   0.6670907700000001    0.1695338800000000    0.4575469500000000 Ta
   0.3329092300000000    0.8304661200000000    0.9575469500000000 Ta
   0.9751208600000000    0.4230763400000000    0.0428516300000000 Bi
   0.5769236599999999    0.0248791400000000    0.0428516300000000 Bi
   0.4230763400000000    0.9751208600000000    0.5428516300000000 Bi
   0.0248791400000000    0.5769236599999999    0.5428516300000000 Bi
   0.3269612000000000    0.9838190800000000    0.9560401400000000 O
   0.4702548100000000    0.3557692800000000    0.1453078300000000 O
   0.3317100400000000    0.6682899600000000    0.9288791300000000 O
   0.6682899600000000    0.3317100400000000    0.4288791300000000 O
   0.6442307200000000    0.5297451900000000    0.1453078300000000 O
   0.7403197500000001    0.7577718300000000    0.7723702200000000 O
   0.9838190800000000    0.3269612000000000    0.4560401400000000 O
   0.0216509400000000    0.1004413900000000    0.7372554500000000 O
   0.8995586100000000    0.9783490600000000    0.7372554500000000 O
   0.3557692800000000    0.4702548100000000    0.6453078300000000 O
   0.6730388000000000    0.0161809200000000    0.4560401400000000 O
   0.9783490600000000    0.8995586100000000    0.2372554500000000 O
   0.2596802500000000    0.2422281700000000    0.2723702200000000 O
   0.5297451900000000    0.6442307200000000    0.6453078300000000 O
   0.7577718300000000    0.7403197500000001    0.2723702200000000 O
   0.1004413900000000    0.0216509400000000    0.2372554500000000 O
   0.0161809200000000    0.6730388000000000    0.9560401400000000 O
   0.2422281700000000    0.2596802500000000    0.7723702200000000 O
