Rb8 In8 S16
1.0
   5.5696739700000002   -5.5694062799999999   -0.0015044800000000
   5.5696739700000002    5.5694062799999999   -0.0015044800000000
  -2.7804285900000001    0.0000000000000000   15.3549642899999998
Rb In S
8 8 16
direct
   0.2216332600000000    0.8472045000000000    0.3879529600000000 Rb
   0.3462738100000000    0.2213858600000000    0.8858914600000000 Rb
   0.2213858600000000    0.3462738100000000    0.3858914600000000 Rb
   0.6537261900000000    0.7786141400000000    0.1141085400000000 Rb
   0.8472045000000000    0.2216332600000000    0.8879529600000000 Rb
   0.7783667399999999    0.1527955000000000    0.6120470400000000 Rb
   0.1527955000000000    0.7783667399999999    0.1120470400000000 Rb
   0.7786141400000000    0.6537261900000000    0.6141085400000000 Rb
   0.0864957300000000    0.7100960800000000    0.8405050200000000 In
   0.2899039200000000    0.9135042700000000    0.6594949800000000 In
   0.9135042700000000    0.2899039200000000    0.1594949800000000 In
   0.7100960800000000    0.0864957300000000    0.3405050200000000 In
   0.2899085600000000    0.4161186600000000    0.6595368500000000 In
   0.5838813400000000    0.7100914400000000    0.8404631500000000 In
   0.7100914400000000    0.5838813400000000    0.3404631500000000 In
   0.4161186600000000    0.2899085600000000    0.1595368500000000 In
   0.4258418600000000    0.5741581400000000    0.2500000000000000 S
   0.5741581400000000    0.4258418600000000    0.7500000000000000 S
   0.9490306400000000    0.0509693600000000    0.2500000000000000 S
   0.0509693600000000    0.9490306400000000    0.7500000000000000 S
   0.4258952500000000    0.0509522100000000    0.2500359600000000 S
   0.9490477899999999    0.5741047500000001    0.2499640400000000 S
   0.5741047500000001    0.9490477899999999    0.7499640400000001 S
   0.0509522100000000    0.4258952500000000    0.7500359599999999 S
   0.7350969200000000    0.8596753499999999    0.4387886400000000 S
   0.1403246500000000    0.2649030800000000    0.0612113600000000 S
   0.2649030800000000    0.1403246500000000    0.5612113600000000 S
   0.2649903300000000    0.6398822500000000    0.5601648800000000 S
   0.6398822500000000    0.2649903300000000    0.0601648800000000 S
   0.7350096699999999    0.3601177500000000    0.4398351200000000 S
   0.3601177500000000    0.7350096699999999    0.9398351200000000 S
   0.8596753499999999    0.7350969200000000    0.9387886400000000 S
