Zr2 Si2 O8
1.0
  -3.3317279300000000    3.3317279300000000    3.0056377900000002
   3.3317279300000000   -3.3317279300000000    3.0056377900000002
   3.3317279300000000    3.3317279300000000   -3.0056377900000002
Zr Si O
2 2 8
direct
   0.2500000000000000    0.7500000000000000    0.5000000000000000 Zr
   0.5000000000000000    0.5000000000000000    0.0000000000000000 Zr
   0.7500000000000000    0.2500000000000000    0.5000000000000000 Si
   0.0000000000000000    0.0000000000000000    0.0000000000000000 Si
   0.5697362500000001    0.8861477700000000    0.3164115200000000 O
   0.0033247400000000    0.8197362500000001    0.1835884800000000 O
   0.6361477700000000    0.8197362500000001    0.8164115199999999 O
   0.5697362500000001    0.2533247400000000    0.6835884800000001 O
   0.7466752600000000    0.4302637500000000    0.3164115200000000 O
   0.1802637500000000    0.3638522300000000    0.1835884800000000 O
   0.1802637500000000    0.9966752600000000    0.8164115199999999 O
   0.1138522300000000    0.4302637500000000    0.6835884800000001 O
