Cs2 Nb2 W2 O12
1.0
  -3.6648537499999998    3.7246011399999999    5.2336010200000000
   3.6648537499999998   -3.7246011399999999    5.2336010200000000
   3.6648537499999998    3.7246011399999999   -5.2336010200000000
Cs Nb W O
2 2 2 12
direct
   0.6234871000000000    0.8734871000000000    0.7500000000000000 Cs
   0.3765129000000000    0.1265129000000000    0.2500000000000000 Cs
   0.5000000000000000    0.5000000000000000    0.0000000000000000 Nb
   0.0000000000000000    0.5000000000000000    0.5000000000000000 Nb
   0.0000000000000000    0.5000000000000000    0.0000000000000000 W
   0.0000000000000000    0.0000000000000000    0.5000000000000000 W
   0.0565054700000000    0.8065054699999999    0.2500000000000000 O
   0.6840319500000001    0.4340319500000000    0.2500000000000000 O
   0.0582571900000000    0.8198913400000000    0.6224149300000000 O
   0.6974754000000000    0.4358412600000000    0.8775850700000000 O
   0.6974754000000000    0.8198913400000000    0.2616341500000000 O
   0.0582571900000000    0.4358412600000000    0.2383658500000000 O
   0.9434945300000001    0.1934945300000000    0.7500000000000000 O
   0.3159680500000000    0.5659680499999999    0.7500000000000000 O
   0.9417428100000000    0.1801086600000000    0.3775850700000000 O
   0.3025246000000000    0.5641587400000000    0.1224149300000000 O
   0.3025246000000000    0.1801086600000000    0.7383658500000000 O
   0.9417428100000000    0.5641587400000000    0.7616341500000000 O
