Nb4 Tl2 P2 S20
1.0
   6.9494392400000002    0.0000000000000000   -0.0330016100000000
   0.0000000000000000    7.3214640199999996    0.0000000000000000
  -3.7013756600000001    0.0000000000000000   12.5643366600000004
Nb Tl P S
4 2 2 20
direct
   0.3168574800000000    0.4420103600000000    0.1597845000000000 Nb
   0.3168574800000000    0.5579896400000000    0.6597845000000000 Nb
   0.3244251600000000    0.4346387900000000    0.8706248800000000 Nb
   0.3244251600000000    0.5653612099999999    0.3706248800000000 Nb
   0.7311898700000000    0.9902776400000000    0.6008821100000000 Tl
   0.7311898700000000    0.0097223600000000    0.1008821100000000 Tl
   0.1706346200000000    0.0890255500000000    0.9923170600000000 P
   0.1706346200000000    0.9109744500000000    0.4923170600000000 P
   0.3705426100000000    0.9114920000000000    0.4019269600000000 S
   0.0583694300000000    0.6445606500000000    0.4739531700000000 S
   0.3847612400000000    0.3315467700000000    0.5236339900000000 S
   0.0418629300000000    0.3874379300000000    0.2492088400000000 S
   0.5896388600000000    0.6291288100000000    0.8262649700000000 S
   0.0591000900000000    0.6497202399999999    0.1975838500000000 S
   0.0591000900000000    0.3502797600000000    0.6975838500000000 S
   0.3139617700000000    0.0857323500000000    0.1534057200000000 S
   0.9670969300000000    0.1059850200000000    0.4442112900000000 S
   0.0583694300000000    0.3554393500000000    0.9739531700000000 S
   0.5896388600000000    0.3708711900000000    0.3262649700000000 S
   0.5829560900000000    0.4516975200000000    0.0553927400000000 S
   0.3705426100000000    0.0885080000000000    0.9019269600000001 S
   0.5888529100000000    0.6365250000000000    0.2814899300000000 S
   0.5888529100000000    0.3634750000000000    0.7814899300000000 S
   0.3847612400000000    0.6684532300000000    0.0236339900000000 S
   0.0418629300000000    0.6125620700000000    0.7492088400000000 S
   0.3139617700000000    0.9142676500000000    0.6534057200000000 S
   0.5829560900000000    0.5483024800000000    0.5553927400000001 S
   0.9670969300000000    0.8940149800000000    0.9442112900000000 S
