Li4 Sc4 Si8 O24
1.0
   9.3793171500000003    0.0000000000000000   -0.0473303900000000
   0.0000000000000000    8.9515761900000008    0.0000000000000000
  -1.0928235600000000    0.0000000000000000    5.2254842600000000
Li Sc Si O
4 4 8 24
direct
   0.2478096300000000    0.0006657700000000    0.0120668900000000 Li
   0.2478096300000000    0.4993342300000000    0.5120668900000001 Li
   0.7521903700000000    0.9993342300000000    0.9879331099999999 Li
   0.7521903700000000    0.5006657700000000    0.4879331100000000 Li
   0.2508227300000000    0.1451858900000000    0.5141537800000000 Sc
   0.7491772700000000    0.6451858900000000    0.9858462200000000 Sc
   0.7491772700000000    0.8548141100000000    0.4858462200000000 Sc
   0.2508227300000000    0.3548141100000000    0.0141537800000000 Sc
   0.5498939800000000    0.3365561500000000    0.7865230600000001 Si
   0.4501060200000000    0.8365561500000001    0.7134769399999999 Si
   0.4501060200000000    0.6634438499999999    0.2134769400000000 Si
   0.5498939800000000    0.1634438500000000    0.2865230600000000 Si
   0.0498239100000000    0.8368083100000000    0.2607965400000000 Si
   0.9501760900000000    0.3368083100000000    0.2392034600000000 Si
   0.9501760900000000    0.1631916900000000    0.7392034600000000 Si
   0.0498239100000000    0.6631916900000000    0.7607965400000000 Si
   0.6027549300000000    0.2210211300000000    0.5844123900000000 O
   0.6027549300000000    0.2789788700000000    0.0844123900000000 O
   0.3972450700000000    0.7789788700000000    0.4155876100000000 O
   0.3972450700000000    0.7210211300000000    0.9155876100000000 O
   0.6255852200000001    0.4958245400000000    0.7587133900000000 O
   0.3744147800000000    0.9958245400000000    0.7412866100000000 O
   0.3744147800000000    0.5041754600000000    0.2412866100000000 O
   0.6255852200000001    0.0041754600000000    0.2587133900000000 O
   0.8704214900000000    0.6681564000000000    0.7004265300000000 O
   0.1295785100000000    0.1681564000000000    0.7995734700000000 O
   0.1295785100000000    0.3318436000000000    0.2995734700000000 O
   0.8704214900000000    0.8318436000000000    0.2004265300000000 O
   0.1189074100000000    0.4976494300000000    0.7916595400000001 O
   0.8810925900000000    0.9976494299999999    0.7083404599999999 O
   0.8810925900000000    0.5023505700000001    0.2083404600000000 O
   0.1189074100000000    0.0023505700000000    0.2916595400000000 O
   0.1091150600000000    0.7365263500000000    0.5195277100000000 O
   0.8908849400000000    0.2365263500000000    0.9804722900000000 O
   0.8908849400000000    0.2634736500000000    0.4804722900000000 O
   0.1091150600000000    0.7634736500000000    0.0195277100000000 O
   0.3699450600000000    0.3349182400000000    0.7249542700000000 O
   0.6300549400000000    0.8349182400000000    0.7750457300000000 O
   0.6300549400000000    0.6650817600000000    0.2750457300000000 O
   0.3699450600000000    0.1650817600000000    0.2249542700000000 O
