Cs2 Cu2 O2
1.0
   2.9439226900000000   -5.2022753399999999    0.0000000000000000
   2.9439226900000000    5.2022753399999999    0.0000000000000000
   0.0000000000000000    0.0000000000000000    4.9289683799999997
Cs Cu O
2 2 2
direct
   0.8107286400000000    0.1892713600000000    0.7500000000000000 Cs
   0.1892713600000000    0.8107286400000000    0.2500000000000000 Cs
   0.5000000000000000    0.5000000000000000    0.0000000000000000 Cu
   0.5000000000000000    0.5000000000000000    0.5000000000000000 Cu
   0.3731664900000000    0.6268335100000000    0.7500000000000000 O
   0.6268335100000000    0.3731664900000000    0.2500000000000000 O
