Ba1 Ag2 Sn1 S4
1.0
  -3.4022516999999999    3.5054236099999998    4.0359268799999999
   3.4022516999999999   -3.5054236099999998    4.0359268799999999
   3.4022516999999999    3.5054236099999998   -4.0359268799999999
Ba Ag Sn S
1 2 1 4
direct
   0.0000000000000000    0.0000000000000000    0.0000000000000000 Ba
   0.2931340600000000    0.7931340600000000    0.5000000000000000 Ag
   0.7068659400000000    0.2068659400000000    0.5000000000000000 Ag
   0.5000000000000000    0.5000000000000000    0.0000000000000000 Sn
   0.5272637999999999    0.5320170300000000    0.4025417100000000 S
   0.4727362000000000    0.8752779100000000    0.0047532300000000 S
   0.1294753200000000    0.1247220900000000    0.5974582899999999 S
   0.8705246800000001    0.4679829700000000    0.9952467699999999 S
