Ba2 Mo4 Se4 O22
1.0
   7.9886989499999999   -3.9607807600000000    0.0000000000000000
   7.9886989499999999    3.9607807600000000    0.0000000000000000
   0.0000000000000000    0.0000000000000000    7.8252873300000001
Ba Mo Se O
2 4 4 22
direct
   0.2268516900000000    0.7731483099999999    0.8275846000000000 Ba
   0.7731483099999999    0.2268516900000000    0.3275846000000000 Ba
   0.8442916300000000    0.3716065500000000    0.8408044000000000 Mo
   0.1557083700000000    0.6283934500000000    0.3408044000000000 Mo
   0.6283934500000000    0.1557083700000000    0.8408044000000000 Mo
   0.3716065500000000    0.8442916300000000    0.3408044000000000 Mo
   0.2912754300000000    0.1257815500000000    0.6892703500000000 Se
   0.1257815500000000    0.2912754300000000    0.1892703500000000 Se
   0.8742184500000000    0.7087245700000000    0.6892703500000000 Se
   0.7087245700000000    0.8742184500000000    0.1892703500000000 Se
   0.5686500700000000    0.6120983700000000    0.3688373000000000 O
   0.8188351300000000    0.1811648700000000    0.9216452100000000 O
   0.9120787500000000    0.3685269500000000    0.1039383900000000 O
   0.8640793300000000    0.8495090700000000    0.8459801400000000 O
   0.6314730500000000    0.0879212500000000    0.1039383900000000 O
   0.8507005399999999    0.3241868700000000    0.6241148600000000 O
   0.3241868700000000    0.8507005399999999    0.1241148600000000 O
   0.3685269500000000    0.9120787500000000    0.6039383900000000 O
   0.0423600700000000    0.4887806500000000    0.3162401500000000 O
   0.0879212500000000    0.6314730500000000    0.6039383900000000 O
   0.4313499300000000    0.3879016300000000    0.8688373000000000 O
   0.4887806500000000    0.0423600700000000    0.8162401500000001 O
   0.1504909300000000    0.1359206700000000    0.8459801400000000 O
   0.6120983700000000    0.5686500700000000    0.8688373000000000 O
   0.1492994600000000    0.6758131300000000    0.1241148600000000 O
   0.1811648700000000    0.8188351300000000    0.4216452100000000 O
   0.1359206700000000    0.1504909300000000    0.3459801400000000 O
   0.8495090700000000    0.8640793300000000    0.3459801400000000 O
   0.9576399300000000    0.5112193500000000    0.8162401500000001 O
   0.6758131300000000    0.1492994600000000    0.6241148600000000 O
   0.5112193500000000    0.9576399300000000    0.3162401500000000 O
   0.3879016300000000    0.4313499300000000    0.3688373000000000 O
