Na4 Mg2 Ge2 O8
1.0
   5.3389421500000003    0.0000000000000000    0.0007535500000000
   0.0000000000000000    5.6574449099999997    0.0000000000000000
  -5.3470735300000003    0.0000000000000000    7.0897015200000002
Na Mg Ge O
4 2 2 8
direct
   0.6318734700000000    0.6708492300000000    0.1939472300000000 Na
   0.6318734700000000    0.3291507700000000    0.6939472300000000 Na
   0.3749145700000000    0.8221230800000000    0.4384641500000000 Na
   0.3749145700000000    0.1778769200000000    0.9384641500000001 Na
   0.8707443700000000    0.1824103600000000    0.4441165800000000 Mg
   0.8707443700000000    0.8175896400000000    0.9441165800000000 Mg
   0.1135893100000000    0.3178917300000000    0.1911099800000000 Ge
   0.1135893100000000    0.6821082700000000    0.6911099800000000 Ge
   0.4643699900000000    0.2023742900000000    0.4004327800000000 O
   0.4643699900000000    0.7976257100000000    0.9004327800000000 O
   0.1721610300000000    0.6231823200000000    0.1654158400000000 O
   0.1721610300000000    0.3768176800000000    0.6654158400000000 O
   0.8063113400000000    0.2958917300000000    0.2164727700000000 O
   0.8063113400000000    0.7041082700000000    0.7164727700000000 O
   0.9954579099999999    0.1528356600000000    0.9851686800000000 O
   0.9954579099999999    0.8471643400000000    0.4851686800000000 O
