Ba12 Ge4 S20
1.0
  11.9130457100000005    0.0000000000000000    0.0000000000000000
   0.0000000000000000    9.5512544100000003    0.0000000000000000
   0.0000000000000000    0.0000000000000000    8.5756042899999994
Ba Ge S
12 4 20
direct
   0.6825714200000000    0.5176215100000000    0.9238558300000000 Ba
   0.1825714200000000    0.9823784900000000    0.5761441700000000 Ba
   0.3174285800000000    0.0176215100000000    0.0761441700000000 Ba
   0.8174285800000000    0.4823784900000000    0.4238558300000000 Ba
   0.3174285800000000    0.4823784900000000    0.0761441700000000 Ba
   0.8174285800000000    0.0176215100000000    0.4238558300000000 Ba
   0.6825714200000000    0.9823784900000000    0.9238558300000000 Ba
   0.1825714200000000    0.5176215100000000    0.5761441700000000 Ba
   0.5194189800000000    0.7500000000000000    0.3865097800000000 Ba
   0.0194189800000000    0.7500000000000000    0.1134902200000000 Ba
   0.4805810200000000    0.2500000000000000    0.6134902200000000 Ba
   0.9805810200000000    0.2500000000000000    0.8865097800000000 Ba
   0.9007980799999999    0.7500000000000000    0.6947275600000000 Ge
   0.4007980800000000    0.7500000000000000    0.8052724400000000 Ge
   0.0992019200000000    0.2500000000000000    0.3052724400000000 Ge
   0.5992019200000001    0.2500000000000000    0.1947275600000000 Ge
   0.9458201899999999    0.5585058100000000    0.8225649800000000 S
   0.4458201900000000    0.9414941900000000    0.6774350200000000 S
   0.0541798100000000    0.0585058100000000    0.1774350200000000 S
   0.5541798100000001    0.4414941900000000    0.3225649800000000 S
   0.0541798100000000    0.4414941900000000    0.1774350200000000 S
   0.5541798100000001    0.0585058100000000    0.3225649800000000 S
   0.9458201899999999    0.9414941900000000    0.8225649800000000 S
   0.4458201900000000    0.5585058100000000    0.6774350200000000 S
   0.0010887900000000    0.7500000000000000    0.4785997100000000 S
   0.5010887900000000    0.7500000000000000    0.0214002900000000 S
   0.9989112100000000    0.2500000000000000    0.5214002900000000 S
   0.4989112100000000    0.2500000000000000    0.9785997100000000 S
   0.7161552200000000    0.7500000000000000    0.6521420700000000 S
   0.2161552200000000    0.7500000000000000    0.8478579300000000 S
   0.2838447800000000    0.2500000000000000    0.3478579300000000 S
   0.7838447800000000    0.2500000000000000    0.1521420700000000 S
   0.7637663400000000    0.7500000000000000    0.1833634000000000 S
   0.2637663400000000    0.7500000000000000    0.3166366000000000 S
   0.2362336600000000    0.2500000000000000    0.8166366000000000 S
   0.7362336600000000    0.2500000000000000    0.6833634000000000 S
