Na2 Tl2 O2
1.0
   3.4576909699999998    0.0000000100000000    0.0000000000000000
  -1.7288459700000001    2.9944483200000001    0.0000000000000000
   0.0000000000000000    0.0000000000000000   11.3291484800000006
Na Tl O
2 2 2
direct
   0.6666670000000000    0.3333330000000000    0.8943234200000000 Na
   0.3333330000000000    0.6666670000000000    0.3943234200000000 Na
   0.3333330000000000    0.6666670000000000    0.1158531400000000 Tl
   0.6666670000000000    0.3333330000000000    0.6158531400000000 Tl
   0.0000000000000000    0.0000000000000000    0.9898234400000000 O
   0.0000000000000000    0.0000000000000000    0.4898234400000000 O
