Cd2 Hg4 S2 O12
1.0
   6.8027741300000004   -0.0238352600000000   -0.0500372000000000
   3.2173908500000001    6.4333625899999998   -0.0669765000000000
   2.8833781699999999    0.9218436500000000    6.6983028899999999
Cd Hg S O
2 4 2 12
direct
   0.6674374800000000    0.8708696700000000    0.7769838500000000 Cd
   0.3325625200000000    0.1291303300000000    0.2230161500000000 Cd
   0.1523370800000000    0.3608677800000000    0.7841177200000000 Hg
   0.3464865700000000    0.6341357700000000    0.2152149900000000 Hg
   0.6535134300000000    0.3658642300000000    0.7847850100000000 Hg
   0.8476629200000000    0.6391322200000000    0.2158822800000000 Hg
   0.2046737200000000    0.8638242800000000    0.6957029100000000 S
   0.7953262800000001    0.1361757200000000    0.3042970900000000 S
   0.0368989400000000    0.1002305100000000    0.1741269600000000 O
   0.9631010600000000    0.8997694899999999    0.8258730399999999 O
   0.5540787900000000    0.8001388600000000    0.1344416600000000 O
   0.3460743700000000    0.8125356200000000    0.8294094700000000 O
   0.4459212100000000    0.1998611400000000    0.8655583400000000 O
   0.7891583599999999    0.9384593800000000    0.4384766400000000 O
   0.8484589000000000    0.5327761500000000    0.7292072400000000 O
   0.2108416400000000    0.0615406200000000    0.5615233600000000 O
   0.1515411000000000    0.4672238500000000    0.2707927600000000 O
   0.7040994000000000    0.3116413000000000    0.4187396900000000 O
   0.2959006000000000    0.6883587000000000    0.5812603100000000 O
   0.6539256300000000    0.1874643800000000    0.1705905300000000 O
