Na2 W4 O13
1.0
   8.2424514299999991   -1.8941091699999999    0.0436044300000000
   8.2424514299999991    1.8941091699999999    0.0436044300000000
  -0.8842200099999999    0.0000000000000000    8.3179883100000005
Na W O
2 4 13
direct
   0.7114338200000000    0.7114338200000000    0.6895675000000000 Na
   0.2885661800000000    0.2885661800000000    0.3104325000000000 Na
   0.9125471300000000    0.9125471300000000    0.6330965400000000 W
   0.0874528700000000    0.0874528700000000    0.3669034600000000 W
   0.9024553800000000    0.9024553800000000    0.0229264100000000 W
   0.0975446200000000    0.0975446200000000    0.9770735900000000 W
   0.9971125000000000    0.9971125000000000    0.8449194500000000 O
   0.5928811500000000    0.5928811500000000    0.9921906800000000 O
   0.4216730900000000    0.4216730900000000    0.6453632600000000 O
   0.5783269100000000    0.5783269100000000    0.3546367400000000 O
   0.0000000000000000    0.0000000000000000    0.5000000000000000 O
   0.8275882300000000    0.8275882300000000    0.4890216400000000 O
   0.1724117700000000    0.1724117700000000    0.5109783600000000 O
   0.8272820500000000    0.8272820500000000    0.1553044200000000 O
   0.1562936900000000    0.1562936900000000    0.1902740400000000 O
   0.4071188500000000    0.4071188500000000    0.0078093200000000 O
   0.0028875000000000    0.0028875000000000    0.1550805500000000 O
   0.1727179500000000    0.1727179500000000    0.8446955800000000 O
   0.8437063100000000    0.8437063100000000    0.8097259600000000 O
