Mg2 Cr2 O8
1.0
   2.7429965699999999   -4.1673681100000000    0.0000000000000000
   2.7429965699999999    4.1673681100000000    0.0000000000000000
   0.0000000000000000    0.0000000000000000    6.3649889899999996
Mg Cr O
2 2 8
direct
   0.0000000000000000    0.0000000000000000    0.0000000000000000 Mg
   0.0000000000000000    0.0000000000000000    0.5000000000000000 Mg
   0.3589819500000000    0.6410180500000000    0.7500000000000000 Cr
   0.6410180500000000    0.3589819500000000    0.2500000000000000 Cr
   0.7274469400000000    0.7807891100000000    0.7500000000000000 O
   0.2725530600000000    0.2192108900000000    0.2500000000000000 O
   0.7807891100000000    0.7274469400000000    0.2500000000000000 O
   0.2192108900000000    0.2725530600000000    0.7500000000000000 O
   0.2460532500000000    0.7539467500000000    0.9572948400000000 O
   0.7539467500000000    0.2460532500000000    0.4572948400000000 O
   0.7539467500000000    0.2460532500000000    0.0427051600000000 O
   0.2460532500000000    0.7539467500000000    0.5427051600000000 O
