Ca4 Hf2 O8
1.0
   5.6929880700000002    0.0000000000000000    0.0000000000000000
   0.0000000000000000    9.8237741199999995    0.0000000000000000
   0.0000000000000000    0.0000000000000000    3.2727024199999999
Ca Hf O
4 2 8
direct
   0.0658106600000000    0.3193645200000000    0.5000000000000000 Ca
   0.4341893400000000    0.8193645200000000    0.5000000000000000 Ca
   0.5658106600000000    0.1806354800000000    0.5000000000000000 Ca
   0.9341893400000000    0.6806354800000000    0.5000000000000000 Ca
   0.0000000000000000    0.0000000000000000    0.0000000000000000 Hf
   0.5000000000000000    0.5000000000000000    0.0000000000000000 Hf
   0.1405239100000000    0.8043171099999999    0.0000000000000000 O
   0.2303741700000000    0.0443146600000000    0.5000000000000000 O
   0.2696258300000000    0.5443146600000000    0.5000000000000000 O
   0.3594760900000000    0.3043171100000000    0.0000000000000000 O
   0.6405239100000000    0.6956828900000001    0.0000000000000000 O
   0.7303741700000000    0.4556853400000000    0.5000000000000000 O
   0.7696258300000000    0.9556853400000000    0.5000000000000000 O
   0.8594760900000000    0.1956828900000000    0.0000000000000000 O
