Cs4 Na12 Ti4 O16
1.0
   6.5149811199999998    0.0100081400000000    0.0049279000000000
   1.5355745000000001    8.3428160099999999    0.0151192700000000
   2.6979103800000002    0.9855342499999999   10.8829135899999994
Cs Na Ti O
4 12 4 16
direct
   0.0430324500000000    0.1375755500000000    0.6267427300000000 Cs
   0.9569675500000000    0.8624244500000000    0.3732572700000000 Cs
   0.0239184500000000    0.3808848400000000    0.8763567400000000 Cs
   0.9760815500000000    0.6191151600000000    0.1236432600000000 Cs
   0.2007438500000000    0.1705286600000000    0.1456078600000000 Na
   0.7992561500000001    0.8294713400000000    0.8543921400000000 Na
   0.5108184400000000    0.6692983100000000    0.3897714400000000 Na
   0.4891815600000000    0.3307016900000000    0.6102285600000000 Na
   0.1842524600000000    0.4452155900000000    0.3970836000000000 Na
   0.5410199700000000    0.4304373800000000    0.1248338900000000 Na
   0.1953207800000000    0.9449768100000000    0.8953712000000000 Na
   0.8046792200000000    0.0550231900000000    0.1046288000000000 Na
   0.5699160599999999    0.9572355600000000    0.6243112199999999 Na
   0.4300839400000000    0.0427644400000000    0.3756887800000000 Na
   0.4589800300000000    0.5695626200000000    0.8751661100000000 Na
   0.8157475400000000    0.5547844100000000    0.6029164000000000 Na
   0.1665791700000000    0.7132740200000000    0.6458073900000000 Ti
   0.8334208300000000    0.2867259800000000    0.3541926100000000 Ti
   0.5745396699999999    0.2107922000000000    0.8637184200000000 Ti
   0.4254603300000000    0.7892078000000000    0.1362815800000000 Ti
   0.3544241300000000    0.8387434800000000    0.5388124900000000 O
   0.6455758700000001    0.1612565200000000    0.4611875100000000 O
   0.4174783600000000    0.1146760600000000    0.7822526500000000 O
   0.5825216400000000    0.8853239400000000    0.2177473500000000 O
   0.1772124100000000    0.7135957100000000    0.8103251500000000 O
   0.8227875900000000    0.2864042900000000    0.1896748500000000 O
   0.8193466400000000    0.0772428900000000    0.8990831500000001 O
   0.1806533600000000    0.9227571100000000    0.1009168500000000 O
   0.6666675700000000    0.3796397100000000    0.7506602900000000 O
   0.3333324300000000    0.6203602900000000    0.2493397100000000 O
   0.5954596500000000    0.6835579000000001    0.0021245200000000 O
   0.4045403500000000    0.3164421000000000    0.9978754800000000 O
   0.8812248000000000    0.7998502600000000    0.6456304800000000 O
   0.8026677100000000    0.4898005100000000    0.4116158300000000 O
   0.1187752000000000    0.2001497400000000    0.3543695200000000 O
   0.1973322900000000    0.5101994900000000    0.5883841700000000 O
