Rb4 Si2 S6
1.0
   6.6267511900000002   -3.3994145300000000    0.0333513200000000
   6.6267511900000002    3.3994145300000000    0.0333513200000000
  -5.5756347699999997    0.0000000000000000    7.7383417300000001
Rb Si S
4 2 6
direct
   0.1923447900000000    0.1923447900000000    0.8126299800000000 Rb
   0.8076552100000000    0.8076552100000000    0.1873700200000000 Rb
   0.4179246200000000    0.4179246200000000    0.6355481200000000 Rb
   0.5820753800000000    0.5820753800000000    0.3644518800000000 Rb
   0.8841454900000000    0.8841454900000000    0.8216936200000000 Si
   0.1158545100000000    0.1158545100000000    0.1783063800000000 Si
   0.7610366800000000    0.2389633200000000    0.0000000000000000 S
   0.2389633200000000    0.7610366800000000    0.0000000000000000 S
   0.1127690600000000    0.1127690600000000    0.3936934600000000 S
   0.8872309400000000    0.8872309400000000    0.6063065399999999 S
   0.2892355500000000    0.2892355500000000    0.2219015600000000 S
   0.7107644500000000    0.7107644500000000    0.7780984399999999 S
