Rb8 Sn2 O6
1.0
   3.3145560000000001   -9.6466860000000008    0.0000000000000000
   3.3145560000000001    9.6466860000000008    0.0000000000000000
  -2.7723460000000002    0.0000000000000000    6.3354419999999996
Rb Sn O
8 2 6
direct
   0.7155740000000000    0.4018290000000000    0.1930580000000000 Rb
   0.4867420000000000    0.5444260000000000    0.2761420000000000 Rb
   0.0614000000000000    0.9642910000000000    0.2526540000000000 Rb
   0.2360760000000000    0.6697000000000000    0.1385880000000000 Rb
   0.4018290000000000    0.7155740000000000    0.6930580000000000 Rb
   0.5444260000000000    0.4867420000000000    0.7761420000000000 Rb
   0.9642910000000000    0.0614000000000000    0.7526540000000000 Rb
   0.6697000000000000    0.2360760000000000    0.6385880000000000 Rb
   0.8436150000000000    0.1184480000000000    0.2748230000000000 Sn
   0.1184480000000000    0.8436150000000000    0.7748230000000000 Sn
   0.6894700000000000    0.8360130000000000    0.0508580000000000 O
   0.6463000000000000    0.9592390000000000    0.4560020000000000 O
   0.8360130000000000    0.6894700000000000    0.5508580000000000 O
   0.9592390000000000    0.6463000000000000    0.9560020000000000 O
   0.1484000000000000    0.2901010000000000    0.4651900000000000 O
   0.2901010000000000    0.1484000000000000    0.9651900000000000 O
