Sr4 Ge2 Se8
1.0
  10.2588223900000006    0.0000000000000000    0.0000000000000000
   0.0000000000000000    5.2389666200000002    3.6874782599999998
   0.0000000000000000   -5.2389666200000002    3.6874782599999998
Sr Ge Se
4 2 8
direct
   0.2500000000000000    0.3631728900000000    0.7475489300000000 Sr
   0.7500000000000000    0.7475489300000000    0.3631728900000000 Sr
   0.5000000000000000    0.0006659700000000    0.0006659700000000 Sr
   0.0000000000000000    0.0006659700000000    0.0006659700000000 Sr
   0.7500000000000000    0.3112325300000000    0.7608251500000000 Ge
   0.2500000000000000    0.7608251500000000    0.3112325300000000 Ge
   0.2500000000000000    0.1153782900000000    0.2624356800000000 Se
   0.7500000000000000    0.2624356800000000    0.1153782900000000 Se
   0.2500000000000000    0.8401133200000001    0.7030067800000001 Se
   0.7500000000000000    0.7030067800000001    0.8401133200000001 Se
   0.4415659500000000    0.5715374400000000    0.1358408000000000 Se
   0.5584340500000000    0.1358408000000000    0.5715374400000000 Se
   0.0584340500000000    0.5715374400000000    0.1358408000000000 Se
   0.9415659500000000    0.1358408000000000    0.5715374400000000 Se
