Ti2 Sb2 P6 O24
1.0
   4.2907302600000001    2.4772543100000002    7.3765400899999998
  -4.2907302600000001    2.4772543100000002    7.3765400899999998
   0.0000000000000000   -4.9545086100000004    7.3765400899999998
Ti Sb P O
2 2 6 24
direct
   0.8581846600000000    0.8581846600000000    0.8581846600000000 Ti
   0.3581846600000000    0.3581846600000000    0.3581846600000000 Ti
   0.6454484700000001    0.6454484700000001    0.6454484700000001 Sb
   0.1454484700000000    0.1454484700000000    0.1454484700000000 Sb
   0.9635354100000000    0.2552595300000000    0.5341754700000000 P
   0.5341754700000000    0.9635354100000000    0.2552595300000000 P
   0.2552595300000000    0.5341754700000000    0.9635354100000000 P
   0.7552595300000000    0.4635354100000000    0.0341754700000000 P
   0.4635354100000000    0.0341754700000000    0.7552595300000000 P
   0.0341754700000000    0.7552595300000000    0.4635354100000000 P
   0.8567705799999999    0.7424434700000000    0.4807293800000000 O
   0.7424434700000000    0.4807293800000000    0.8567705799999999 O
   0.9332844900000000    0.0807469300000000    0.7086487900000000 O
   0.4807293800000000    0.8567705799999999    0.7424434700000000 O
   0.9807293800000000    0.2424434700000000    0.3567705800000000 O
   0.7825588900000000    0.4326113600000000    0.5552983000000000 O
   0.7086487900000000    0.9332844900000000    0.0807469300000000 O
   0.5552983000000000    0.7825588900000000    0.4326113600000000 O
   0.7802977900000000    0.6353254400000000    0.0029400500000000 O
   0.4326113600000000    0.5552983000000000    0.7825588900000000 O
   0.9326113600000000    0.2825588900000000    0.0552983000000000 O
   0.6353254400000000    0.0029400500000000    0.7802977900000000 O
   0.3567705800000000    0.9807293800000000    0.2424434700000000 O
   0.0807469300000000    0.7086487900000000    0.9332844900000000 O
   0.5807469300000000    0.4332844900000000    0.2086487900000000 O
   0.2424434700000000    0.3567705800000000    0.9807293800000000 O
   0.4332844900000000    0.2086487900000000    0.5807469300000000 O
   0.2825588900000000    0.0552983000000000    0.9326113600000000 O
   0.2086487900000000    0.5807469300000000    0.4332844900000000 O
   0.0029400500000000    0.7802977900000000    0.6353254400000000 O
   0.5029400500000000    0.1353254400000000    0.2802977900000000 O
   0.0552983000000000    0.9326113600000000    0.2825588900000000 O
   0.2802977900000000    0.5029400500000000    0.1353254400000000 O
   0.1353254400000000    0.2802977900000000    0.5029400500000000 O
