La4 S4 O4
1.0
   6.5763068699999998   -2.9334416499999998    0.0000000000000000
   6.5763068699999998    2.9334416499999998    0.0000000000000000
   0.0000000000000000    0.0000000000000000    5.8623546400000004
La S O
4 4 4
direct
   0.3395559700000000    0.3395559700000000    0.0000000000000000 La
   0.1604440300000000    0.1604440300000000    0.5000000000000000 La
   0.6604440300000000    0.6604440300000000    0.0000000000000000 La
   0.8395559700000000    0.8395559700000000    0.5000000000000000 La
   0.1266753300000000    0.8733246700000000    0.1269816200000000 S
   0.3733246700000000    0.6266753300000000    0.6269816200000000 S
   0.6266753300000000    0.3733246700000000    0.3730183800000000 S
   0.8733246700000000    0.1266753300000000    0.8730183800000000 S
   0.0047908300000000    0.4952091700000000    0.2500000000000000 O
   0.4952091700000000    0.0047908300000000    0.7500000000000000 O
   0.9952091700000000    0.5047908300000000    0.7500000000000000 O
   0.5047908300000000    0.9952091700000000    0.2500000000000000 O
