Cd2 Ge2 O6
1.0
   2.5776696700000001    1.4882188999999999    5.0007476500000001
  -2.5776696800000001    1.4882188900000000    5.0007476500000001
   0.0000000000000000   -2.9764368000000001    5.0007476500000001
Cd Ge O
2 2 6
direct
   0.6329713300000001    0.6329713300000001    0.6329713300000001 Cd
   0.3670286700000000    0.3670286700000000    0.3670286700000000 Cd
   0.8407071900000000    0.8407071900000000    0.8407071900000000 Ge
   0.1592928100000000    0.1592928100000000    0.1592928100000000 Ge
   0.0343340100000000    0.4396802100000000    0.8097429500000000 O
   0.8097429500000000    0.0343340100000000    0.4396802100000000 O
   0.4396802100000000    0.8097429500000000    0.0343340100000000 O
   0.9656659900000000    0.5603197900000000    0.1902570500000000 O
   0.5603197900000000    0.1902570500000000    0.9656659900000000 O
   0.1902570500000000    0.9656659900000000    0.5603197900000000 O
