Rb4 Ti2 Ag4 S8
1.0
   5.9074688000000002    0.0000000000000000    0.0000000000000000
   0.0000000000000000    5.9074688000000002    0.0000000000000000
   0.0000000000000000    0.0000000000000000   13.0670551100000001
Rb Ti Ag S
4 2 4 8
direct
   0.2644195800000000    0.2644195800000000    0.0000000000000000 Rb
   0.7355804200000000    0.7355804200000000    0.0000000000000000 Rb
   0.7355804200000000    0.2644195800000000    0.5000000000000000 Rb
   0.2644195800000000    0.7355804200000000    0.5000000000000000 Rb
   0.0000000000000000    0.0000000000000000    0.2500000000000000 Ti
   0.0000000000000000    0.0000000000000000    0.7500000000000000 Ti
   0.0000000000000000    0.5000000000000000    0.2500000000000000 Ag
   0.0000000000000000    0.5000000000000000    0.7500000000000000 Ag
   0.5000000000000000    0.0000000000000000    0.7500000000000000 Ag
   0.5000000000000000    0.0000000000000000    0.2500000000000000 Ag
   0.2209170400000000    0.2209170400000000    0.3564523900000000 S
   0.7790829600000000    0.7790829600000000    0.6435476100000000 S
   0.7790829600000000    0.7790829600000000    0.3564523900000000 S
   0.7790829600000000    0.2209170400000000    0.8564523900000000 S
   0.7790829600000000    0.2209170400000000    0.1435476100000000 S
   0.2209170400000000    0.2209170400000000    0.6435476100000000 S
   0.2209170400000000    0.7790829600000000    0.1435476100000000 S
   0.2209170400000000    0.7790829600000000    0.8564523900000000 S
