La2 Ag2 S2 O2
1.0
   4.0186362899999999    0.0000000000000000    0.0000000000000000
   0.0000000000000000    4.0186362899999999    0.0000000000000000
   0.0000000000000000    0.0000000000000000    8.8901516899999997
La Ag S O
2 2 2 2
direct
   0.0000000000000000    0.5000000000000000    0.8617254900000000 La
   0.5000000000000000    0.0000000000000000    0.1382745100000000 La
   0.5000000000000000    0.5000000000000000    0.5000000000000000 Ag
   0.0000000000000000    0.0000000000000000    0.5000000000000000 Ag
   0.0000000000000000    0.5000000000000000    0.3103559400000000 S
   0.5000000000000000    0.0000000000000000    0.6896440600000000 S
   0.0000000000000000    0.0000000000000000    0.0000000000000000 O
   0.5000000000000000    0.5000000000000000    0.0000000000000000 O
