Sr8 Sn4 O16
1.0
   5.8016821900000002    0.0000000000000000    0.0000000000000000
   0.0000000000000000    5.8016821900000002    0.0000000000000000
   0.0000000000000000    0.0000000000000000   12.3816897200000007
Sr Sn O
8 4 16
direct
   0.7645603000000000    0.2645603000000000    0.3966197000000000 Sr
   0.2645603000000000    0.2354397000000000    0.6033803000000000 Sr
   0.7354397000000000    0.7645603000000000    0.6033803000000000 Sr
   0.2354397000000000    0.7354397000000000    0.3966197000000000 Sr
   0.7354397000000000    0.2354397000000000    0.1033803000000000 Sr
   0.2354397000000000    0.2645603000000000    0.8966197000000000 Sr
   0.7645603000000000    0.7354397000000000    0.8966197000000000 Sr
   0.2645603000000000    0.7645603000000000    0.1033803000000000 Sr
   0.7500000000000000    0.2500000000000000    0.7500000000000000 Sn
   0.2500000000000000    0.2500000000000000    0.2500000000000000 Sn
   0.7500000000000000    0.7500000000000000    0.2500000000000000 Sn
   0.2500000000000000    0.7500000000000000    0.7500000000000000 Sn
   0.7062640800000000    0.2062640800000000    0.5860941700000000 O
   0.2062640800000000    0.2937359200000000    0.4139058300000000 O
   0.7937359200000000    0.7062640800000000    0.4139058300000000 O
   0.2937359200000000    0.7937359200000000    0.5860941700000000 O
   0.7937359200000000    0.2937359200000000    0.9139058300000000 O
   0.2937359200000000    0.2062640800000000    0.0860941700000000 O
   0.7062640800000000    0.7937359200000000    0.0860941700000000 O
   0.2062640800000000    0.7062640800000000    0.9139058300000000 O
   0.0000000000000000    0.0000000000000000    0.2500000000000000 O
   0.5000000000000000    0.5000000000000000    0.7500000000000000 O
   0.5000000000000000    0.5000000000000000    0.2500000000000000 O
   0.0000000000000000    0.0000000000000000    0.7500000000000000 O
   0.5000000000000000    0.0000000000000000    0.7802965100000000 O
   0.0000000000000000    0.5000000000000000    0.2197034900000000 O
   0.0000000000000000    0.5000000000000000    0.7197034900000000 O
   0.5000000000000000    0.0000000000000000    0.2802965100000000 O
