Na4 Cr4 O14
1.0
   6.6906710000000000    0.0000000000000000    0.0000000000000000
  -0.5483070000000000    6.8723159999999996    0.0000000000000000
  -0.0231620000000000   -2.8485510000000001    6.6793899999999997
Na Cr O
4 4 14
direct
   0.6275330000000000    0.2697070000000000    0.3611780000000000 Na
   0.3724670000000000    0.7302930000000000    0.6388220000000000 Na
   0.8668910000000000    0.1130110000000000    0.7524770000000000 Na
   0.1331090000000000    0.8869890000000000    0.2475230000000000 Na
   0.8802420000000000    0.6510390000000000    0.8166960000000000 Cr
   0.1197580000000000    0.3489610000000000    0.1833040000000000 Cr
   0.6552270000000000    0.7590510000000000    0.2434530000000000 Cr
   0.3447730000000000    0.2409490000000000    0.7565470000000000 Cr
   0.8749030000000000    0.4123420000000000    0.6470120000000000 O
   0.1250970000000000    0.5876580000000000    0.3529880000000000 O
   0.7261740000000000    0.7872350000000000    0.7554780000000000 O
   0.2738260000000000    0.2127650000000000    0.2445220000000000 O
   0.1043140000000000    0.7725530000000000    0.8518410000000000 O
   0.8956860000000000    0.2274470000000000    0.1481590000000000 O
   0.5786270000000000    0.5971830000000000    0.3458820000000000 O
   0.4213730000000000    0.4028170000000000    0.6541180000000000 O
   0.7826270000000000    0.9677700000000000    0.4076900000000000 O
   0.2173730000000000    0.0322300000000000    0.5923100000000000 O
   0.4647510000000000    0.8358840000000000    0.1620070000000000 O
   0.5352490000000000    0.1641160000000000    0.8379930000000000 O
   0.8156870000000001    0.6359520000000000    0.0478860000000000 O
   0.1843130000000000    0.3640480000000000    0.9521140000000000 O
