La4 Sc4 O12
1.0
   5.7582414899999996    0.0000000000000000    0.0000000000000000
   0.0000000000000000    8.0245766599999993    0.0000000000000000
   0.0000000000000000    0.0000000000000000    5.6320996100000000
La Sc O
4 4 12
direct
   0.4536093700000000    0.7500000000000000    0.5116505200000000 La
   0.5463906300000000    0.2500000000000000    0.4883494800000000 La
   0.0463906300000000    0.2500000000000000    0.0116505200000000 La
   0.9536093700000000    0.7500000000000000    0.9883494800000000 La
   0.5000000000000000    0.0000000000000000    0.0000000000000000 Sc
   0.5000000000000000    0.5000000000000000    0.0000000000000000 Sc
   0.0000000000000000    0.5000000000000000    0.5000000000000000 Sc
   0.0000000000000000    0.0000000000000000    0.5000000000000000 Sc
   0.2039186800000000    0.5531254799999999    0.7959829800000000 O
   0.7960813200000000    0.0531254800000000    0.2040170200000000 O
   0.2960813200000000    0.0531254800000000    0.2959829800000000 O
   0.7039186800000000    0.5531254799999999    0.7040170200000000 O
   0.2039186800000000    0.9468745200000001    0.7959829800000000 O
   0.7960813200000000    0.4468745200000000    0.2040170200000000 O
   0.2960813200000000    0.4468745200000000    0.2959829800000000 O
   0.7039186800000000    0.9468745200000001    0.7040170200000000 O
   0.4667566800000000    0.2500000000000000    0.9004639600000000 O
   0.5332433200000000    0.7500000000000000    0.0995360400000000 O
   0.0332433200000000    0.7500000000000000    0.4004639600000000 O
   0.9667566800000000    0.2500000000000000    0.5995360400000000 O
