Cs12 Sb4 S12
1.0
  10.2002772600000000    0.0000000000000000    0.0000000000000000
   0.0000000000000000   10.2002772600000000    0.0000000000000000
   0.0000000000000000    0.0000000000000000   10.2002772600000000
Cs Sb S
12 4 12
direct
   0.3133351000000000    0.6866649000000000    0.1866649000000000 Cs
   0.4263134600000000    0.9263134600000000    0.5736865400000000 Cs
   0.1866649000000000    0.3133351000000000    0.6866649000000000 Cs
   0.0736865400000000    0.0736865400000000    0.0736865400000000 Cs
   0.8094798300000000    0.1905201700000000    0.6905201700000000 Cs
   0.6905201700000000    0.8094798300000000    0.1905201700000000 Cs
   0.5736865400000000    0.4263134600000000    0.9263134600000000 Cs
   0.9263134600000000    0.5736865400000000    0.4263134600000000 Cs
   0.1905201700000000    0.6905201700000000    0.8094798300000000 Cs
   0.6866649000000000    0.1866649000000000    0.3133351000000000 Cs
   0.8133351000000000    0.8133351000000000    0.8133351000000000 Cs
   0.3094798300000000    0.3094798300000000    0.3094798300000000 Cs
   0.5270556000000000    0.5270556000000000    0.5270556000000000 Sb
   0.9729444000000000    0.4729444000000000    0.0270556000000000 Sb
   0.4729444000000000    0.0270556000000000    0.9729444000000000 Sb
   0.0270556000000000    0.9729444000000000    0.4729444000000000 Sb
   0.4051329000000000    0.0073285700000000    0.2013048200000000 S
   0.7013048200000001    0.0948671000000000    0.9926714300000000 S
   0.0073285700000000    0.2013048200000000    0.4051329000000000 S
   0.9051329000000000    0.4926714300000000    0.7986951799999999 S
   0.0948671000000000    0.9926714300000000    0.7013048200000001 S
   0.4926714300000000    0.7986951799999999    0.9051329000000000 S
   0.7986951799999999    0.9051329000000000    0.4926714300000000 S
   0.2013048200000000    0.4051329000000000    0.0073285700000000 S
   0.9926714300000000    0.7013048200000001    0.0948671000000000 S
   0.5948671000000000    0.5073285700000000    0.2986951800000000 S
   0.2986951800000000    0.5948671000000000    0.5073285700000000 S
   0.5073285700000000    0.2986951800000000    0.5948671000000000 S
