Na2 Al2 Mo4 O16
1.0
   4.8529962900000001   -2.5992992400000001   -0.0001661700000000
   4.8529962900000001    2.5992992400000001   -0.0001661700000000
  -0.1651616900000000    0.0000000000000000   13.3481510599999993
Na Al Mo O
2 2 4 16
direct
   0.0788186100000000    0.9211813900000000    0.7500000000000000 Na
   0.9211813900000000    0.0788186100000000    0.2500000000000000 Na
   0.0000000000000000    0.0000000000000000    0.0000000000000000 Al
   0.0000000000000000    0.0000000000000000    0.5000000000000000 Al
   0.7137065600000000    0.6376235200000000    0.6172870900000000 Mo
   0.2862934400000000    0.3623764800000000    0.3827129100000000 Mo
   0.6376235200000000    0.7137065600000000    0.1172870900000000 Mo
   0.3623764800000000    0.2862934400000000    0.8827129100000000 Mo
   0.5811388400000000    0.7646535400000000    0.7374035900000000 O
   0.4013917000000000    0.7935252500000000    0.5378627300000000 O
   0.7935252500000000    0.4013917000000000    0.0378627300000000 O
   0.2501570400000000    0.0479452300000000    0.9207679800000000 O
   0.5986083000000000    0.2064747500000000    0.4621372700000000 O
   0.7574674200000000    0.0979339700000000    0.8852719100000001 O
   0.7646535400000000    0.5811388400000000    0.2374035900000000 O
   0.0979339700000000    0.7574674200000000    0.3852719100000000 O
   0.2353464600000000    0.4188611600000000    0.7625964100000000 O
   0.0479452300000000    0.2501570400000000    0.4207679800000000 O
   0.4188611600000000    0.2353464600000000    0.2625964100000000 O
   0.7498429599999999    0.9520547700000001    0.0792320200000000 O
   0.2064747500000000    0.5986083000000000    0.9621372700000000 O
   0.9020660300000000    0.2425325800000000    0.6147280899999999 O
   0.2425325800000000    0.9020660300000000    0.1147280900000000 O
   0.9520547700000001    0.7498429599999999    0.5792320200000000 O
