Na6 P2 S2 O6
1.0
   4.1727711799999998    2.4091508799999999    3.8681936900000000
  -4.1727711799999998    2.4091508799999999    3.8681936900000000
   0.0000000000000000   -4.8183017699999997    3.8681936900000000
Na P S O
6 2 2 6
direct
   0.8799872300000000    0.1880050100000000    0.5089958800000000 Na
   0.5089958800000000    0.8799872300000000    0.1880050100000000 Na
   0.1880050100000000    0.5089958800000000    0.8799872300000000 Na
   0.0089958800000000    0.6880050100000000    0.3799872300000000 Na
   0.3799872300000000    0.0089958800000000    0.6880050100000000 Na
   0.6880050100000000    0.3799872300000000    0.0089958800000000 Na
   0.9069689800000000    0.9069689800000000    0.9069689800000000 P
   0.4069689800000000    0.4069689800000000    0.4069689800000000 P
   0.5867066300000000    0.5867066300000000    0.5867066300000000 S
   0.0867066300000000    0.0867066300000000    0.0867066300000000 S
   0.6917893100000000    0.0449992500000000    0.8634157000000000 O
   0.8634157000000000    0.6917893100000000    0.0449992500000000 O
   0.0449992500000000    0.8634157000000000    0.6917893100000000 O
   0.3634157000000000    0.5449992500000000    0.1917893100000000 O
   0.1917893100000000    0.3634157000000000    0.5449992500000000 O
   0.5449992500000000    0.1917893100000000    0.3634157000000000 O
