Rb1 Nb1 O3
1.0
   4.0751010000000001    0.0000000000000000    0.0000000000000000
   0.0000000000000000    4.0751010000000001    0.0000000000000000
   0.0000000000000000    0.0000000000000000    4.0751010000000001
Rb Nb O
1 1 3
direct
   0.5000000000000000    0.5000000000000000    0.5000000000000000 Rb
   0.0000000000000000    0.0000000000000000    0.0000000000000000 Nb
   0.5000000000000000    0.0000000000000000    0.0000000000000000 O
   0.0000000000000000    0.5000000000000000    0.0000000000000000 O
   0.0000000000000000    0.0000000000000000    0.5000000000000000 O
