Nb1 Cu3 Se4
1.0
   5.6238955199999996    0.0000000000000000    0.0000000000000000
   0.0000000000000000    5.6238955199999996    0.0000000000000000
   0.0000000000000000    0.0000000000000000    5.6238955199999996
Nb Cu Se
1 3 4
direct
   0.0000000000000000    0.0000000000000000    0.0000000000000000 Nb
   0.5000000000000000    0.0000000000000000    0.0000000000000000 Cu
   0.0000000000000000    0.0000000000000000    0.5000000000000000 Cu
   0.0000000000000000    0.5000000000000000    0.0000000000000000 Cu
   0.2518540000000000    0.2518540000000000    0.2518540000000000 Se
   0.7481460000000000    0.7481460000000000    0.2518540000000000 Se
   0.7481460000000000    0.2518540000000000    0.7481460000000000 Se
   0.2518540000000000    0.7481460000000000    0.7481460000000000 Se
