Ba2 B4 Se12
1.0
   5.5618137599999997   -3.8591613800000002    0.0000000000000000
   5.5618137599999997    3.8591613800000002    0.0000000000000000
   0.0000000000000000    0.0000000000000000   10.1891323499999995
Ba B Se
2 4 12
direct
   0.5000000000000000    0.5000000000000000    0.5000000000000000 Ba
   0.0000000000000000    0.0000000000000000    0.0000000000000000 Ba
   0.3857752900000000    0.3857752900000000    0.0000000000000000 B
   0.6142247100000000    0.6142247100000000    0.0000000000000000 B
   0.1142247100000000    0.1142247100000000    0.5000000000000000 B
   0.8857752900000000    0.8857752900000000    0.5000000000000000 B
   0.1057999900000000    0.4730686100000000    0.0966353500000000 Se
   0.6034155000000000    0.3965845000000000    0.1403483100000000 Se
   0.4730686100000000    0.1057999900000000    0.9033646500000000 Se
   0.0269313900000000    0.3942000100000000    0.4033646500000000 Se
   0.9730686100000000    0.6057999900000000    0.5966353500000000 Se
   0.5269313900000000    0.8942000100000000    0.0966353500000000 Se
   0.3942000100000000    0.0269313900000000    0.5966353500000000 Se
   0.8942000100000000    0.5269313900000000    0.9033646500000000 Se
   0.8965845000000000    0.1034155000000000    0.6403483100000000 Se
   0.3965845000000000    0.6034155000000000    0.8596516900000000 Se
   0.1034155000000000    0.8965845000000000    0.3596516900000000 Se
   0.6057999900000000    0.9730686100000000    0.4033646500000000 Se
