Ca2 Ga2 Bi2 B4 O14
1.0
   5.2428921300000004   -5.2318340599999997    0.0000000000000000
   5.2428921300000004    5.2318340599999997    0.0000000000000000
   0.0000000000000000    0.0000000000000000    4.7786368699999997
Ca Ga Bi B O
2 2 2 4 14
direct
   0.6616165899999999    0.3383834100000000    0.4913134200000000 Ca
   0.3383834100000000    0.6616165899999999    0.4913134200000000 Ca
   0.5000000000000000    0.0000000000000000    0.9981163500000000 Ga
   0.0000000000000000    0.5000000000000000    0.9981163500000000 Ga
   0.8339716100000000    0.8339716100000000    0.5017750100000000 Bi
   0.1660283900000000    0.1660283900000000    0.5017750100000000 Bi
   0.8646338700000000    0.1353661300000000    0.0536971900000000 B
   0.3687375900000000    0.3687375900000000    0.9399443000000000 B
   0.1353661300000000    0.8646338700000000    0.0536971900000000 B
   0.6312624100000001    0.6312624100000001    0.9399443000000000 B
   0.0000000000000000    0.0000000000000000    0.1505012600000000 O
   0.5000000000000000    0.5000000000000000    0.8369753500000000 O
   0.8511880700000000    0.1488119300000000    0.7585654800000000 O
   0.3557513100000000    0.3557513100000000    0.2378729600000000 O
   0.1488119300000000    0.8511880700000000    0.7585654800000000 O
   0.6442486900000000    0.6442486900000000    0.2378729600000000 O
   0.5776777600000000    0.8064071500000000    0.7885651800000000 O
   0.0791760700000000    0.6924782200000000    0.2067240700000000 O
   0.4223222400000000    0.1935928500000000    0.7885651800000000 O
   0.9208239300000000    0.3075217800000000    0.2067240700000000 O
   0.6924782200000000    0.0791760700000000    0.2067240700000000 O
   0.1935928500000000    0.4223222400000000    0.7885651800000000 O
   0.3075217800000000    0.9208239300000000    0.2067240700000000 O
   0.8064071500000000    0.5776777600000000    0.7885651800000000 O
