Na4 Sb8 O14
1.0
   5.5483815099999996   -8.2695901400000000    0.0517095100000000
   5.5483815099999996    8.2695901400000000    0.0517095100000000
  -2.5744297600000001    0.0000000000000000    5.0484561399999999
Na Sb O
4 8 14
direct
   0.3273839400000000    0.5126358900000000    0.4282861800000000 Na
   0.4873641100000000    0.6726160600000000    0.0717138200000000 Na
   0.6726160600000000    0.4873641100000000    0.5717138200000000 Na
   0.5126358900000000    0.3273839400000000    0.9282861800000000 Na
   0.8894592900000000    0.3954442700000000    0.1800464600000000 Sb
   0.3954442700000000    0.8894592900000000    0.6800464600000000 Sb
   0.1105407100000000    0.6045557300000000    0.8199535400000000 Sb
   0.6045557300000000    0.1105407100000000    0.3199535400000000 Sb
   0.1410829800000000    0.2794713300000000    0.7801519800000000 Sb
   0.7205286700000000    0.8589170200000000    0.7198480200000000 Sb
   0.8589170200000000    0.7205286700000000    0.2198480200000000 Sb
   0.2794713300000000    0.1410829800000000    0.2801519800000000 Sb
   0.7745257600000000    0.4993599800000000    0.9855236900000000 O
   0.3873544600000000    0.0180743900000000    0.0466768600000000 O
   0.2254742400000000    0.5006400200000000    0.0144763100000000 O
   0.4993599800000000    0.7745257600000000    0.4855236900000000 O
   0.3068759700000000    0.6931240300000000    0.7500000000000000 O
   0.6931240300000000    0.3068759700000000    0.2500000000000000 O
   0.0180743900000000    0.3873544600000000    0.5466768600000000 O
   0.6126455400000000    0.9819256100000000    0.9533231400000000 O
   0.9819256100000000    0.6126455400000000    0.4533231400000000 O
   0.6809254300000001    0.7071407300000000    0.8958961700000000 O
   0.7071407300000000    0.6809254300000001    0.3958961700000000 O
   0.3190745700000000    0.2928592700000000    0.1041038300000000 O
   0.5006400200000000    0.2254742400000000    0.5144763100000000 O
   0.2928592700000000    0.3190745700000000    0.6041038300000000 O
