Ba2 Hf2 Si6 O18
1.0
   6.7850740900000002    0.0000000000000000    0.0000000000000000
  -3.3925370500000001    5.8760465000000002    0.0000000000000000
   0.0000000000000000    0.0000000000000000   10.0752225400000004
Ba Hf Si O
2 2 6 18
direct
   0.0000000000000000    0.0000000000000000    0.0000000000000000 Ba
   0.0000000000000000    0.0000000000000000    0.5000000000000000 Ba
   0.3333330000000000    0.6666670000000000    0.0000000000000000 Hf
   0.3333330000000000    0.6666670000000000    0.5000000000000000 Hf
   0.9470999900000000    0.3900163900000000    0.7500000000000000 Si
   0.6099836100000000    0.5570826000000000    0.7500000000000000 Si
   0.4429174000000000    0.0529000100000000    0.7500000000000000 Si
   0.9470999900000000    0.5570826000000000    0.2500000000000000 Si
   0.6099836100000000    0.0529000100000000    0.2500000000000000 Si
   0.4429174000000000    0.3900163900000000    0.2500000000000000 Si
   0.8644432399999999    0.5807723400000000    0.7500000000000000 O
   0.4192276600000000    0.2836719000000000    0.7500000000000000 O
   0.7163281000000000    0.1355567600000000    0.7500000000000000 O
   0.8644432399999999    0.2836719000000000    0.2500000000000000 O
   0.4192276600000000    0.1355567600000000    0.2500000000000000 O
   0.7163281000000000    0.5807723400000000    0.2500000000000000 O
   0.0864528000000000    0.4049434300000000    0.8837965000000000 O
   0.5950565700000000    0.6815093700000000    0.8837965000000000 O
   0.3184906300000000    0.9135472000000000    0.8837965000000000 O
   0.0864528000000000    0.4049434300000000    0.6162035000000000 O
   0.5950565700000000    0.6815093700000000    0.6162035000000000 O
   0.3184906300000000    0.9135472000000000    0.6162035000000000 O
   0.0864528000000000    0.6815093700000000    0.3837965000000000 O
   0.5950565700000000    0.9135472000000000    0.3837965000000000 O
   0.3184906300000000    0.4049434300000000    0.3837965000000000 O
   0.0864528000000000    0.6815093700000000    0.1162035000000000 O
   0.5950565700000000    0.9135472000000000    0.1162035000000000 O
   0.3184906300000000    0.4049434300000000    0.1162035000000000 O
