Ba3 Si6 N4 O9
1.0
   7.2657823800000001    0.0000000800000000    0.0000000000000000
  -3.6328917500000002    6.2923521999999998    0.0000000000000000
   0.0000000000000000    0.0000000000000000    6.7786664400000003
Ba Si N O
3 6 4 9
direct
   0.3333330000000000    0.6666670000000000    0.6900288999999999 Ba
   0.0000000000000000    0.0000000000000000    0.5587019400000000 Ba
   0.6666670000000000    0.3333330000000000    0.7493380900000000 Ba
   0.4505451400000000    0.0735778400000000    0.2571335800000000 Si
   0.0398683400000000    0.7864408400000000    0.0433206300000000 Si
   0.2135591600000000    0.2534275100000000    0.0433206300000000 Si
   0.7465724900000000    0.9601316600000001    0.0433206300000000 Si
   0.6230336900000000    0.5494548600000000    0.2571335800000000 Si
   0.9264221600000000    0.3769663100000000    0.2571335800000000 Si
   0.0000000000000000    0.0000000000000000    0.0947498500000000 N
   0.8691589700000000    0.5748425400000000    0.1925878300000000 N
   0.4251574600000000    0.2943154300000000    0.1925878300000000 N
   0.7056845700000000    0.1308410300000000    0.1925878300000000 N
   0.2930768000000000    0.8810479800000000    0.1025343700000000 O
   0.5879711800000000    0.7069232000000000    0.1025343700000000 O
   0.0083395100000000    0.7196784899999999    0.8139540800000000 O
   0.2803215100000000    0.2886610200000000    0.8139540800000000 O
   0.6240648400000000    0.6092641800000000    0.4854869100000000 O
   0.7113389800000000    0.9916604900000000    0.8139540800000000 O
   0.3907358200000000    0.0148016600000000    0.4854869100000000 O
   0.9851983400000000    0.3759351600000000    0.4854869100000000 O
   0.1189520200000000    0.4120288200000000    0.1025343700000000 O
