Ba4 Zn2 Ag4 Se4 O4
1.0
   9.9113853899999995   -2.9980053400000002    0.0000000000000000
   9.9113853899999995    2.9980053400000002    0.0000000000000000
   0.0000000000000000    0.0000000000000000    5.9950722299999999
Ba Zn Ag Se O
4 2 4 4 4
direct
   0.0883134800000000    0.0883134800000000    0.5000000000000000 Ba
   0.5883134800000001    0.5883134800000001    0.0000000000000000 Ba
   0.4116865200000000    0.4116865200000000    0.0000000000000000 Ba
   0.9116865199999999    0.9116865199999999    0.5000000000000000 Ba
   0.0000000000000000    0.0000000000000000    0.0000000000000000 Zn
   0.5000000000000000    0.5000000000000000    0.5000000000000000 Zn
   0.0016156100000000    0.4983843900000000    0.2500000000000000 Ag
   0.4983843900000000    0.0016156100000000    0.7500000000000000 Ag
   0.5016156100000000    0.9983843900000000    0.2500000000000000 Ag
   0.9983843900000000    0.5016156100000000    0.7500000000000000 Ag
   0.3358097000000000    0.3358097000000000    0.5000000000000000 Se
   0.8358097000000000    0.8358097000000000    0.0000000000000000 Se
   0.1641903000000000    0.1641903000000000    0.0000000000000000 Se
   0.6641903000000000    0.6641903000000000    0.5000000000000000 Se
   0.2157276500000000    0.7842723500000000    0.7838821900000000 O
   0.7842723500000000    0.2157276500000000    0.2161178100000000 O
   0.7157276500000000    0.2842723500000000    0.7161178100000000 O
   0.2842723500000000    0.7157276500000000    0.2838821900000000 O
