Cs4 In12 O20
1.0
  10.1426986699999997    0.0000000000000000    0.0000000000000000
   0.0000000000000000    3.3643599900000001    0.0000000000000000
   0.0000000000000000    0.0000000000000000   16.7681994000000003
Cs In O
4 12 20
direct
   0.0342086700000000    0.7500000000000000    0.6237362500000000 Cs
   0.4657913300000000    0.2500000000000000    0.1237362500000000 Cs
   0.5342086700000001    0.7500000000000000    0.8762637500000000 Cs
   0.9657913299999999    0.2500000000000000    0.3762637500000000 Cs
   0.6849938000000000    0.7500000000000000    0.6819882200000000 In
   0.1849938000000000    0.7500000000000000    0.8180117800000000 In
   0.1459323300000000    0.2500000000000000    0.9869503300000000 In
   0.6459323300000001    0.2500000000000000    0.5130496700000000 In
   0.3940816800000000    0.2500000000000000    0.6600785400000000 In
   0.8540676699999999    0.7500000000000000    0.0130496700000000 In
   0.8150062000000000    0.2500000000000000    0.1819882200000000 In
   0.3150062000000000    0.2500000000000000    0.3180117800000000 In
   0.1059183200000000    0.7500000000000000    0.1600785400000000 In
   0.6059183200000000    0.7500000000000000    0.3399214600000000 In
   0.3540676700000000    0.7500000000000000    0.4869503300000000 In
   0.8940816800000000    0.2500000000000000    0.8399214600000000 In
   0.1955914100000000    0.2500000000000000    0.2134822100000000 O
   0.7744556600000000    0.2500000000000000    0.6142110000000000 O
   0.2755799600000000    0.2500000000000000    0.5530939300000000 O
   0.7255443400000000    0.7500000000000000    0.1142110000000000 O
   0.4778275700000000    0.2500000000000000    0.4229161500000000 O
   0.7244200400000000    0.7500000000000000    0.4469060700000000 O
   0.8044085900000000    0.7500000000000000    0.7865177900000000 O
   0.0688598500000000    0.2500000000000000    0.7710020600000000 O
   0.3044085900000000    0.7500000000000000    0.7134822100000000 O
   0.9311401500000001    0.7500000000000000    0.2289979400000000 O
   0.2744556600000000    0.2500000000000000    0.8857890000000000 O
   0.4311401500000000    0.7500000000000000    0.2710020600000000 O
   0.9778275700000000    0.2500000000000000    0.0770838500000000 O
   0.6955914100000000    0.2500000000000000    0.2865177900000000 O
   0.2255443400000000    0.7500000000000000    0.3857890000000000 O
   0.5221724300000000    0.7500000000000000    0.5770838500000000 O
   0.7755799600000000    0.2500000000000000    0.9469060700000000 O
   0.0221724300000000    0.7500000000000000    0.9229161500000000 O
   0.2244200400000000    0.7500000000000000    0.0530939300000000 O
   0.5688598499999999    0.2500000000000000    0.7289979400000000 O
