Ba1 Ti1 O3
1.0
   4.0165649999999999    0.0000000000000000    0.0000000000000000
   0.0000000000000000    4.0165649999999999    0.0000000000000000
   0.0000000000000000    0.0000000000000000    4.0165649999999999
Ba Ti O
1 1 3
direct
   0.0000000000000000    0.0000000000000000    0.0000000000000000 Ba
   0.5000000000000000    0.5000000000000000    0.5000000000000000 Ti
   0.5000000000000000    0.5000000000000000    0.0000000000000000 O
   0.5000000000000000    0.0000000000000000    0.5000000000000000 O
   0.0000000000000000    0.5000000000000000    0.5000000000000000 O
