Cs4 Li2 As2 O8
1.0
   2.9813753699999999   -6.0942135700000000    0.0000000000000000
   2.9813753699999999    6.0942135700000000    0.0000000000000000
   0.0000000000000000    0.0000000000000000    8.1549803900000004
Cs Li As O
4 2 2 8
direct
   0.9351096500000000    0.0648903500000000    0.8524771700000000 Cs
   0.0648903500000000    0.9351096500000000    0.3524771700000000 Cs
   0.3957736300000000    0.6042263700000000    0.4973522300000000 Cs
   0.6042263700000000    0.3957736300000000    0.9973522300000000 Cs
   0.2058733100000000    0.7941266900000000    0.7686153300000000 Li
   0.7941266900000000    0.2058733100000000    0.2686153300000000 Li
   0.3045614400000000    0.6954385600000000    0.0544474500000000 As
   0.6954385600000000    0.3045614400000000    0.5544474500000000 As
   0.1094488300000000    0.4205372000000000    0.1599056100000000 O
   0.8905511699999999    0.5794627999999999    0.6599056100000000 O
   0.3630215000000000    0.6369785000000000    0.8617402700000000 O
   0.6369785000000000    0.3630215000000000    0.3617402700000000 O
   0.5794627999999999    0.8905511699999999    0.1599056100000000 O
   0.4205372000000000    0.1094488300000000    0.6599056100000000 O
   0.8345525400000000    0.1654474600000000    0.5140573400000000 O
   0.1654474600000000    0.8345525400000000    0.0140573400000000 O
