Na2 Ti2 As2 O10
1.0
   3.3666790000000000   -4.4201319999999997    0.0000000000000000
   3.3666790000000000    4.4201319999999997    0.0000000000000000
  -2.9417000000000000    0.0000000000000000    6.5393920000000003
Na Ti As O
2 2 2 10
direct
   0.3240180000000000    0.6759820000000000    0.2500000000000000 Na
   0.6759820000000000    0.3240180000000000    0.7500000000000000 Na
   0.0000000000000000    0.0000000000000000    0.0000000000000000 Ti
   0.0000000000000000    0.0000000000000000    0.5000000000000000 Ti
   0.6823320000000000    0.3176680000000000    0.2500000000000000 As
   0.3176680000000000    0.6823320000000000    0.7500000000000000 As
   0.3764940000000000    0.2490310000000000    0.0788710000000000 O
   0.7509690000000000    0.6235060000000000    0.4211290000000000 O
   0.6235060000000000    0.7509690000000000    0.9211290000000000 O
   0.2490310000000000    0.3764940000000000    0.5788710000000000 O
   0.6811400000000000    0.1027600000000000    0.3850210000000000 O
   0.8972400000000000    0.3188600000000000    0.1149790000000000 O
   0.3188600000000000    0.8972400000000000    0.6149790000000001 O
   0.1027600000000000    0.6811400000000000    0.8850209999999999 O
   0.0655480000000000    0.9344519999999999    0.2500000000000000 O
   0.9344519999999999    0.0655480000000000    0.7500000000000000 O
