Ba2 Hf1 O4
1.0
  -2.0904577500000001    2.0904577500000001    6.7298744900000003
   2.0904577500000001   -2.0904577500000001    6.7298744900000003
   2.0904577500000001    2.0904577500000001   -6.7298744900000003
Ba Hf O
2 1 4
direct
   0.3524178800000000    0.3524178800000000    0.0000000000000000 Ba
   0.6475821200000000    0.6475821200000000    0.0000000000000000 Ba
   0.0000000000000000    0.0000000000000000    0.0000000000000000 Hf
   0.5000000000000000    0.0000000000000000    0.5000000000000000 O
   0.0000000000000000    0.5000000000000000    0.5000000000000000 O
   0.8424601200000000    0.8424601200000000    0.0000000000000000 O
   0.1575398800000000    0.1575398800000000    0.0000000000000000 O
