Tl16 Si4 Se16
1.0
   5.7417292700000004   -3.6073199200000001    0.0014116200000000
   5.7417292700000004    3.6073199200000001    0.0014116200000000
  -4.2163311500000002    0.0000000000000000   24.1959120600000013
Tl Si Se
16 4 16
direct
   0.8314541900000000    0.1685458100000000    0.7500000000000000 Tl
   0.1685458100000000    0.8314541900000000    0.2500000000000000 Tl
   0.0000000000000000    0.0000000000000000    0.0000000000000000 Tl
   0.0000000000000000    0.0000000000000000    0.5000000000000000 Tl
   0.9376459200000000    0.6796653200000000    0.8355932000000000 Tl
   0.3203346800000000    0.0623540800000000    0.6644068000000000 Tl
   0.0623540800000000    0.3203346800000000    0.1644068000000000 Tl
   0.6796653200000000    0.9376459200000000    0.3355932000000000 Tl
   0.1145190200000000    0.6717575500000000    0.6811434400000000 Tl
   0.3282424500000000    0.8854809800000000    0.8188565600000000 Tl
   0.8854809800000000    0.3282424500000000    0.3188565600000000 Tl
   0.6717575500000000    0.1145190200000000    0.1811434400000000 Tl
   0.7332601600000000    0.6499991600000000    0.0011910500000000 Tl
   0.3500008400000000    0.2667398400000000    0.4988089500000000 Tl
   0.2667398400000000    0.3500008400000000    0.9988089500000000 Tl
   0.6499991600000000    0.7332601600000000    0.5011910500000000 Tl
   0.5585731300000000    0.3141160500000000    0.8760988800000000 Si
   0.3141160500000000    0.5585731300000000    0.3760988800000000 Si
   0.4414268700000000    0.6858839500000000    0.1239011200000000 Si
   0.6858839500000000    0.4414268700000000    0.6239011200000000 Si
   0.3884559500000000    0.3056222900000000    0.7887439000000001 Se
   0.2934079400000000    0.9058380600000000    0.3812254300000000 Se
   0.9058380600000000    0.2934079400000000    0.8812254300000000 Se
   0.7065920600000000    0.0941619400000000    0.6187745700000000 Se
   0.6647202800000001    0.3644155800000000    0.0766696500000000 Se
   0.0941619400000000    0.7065920600000000    0.1187745700000000 Se
   0.3352797200000000    0.6355844200000000    0.9233303500000000 Se
   0.3644155800000000    0.6647202800000001    0.5766696500000000 Se
   0.0229555200000000    0.5796461400000000    0.4171474800000000 Se
   0.4203538600000000    0.9770444800000000    0.0828525200000000 Se
   0.9770444800000000    0.4203538600000000    0.5828525200000000 Se
   0.5796461400000000    0.0229555200000000    0.9171474800000000 Se
   0.6943777100000000    0.6115440500000000    0.7112560999999999 Se
   0.6115440500000000    0.6943777100000000    0.2112561000000000 Se
   0.3056222900000000    0.3884559500000000    0.2887439000000000 Se
   0.6355844200000000    0.3352797200000000    0.4233303500000000 Se
