Ca3 B3 P3 O15
1.0
   6.6069973700000002    0.0000000000000000    0.0000000000000000
  -3.3034986900000001    5.7218274200000003    0.0000000000000000
   0.0000000000000000    0.0000000000000000    6.7293544799999996
Ca B P O
3 3 3 15
direct
   0.0000000000000000    0.6017367400000000    0.1666670000000000 Ca
   0.6017367400000000    0.0000000000000000    0.8333330000000000 Ca
   0.3982632600000000    0.3982632600000000    0.5000000000000000 Ca
   0.8968802600000000    0.8968802600000000    0.5000000000000000 B
   1.0000000000000000    0.1031197400000000    0.1666670000000000 B
   0.1031197400000000    0.0000000000000000    0.8333330000000000 B
   0.0000000000000000    0.5794897800000000    0.6666670000000000 P
   0.5794897800000000    0.0000000000000000    0.3333330000000000 P
   0.4205102200000000    0.4205102200000000    0.0000000000000000 P
   1.0000000000000000    0.0485953900000000    0.6666670000000000 O
   0.9514046100000000    0.9514046100000000    0.0000000000000000 O
   0.0485953900000000    0.0000000000000000    0.3333330000000000 O
   0.4684222700000000    0.6057808400000000    0.8458325200000000 O
   0.3942191600000000    0.8626414300000000    0.1791655200000000 O
   0.1373585700000000    0.5315777300000000    0.5124995200000000 O
   0.3520243200000000    0.1924180300000000    0.8732417300000000 O
   0.8075819700000000    0.1596052900000000    0.2065747300000000 O
   0.8403947100000000    0.6479756800000001    0.5399077300000000 O
   0.1596052900000000    0.8075819700000000    0.7934252700000000 O
   0.6479756800000001    0.8403947100000000    0.4600922700000000 O
   0.1924180300000000    0.3520243200000000    0.1267582700000000 O
   0.6057808400000000    0.4684222700000000    0.1541674800000000 O
   0.5315777300000000    0.1373585700000000    0.4875004800000000 O
   0.8626414300000000    0.3942191600000000    0.8208344800000000 O
