Ti4 Ag8 O12
1.0
   8.1872059999999998   -3.7731530000000002    0.0000000000000000
   8.1872059999999998    3.7731530000000002    0.0000000000000000
  -0.8614190000000000    0.0000000000000000    4.9795309999999997
Ti Ag O
4 8 12
direct
   0.4546470000000000    0.7018900000000000    0.6019730000000000 Ti
   0.5453530000000000    0.2981100000000000    0.3980270000000000 Ti
   0.2981100000000000    0.5453530000000000    0.8980270000000000 Ti
   0.7018900000000000    0.4546470000000000    0.1019730000000000 Ti
   0.1189250000000000    0.3834900000000000    0.2679060000000000 Ag
   0.3834900000000000    0.1189250000000000    0.7679060000000000 Ag
   0.8810750000000001    0.6165100000000000    0.7320940000000000 Ag
   0.6165100000000000    0.8810750000000001    0.2320940000000000 Ag
   0.0057330000000000    0.2035660000000000    0.5581640000000000 Ag
   0.7964340000000000    0.9942670000000000    0.9418360000000000 Ag
   0.9942670000000000    0.7964340000000000    0.4418360000000000 Ag
   0.2035660000000000    0.0057330000000000    0.0581640000000000 Ag
   0.7128930000000000    0.5682300000000000    0.4572060000000000 O
   0.4317700000000000    0.2871070000000000    0.0427940000000000 O
   0.2871070000000000    0.4317700000000000    0.5427940000000000 O
   0.5682300000000000    0.7128930000000000    0.9572060000000000 O
   0.9519310000000000    0.3308880000000000    0.9961770000000000 O
   0.6691120000000000    0.0480690000000000    0.5038230000000000 O
   0.0480690000000000    0.6691120000000000    0.0038230000000000 O
   0.2207390000000000    0.7792610000000000    0.7500000000000000 O
   0.4282340000000000    0.5717660000000000    0.2500000000000000 O
   0.5717660000000000    0.4282340000000000    0.7500000000000000 O
   0.7792610000000000    0.2207390000000000    0.2500000000000000 O
   0.3308880000000000    0.9519310000000000    0.4961770000000000 O
