Ca2 La2 Mg2 Ta2 O12
1.0
   5.5201969399999999    0.0000000000000000   -0.0058378300000000
   0.0000000000000000    5.6451477900000002    0.0000000000000000
  -5.5326854299999999    0.0000000000000000    7.8745912699999998
Ca La Mg Ta O
2 2 2 2 12
direct
   0.2605450900000000    0.2010993600000000    0.7483127400000000 Ca
   0.2605450900000000    0.7989006400000001    0.2483127400000000 Ca
   0.7415918500000001    0.7070987700000000    0.7516011100000000 La
   0.7415918500000001    0.2929012300000000    0.2516011100000000 La
   0.9987253600000000    0.7502594000000000    0.4994682900000000 Mg
   0.9987253600000000    0.2497406000000000    0.9994682900000000 Mg
   0.5011037400000000    0.2475453000000000    0.5013048000000000 Ta
   0.5011037400000000    0.7524547000000000    0.0013048000000000 Ta
   0.1668978800000000    0.2181236900000000    0.2554779500000000 O
   0.3481378600000000    0.9615847700000000    0.5497306000000000 O
   0.7418303500000000    0.9542167600000000    0.9542978400000000 O
   0.2562608700000000    0.4473018500000000    0.5472148300000000 O
   0.6446322600000000    0.4630114200000000    0.9481243100000000 O
   0.8402727300000000    0.7227223000000000    0.2444675300000000 O
   0.1668978800000000    0.7818763100000000    0.7554779500000000 O
   0.3481378600000000    0.0384152300000000    0.0497306000000000 O
   0.7418303500000000    0.0457832400000000    0.4542978400000000 O
   0.2562608700000000    0.5526981500000000    0.0472148300000000 O
   0.6446322600000000    0.5369885800000000    0.4481243100000000 O
   0.8402727300000000    0.2772777000000000    0.7444675300000000 O
