Ti1 Ga4 O8
1.0
   6.1303710899999997   -1.5211280400000000    0.0037489100000000
   6.1303710899999997    1.5211280400000000    0.0037489100000000
  -5.3402107299999999    0.0000000000000000    7.8879336000000002
Ti Ga O
1 4 8
direct
   0.0000000000000000    0.0000000000000000    0.0000000000000000 Ti
   0.4651763500000000    0.4651763500000000    0.2894828000000000 Ga
   0.2401433200000000    0.2401433200000000    0.6361890200000000 Ga
   0.7598566800000000    0.7598566800000000    0.3638109800000000 Ga
   0.5348236500000000    0.5348236500000000    0.7105172000000000 Ga
   0.1066416500000000    0.1066416500000000    0.6879748200000000 O
   0.4420212900000000    0.4420212900000000    0.0802882600000000 O
   0.5579787100000000    0.5579787100000000    0.9197117400000000 O
   0.1670259900000000    0.1670259900000000    0.2215326200000000 O
   0.8933583500000000    0.8933583500000000    0.3120251800000000 O
   0.3541127800000000    0.3541127800000000    0.5398111500000000 O
   0.6458872200000000    0.6458872200000000    0.4601888500000000 O
   0.8329740100000000    0.8329740100000000    0.7784673800000000 O
