Rb8 C4 O12
1.0
   5.8453608399999997    0.0000000000000000   -0.0766563700000000
   0.0000000000000000    9.9680556800000009    0.0000000000000000
  -0.8441137600000000    0.0000000000000000    7.4253879700000001
Rb C O
8 4 12
direct
   0.2596372400000000    0.2763975100000000    0.0236754400000000 Rb
   0.7403627600000000    0.7763975100000000    0.4763245600000000 Rb
   0.7403627600000000    0.7236024900000000    0.9763245600000000 Rb
   0.2596372400000000    0.2236024900000000    0.5236754400000000 Rb
   0.2402858500000000    0.9180749600000000    0.1813092900000000 Rb
   0.7597141500000000    0.4180749600000000    0.3186907100000000 Rb
   0.7597141500000000    0.0819250400000000    0.8186907100000000 Rb
   0.2402858500000000    0.5819250400000000    0.6813092900000000 Rb
   0.2512326800000000    0.5835397200000000    0.2631807300000000 C
   0.2512326800000000    0.9164602800000000    0.7631807300000000 C
   0.7487673200000000    0.4164602800000000    0.7368192700000000 C
   0.7487673200000000    0.0835397200000000    0.2368192700000000 C
   0.0680590700000000    0.8457863200000000    0.7814480800000000 O
   0.9319409300000000    0.3457863200000000    0.7185519200000000 O
   0.9319409300000000    0.1542136800000000    0.2185519200000000 O
   0.0680590700000000    0.6542136800000000    0.2814480800000000 O
   0.4240875600000000    0.8628282700000000    0.6961146400000000 O
   0.4240875600000000    0.6371717300000000    0.1961146400000000 O
   0.5759124400000000    0.1371717300000000    0.3038853600000000 O
   0.5759124400000000    0.3628282700000000    0.8038853600000000 O
   0.2609779900000000    0.4587768600000000    0.3160928500000000 O
   0.7390220100000000    0.9587768600000000    0.1839071500000000 O
   0.7390220100000000    0.5412231400000000    0.6839071500000000 O
   0.2609779900000000    0.0412231400000000    0.8160928500000000 O
