Li4 Ga4 Se8
1.0
   6.8677165200000001    0.0000000000000000    0.0000000000000000
   0.0000000000000000    8.1855601700000005    0.0000000000000000
   0.0000000000000000    0.0000000000000000    6.5636945600000001
Li Ga Se
4 4 8
direct
   0.9109079400000000    0.6208782200000000    0.1198835400000000 Li
   0.0890920600000000    0.3791217800000000    0.6198835400000000 Li
   0.5890920600000000    0.1208782200000000    0.6198835400000000 Li
   0.4109079400000000    0.8791217800000000    0.1198835400000000 Li
   0.5729681300000000    0.6259224300000000    0.6225874700000000 Ga
   0.4270318700000000    0.3740775700000000    0.1225874700000000 Ga
   0.9270318700000000    0.1259224300000000    0.1225874700000000 Ga
   0.0729681300000000    0.8740775700000000    0.6225874700000000 Ga
   0.9062538700000000    0.6327727800000000    0.5044954400000000 Se
   0.0937461300000000    0.3672272200000000    0.0044954400000000 Se
   0.5937461300000000    0.1327727800000000    0.0044954400000000 Se
   0.4062538700000000    0.8672272200000000    0.5044954400000000 Se
   0.0676329100000000    0.8789339700000000    0.9910335600000000 Se
   0.9323670900000000    0.1210660300000000    0.4910335600000000 Se
   0.4323670900000000    0.3789339700000000    0.4910335600000000 Se
   0.5676329100000000    0.6210660300000000    0.9910335600000000 Se
