La8 Zr4 S20
1.0
  11.3375157600000005    0.0000000000000000    0.0000000000000000
   0.0000000000000000    8.2044843400000005    0.0000000000000000
   0.0000000000000000    0.0000000000000000    7.3222886100000002
La Zr S
8 4 20
direct
   0.8294940700000000    0.9977788100000000    0.9376427400000000 La
   0.3294940700000000    0.5022211900000000    0.5623572600000000 La
   0.1705059300000000    0.4977788100000000    0.0623572600000000 La
   0.6705059300000000    0.0022211900000000    0.4376427400000000 La
   0.1705059300000000    0.0022211900000000    0.0623572600000000 La
   0.6705059300000000    0.4977788100000000    0.4376427400000000 La
   0.8294940700000000    0.5022211900000000    0.9376427400000000 La
   0.3294940700000000    0.9977788100000000    0.5623572600000000 La
   0.9897501800000000    0.7500000000000000    0.4295597900000000 Zr
   0.4897501800000000    0.7500000000000000    0.0704402100000000 Zr
   0.0102498200000000    0.2500000000000000    0.5704402100000000 Zr
   0.5102498200000000    0.2500000000000000    0.9295597900000000 Zr
   0.5722330500000000    0.9632575600000000    0.8185381400000000 S
   0.0722330500000000    0.5367424400000000    0.6814618600000000 S
   0.4277669500000000    0.4632575600000000    0.1814618600000000 S
   0.9277669500000000    0.0367424400000000    0.3185381400000000 S
   0.4277669500000000    0.0367424400000000    0.1814618600000000 S
   0.9277669500000000    0.4632575600000000    0.3185381400000000 S
   0.5722330500000000    0.5367424400000000    0.8185381400000000 S
   0.0722330500000000    0.9632575600000000    0.6814618600000000 S
   0.8036353600000000    0.7500000000000000    0.6394424600000000 S
   0.3036353600000000    0.7500000000000000    0.8605575400000000 S
   0.1963646400000000    0.2500000000000000    0.3605575400000000 S
   0.6963646400000000    0.2500000000000000    0.1394424600000000 S
   0.4959127600000000    0.7500000000000000    0.4428033000000000 S
   0.9959127600000000    0.7500000000000000    0.0571967000000000 S
   0.5040872400000000    0.2500000000000000    0.5571967000000000 S
   0.0040872400000000    0.2500000000000000    0.9428033000000000 S
   0.7113588100000000    0.7500000000000000    0.1593193800000000 S
   0.2113588100000000    0.7500000000000000    0.3406806200000000 S
   0.2886411900000000    0.2500000000000000    0.8406806200000000 S
   0.7886411900000000    0.2500000000000000    0.6593193800000000 S
