Sc2 Bi6 Mo4 O24
1.0
   8.4681806300000009   -5.7473141600000002   -0.0285995800000000
   8.4681806300000009    5.7473141600000002   -0.0285995800000000
  -1.3545758299999999    0.0000000000000000    5.1110950300000004
Sc Bi Mo O
2 6 4 24
direct
   0.9099734200000000    0.0900265800000000    0.2500000000000000 Sc
   0.0900265800000000    0.9099734200000000    0.7500000000000000 Sc
   0.2740164600000000    0.0359535700000000    0.4374062600000000 Bi
   0.7259835400000000    0.9640464300000000    0.5625937400000000 Bi
   0.9640464300000000    0.7259835400000000    0.0625937400000000 Bi
   0.0359535700000000    0.2740164600000000    0.9374062600000000 Bi
   0.3435545400000000    0.6564454600000000    0.2500000000000000 Bi
   0.6564454600000000    0.3435545400000000    0.7500000000000000 Bi
   0.4574534900000000    0.2069771000000000    0.0776126100000000 Mo
   0.5425465100000000    0.7930229000000000    0.9223873900000000 Mo
   0.7930229000000000    0.5425465100000000    0.4223873900000000 Mo
   0.2069771000000000    0.4574534900000000    0.5776126100000000 Mo
   0.4462869200000000    0.3670948300000000    0.2976745500000000 O
   0.5537130800000000    0.6329051700000000    0.7023254500000000 O
   0.6329051700000000    0.5537130800000000    0.2023254500000000 O
   0.3670948300000000    0.4462869200000000    0.7976745500000000 O
   0.1047861000000000    0.0585732800000000    0.0850371700000000 O
   0.8952139000000000    0.9414267200000001    0.9149628300000000 O
   0.9414267200000001    0.8952139000000000    0.4149628300000000 O
   0.0585732800000000    0.1047861000000000    0.5850371700000000 O
   0.4023463400000000    0.8309450900000001    0.1212256600000000 O
   0.5976536600000000    0.1690549100000000    0.8787743400000000 O
   0.1690549100000000    0.5976536600000000    0.3787743400000000 O
   0.8309450900000001    0.4023463400000000    0.6212256600000000 O
   0.7062110200000000    0.7894528300000000    0.1365134600000000 O
   0.2937889800000000    0.2105471700000000    0.8634865400000000 O
   0.2105471700000000    0.2937889800000000    0.3634865400000000 O
   0.7894528300000000    0.7062110200000000    0.6365134600000000 O
   0.2582103600000000    0.8413755300000000    0.5380930700000000 O
   0.7417896400000000    0.1586244700000000    0.4619069300000000 O
   0.1586244700000000    0.7417896400000000    0.9619069300000000 O
   0.8413755300000000    0.2582103600000000    0.0380930700000000 O
   0.4943800300000000    0.0698223100000000    0.2678383400000000 O
   0.5056199700000000    0.9301776899999999    0.7321616600000000 O
   0.9301776899999999    0.5056199700000000    0.2321616600000000 O
   0.0698223100000000    0.4943800300000000    0.7678383400000000 O
