Ba2 Y2 Cu2 Se6
1.0
   2.0677022300000001   -6.9041324399999997    0.0000000000000000
   2.0677022300000001    6.9041324399999997    0.0000000000000000
   0.0000000000000000    0.0000000000000000   10.5031960499999997
Ba Y Cu Se
2 2 2 6
direct
   0.2531871800000000    0.7468128200000000    0.2500000000000000 Ba
   0.7468128200000000    0.2531871800000000    0.7500000000000000 Ba
   0.0000000000000000    0.0000000000000000    0.5000000000000000 Y
   0.0000000000000000    0.0000000000000000    0.0000000000000000 Y
   0.5318205000000000    0.4681795000000000    0.2500000000000000 Cu
   0.4681795000000000    0.5318205000000000    0.7500000000000000 Cu
   0.6349649700000000    0.3650350300000000    0.4389839900000000 Se
   0.3650350300000000    0.6349649700000000    0.5610160100000000 Se
   0.6349649700000000    0.3650350300000000    0.0610160100000000 Se
   0.3650350300000000    0.6349649700000000    0.9389839900000000 Se
   0.9314257000000000    0.0685743000000000    0.2500000000000000 Se
   0.0685743000000000    0.9314257000000000    0.7500000000000000 Se
