Ti2 P4 S12
1.0
   0.0000000000000000    5.6479672200000000   10.4754488299999995
   3.9186487600000000    0.0000000000000000   10.4754488299999995
   3.9186487600000000    5.6479672200000000    0.0000000000000000
Ti P S
2 4 12
direct
   0.6489363700000000    0.6489363700000000    0.8510636300000000 Ti
   0.3989363700000000    0.3989363700000000    0.6010636300000000 Ti
   0.9848560800000000    0.6399943800000000    0.6390084900000000 P
   0.6109915100000000    0.5138589500000000    0.2651439200000000 P
   0.5138589500000000    0.6109915100000000    0.6100056200000000 P
   0.6399943800000000    0.9848560800000000    0.7361410500000000 P
   0.3601045100000000    0.7829096600000000    0.1828751000000000 S
   0.7829096600000000    0.3601045100000000    0.6741107300000000 S
   0.9728280800000000    0.4840017800000000    0.5648372500000000 S
   0.4840017800000000    0.9728280800000000    0.9783328900000000 S
   0.2716671100000000    0.6851627500000000    0.7659982200000000 S
   0.6851627500000000    0.2716671100000000    0.2771719200000000 S
   0.5834775200000000    0.1903926200000000    0.8474726700000000 S
   0.1903926200000000    0.5834775200000000    0.3786572000000000 S
   0.8713428000000000    0.4025273300000000    0.0596073800000000 S
   0.4025273300000000    0.8713428000000000    0.6665224800000000 S
   0.0671249000000000    0.5758892700000000    0.8898954900000000 S
   0.5758892700000000    0.0671249000000000    0.4670903400000000 S
