Ga8 Sn8 S20
1.0
  12.2890467700000006    0.0000000000000000    0.0000000000000000
   0.0000000000000000    6.1854795800000000    0.0000000000000000
   0.0000000000000000    0.0000000000000000   10.7413169400000008
Ga Sn S
8 8 20
direct
   0.7672739600000000    0.6338274100000000    0.1134570100000000 Ga
   0.2327260400000000    0.3661725900000000    0.6134570100000000 Ga
   0.2672739600000000    0.8661725900000000    0.1134570100000000 Ga
   0.7327260400000000    0.1338274100000000    0.6134570100000000 Ga
   0.8207535500000001    0.1397121400000000    0.2832479600000000 Ga
   0.1792464500000000    0.8602878600000000    0.7832479600000000 Ga
   0.3207535500000000    0.3602878600000000    0.2832479600000000 Ga
   0.6792464499999999    0.6397121400000000    0.7832479600000000 Ga
   0.5490318100000000    0.5476205500000000    0.4763577000000000 Sn
   0.4509681900000000    0.4523794500000000    0.9763577000000000 Sn
   0.0490318100000000    0.9523794500000000    0.4763577000000000 Sn
   0.9509681900000000    0.0476205500000000    0.9763577000000000 Sn
   0.0191559300000000    0.5542992900000000    0.2610224200000000 Sn
   0.9808440700000000    0.4457007100000000    0.7610224200000000 Sn
   0.5191559300000000    0.9457007100000000    0.2610224200000000 Sn
   0.4808440700000000    0.0542992900000000    0.7610224200000000 Sn
   0.6698398500000000    0.4536008000000000    0.9665284700000000 S
   0.3301601500000000    0.5463992000000000    0.4665284700000000 S
   0.1698398500000000    0.0463992000000000    0.9665284700000000 S
   0.8301601500000000    0.9536008000000000    0.4665284700000000 S
   0.2243972300000000    0.5097625400000000    0.8073380900000000 S
   0.7756027700000000    0.4902374600000000    0.3073380900000000 S
   0.7243972300000000    0.9902374600000000    0.8073380900000000 S
   0.2756027700000000    0.0097625400000000    0.3073380900000000 S
   0.5588485100000000    0.1319490300000000    0.5339235800000000 S
   0.4411514900000000    0.8680509700000000    0.0339235800000000 S
   0.0588485100000000    0.3680509700000000    0.5339235800000000 S
   0.9411514900000000    0.6319490300000000    0.0339235800000000 S
   0.5000937600000001    0.6326663900000000    0.7244044700000000 S
   0.4999062400000000    0.3673336100000000    0.2244044700000000 S
   0.0000937600000000    0.8673336100000000    0.7244044700000000 S
   0.9999062399999999    0.1326663900000000    0.2244044700000000 S
   0.7128868300000000    0.9860067100000000    0.1341203100000000 S
   0.2871131700000000    0.0139932900000000    0.6341203100000000 S
   0.2128868300000000    0.5139932900000000    0.1341203100000000 S
   0.7871131700000000    0.4860067100000000    0.6341203100000000 S
