Na10 P6 O20
1.0
   7.9628427999999998   -2.5830528199999998    0.0330618300000000
   7.9628427999999998    2.5830528199999998    0.0330618300000000
  -0.6408416700000000    0.0000000000000000   11.1110552299999998
Na P O
10 6 20
direct
   0.6981093100000000    0.2219172000000000    0.5392406199999999 Na
   0.2219172000000000    0.6981093100000000    0.0392406200000000 Na
   0.3018906900000000    0.7780828000000000    0.4607593800000000 Na
   0.8903420300000000    0.4274057200000000    0.7080953700000000 Na
   0.5725942800000000    0.1096579700000000    0.7919046300000000 Na
   0.1096579700000000    0.5725942800000000    0.2919046300000000 Na
   0.0000000000000000    0.5000000000000000    0.0000000000000000 Na
   0.5000000000000000    0.0000000000000000    0.5000000000000000 Na
   0.4274057200000000    0.8903420300000000    0.2080953700000000 Na
   0.7780828000000000    0.3018906900000000    0.9607593800000001 Na
   0.9512883800000000    0.3437833700000000    0.4017205400000000 P
   0.6562166300000000    0.0487116200000000    0.0982794600000000 P
   0.0487116200000000    0.6562166300000000    0.5982794600000000 P
   0.3437833700000000    0.9512883800000000    0.9017205400000000 P
   0.6970465700000000    0.3029534300000000    0.2500000000000000 P
   0.3029534300000000    0.6970465700000000    0.7500000000000000 P
   0.2720726800000000    0.1700145300000000    0.8523813900000000 O
   0.0306306900000000    0.2083525400000000    0.5211765300000000 O
   0.7916474600000000    0.9693693100000000    0.9788234700000000 O
   0.9693693100000000    0.7916474600000000    0.4788234700000000 O
   0.2083525400000000    0.0306306900000000    0.0211765300000000 O
   0.1700145300000000    0.2720726800000000    0.3523813900000000 O
   0.4926311100000000    0.5846718300000000    0.6508575500000000 O
   0.4153281700000000    0.5073688900000000    0.8491424500000000 O
   0.5073688900000000    0.4153281700000000    0.3491424500000000 O
   0.5846718300000000    0.4926311100000000    0.1508575500000000 O
   0.1644296100000000    0.9692772100000000    0.8065349700000000 O
   0.0307227900000000    0.8355703900000000    0.6934650300000000 O
   0.8355703900000000    0.0307227900000000    0.1934650300000000 O
   0.9692772100000000    0.1644296100000000    0.3065349700000000 O
   0.8299854700000000    0.7279273200000000    0.6476186100000000 O
   0.3393210000000000    0.3596374800000000    0.6074483500000000 O
   0.3596374800000000    0.3393210000000000    0.1074483500000000 O
   0.6606790000000000    0.6403625200000000    0.3925516500000000 O
   0.6403625200000000    0.6606790000000000    0.8925516500000000 O
   0.7279273200000000    0.8299854700000000    0.1476186100000000 O
