Cs8 P4 Au4 S16
1.0
   6.9349540400000000    0.0000000000000000    0.0000000000000000
   0.0000000000000000   19.9943777599999990    0.0000000000000000
   0.0000000000000000    0.0000000000000000    7.0064992300000002
Cs P Au S
8 4 4 16
direct
   0.7954508500000000    0.4838940200000000    0.2500000000000000 Cs
   0.2045491500000000    0.5161059800000000    0.7500000000000000 Cs
   0.7954508500000000    0.0161059800000000    0.7500000000000000 Cs
   0.2045491500000000    0.9838940200000000    0.2500000000000000 Cs
   0.4186987500000000    0.6645698400000000    0.2500000000000000 Cs
   0.5813012500000000    0.3354301600000000    0.7500000000000000 Cs
   0.4186987500000000    0.8354301600000000    0.7500000000000000 Cs
   0.5813012500000000    0.1645698400000000    0.2500000000000000 Cs
   0.2796855300000000    0.3870190600000000    0.2500000000000000 P
   0.7203144700000000    0.6129809400000000    0.7500000000000000 P
   0.2796855300000000    0.1129809400000000    0.7500000000000000 P
   0.7203144700000000    0.8870190600000000    0.2500000000000000 P
   0.1183984600000000    0.2500000000000000    0.0000000000000000 Au
   0.8816015400000000    0.7500000000000000    0.5000000000000000 Au
   0.8816015400000000    0.7500000000000000    0.0000000000000000 Au
   0.1183984600000000    0.2500000000000000    0.5000000000000000 Au
   0.5346441800000000    0.3389258600000000    0.2500000000000000 S
   0.4653558200000000    0.6610741400000000    0.7500000000000000 S
   0.5346441800000000    0.1610741400000000    0.7500000000000000 S
   0.4653558200000000    0.8389258600000000    0.2500000000000000 S
   0.1199277300000000    0.3640471900000000    0.0049447800000000 S
   0.8800722700000000    0.6359528100000000    0.5049447800000000 S
   0.1199277300000000    0.1359528100000000    0.9950552200000000 S
   0.8800722700000000    0.8640471900000000    0.4950552200000000 S
   0.8800722700000000    0.6359528100000000    0.9950552200000000 S
   0.1199277300000000    0.3640471900000000    0.4950552200000000 S
   0.8800722700000000    0.8640471900000000    0.0049447800000000 S
   0.1199277300000000    0.1359528100000000    0.5049447800000000 S
   0.2971400200000000    0.4878940500000000    0.2500000000000000 S
   0.7028599800000001    0.5121059500000000    0.7500000000000000 S
   0.2971400200000000    0.0121059500000000    0.7500000000000000 S
   0.7028599800000001    0.9878940500000000    0.2500000000000000 S
