Ba2 La1 Ag5 S6
1.0
   6.8609986699999999   -2.1051590899999999    0.0018096300000000
   6.8609986699999999    2.1051590899999999    0.0018096300000000
  -0.7783744400000000    0.0000000000000000   10.9913075700000000
Ba La Ag S
2 1 5 6
direct
   0.2490737100000000    0.2490737100000000    0.7106496000000000 Ba
   0.7509262900000000    0.7509262900000000    0.2893504000000000 Ba
   0.5000000000000000    0.5000000000000000    0.5000000000000000 La
   0.3527361000000000    0.3527361000000000    0.0347048400000000 Ag
   0.6472639000000000    0.6472639000000000    0.9652951600000000 Ag
   0.9774683500000000    0.9774683500000000    0.7455666399999999 Ag
   0.0225316500000000    0.0225316500000000    0.2544333600000000 Ag
   0.0000000000000000    0.0000000000000000    0.0000000000000000 Ag
   0.5819095300000000    0.5819095300000000    0.7456168100000000 S
   0.8409634400000000    0.8409634400000000    0.9016207300000000 S
   0.1590365600000000    0.1590365600000000    0.0983792700000000 S
   0.4180904700000000    0.4180904700000000    0.2543831900000000 S
   0.1337408500000000    0.1337408500000000    0.4489832400000000 S
   0.8662591500000000    0.8662591500000000    0.5510167600000000 S
