Ba1 Ta1 N1 O2
1.0
   4.1099158899999999    0.0000000000000000    0.0000000000000000
   0.0000000000000000    4.1099158899999999    0.0000000000000000
   0.0000000000000000    0.0000000000000000    4.1111184500000002
Ba Ta N O
1 1 1 2
direct
   0.0000000000000000    0.0000000000000000    0.0000000000000000 Ba
   0.5000000000000000    0.5000000000000000    0.5000000000000000 Ta
   0.5000000000000000    0.5000000000000000    0.0000000000000000 N
   0.5000000000000000    0.0000000000000000    0.5000000000000000 O
   0.0000000000000000    0.5000000000000000    0.5000000000000000 O
