Ba2 Zr1 Ti1 O6
1.0
   0.0000000000000000    4.1122839400000002    4.1122839400000002
   4.1122839400000002    0.0000000000000000    4.1122839400000002
   4.1122839400000002    4.1122839400000002    0.0000000000000000
Ba Zr Ti O
2 1 1 6
direct
   0.2500000000000000    0.2500000000000000    0.2500000000000000 Ba
   0.7500000000000000    0.7500000000000000    0.7500000000000000 Ba
   0.5000000000000000    0.5000000000000000    0.5000000000000000 Zr
   0.0000000000000000    0.0000000000000000    0.0000000000000000 Ti
   0.2434590100000000    0.7565409900000000    0.2434590100000000 O
   0.2434590100000000    0.2434590100000000    0.7565409900000000 O
   0.7565409900000000    0.2434590100000000    0.2434590100000000 O
   0.7565409900000000    0.2434590100000000    0.7565409900000000 O
   0.7565409900000000    0.7565409900000000    0.2434590100000000 O
   0.2434590100000000    0.7565409900000000    0.7565409900000000 O
