Zr2 Sb2 Pb4 O13
1.0
  -3.7742808600000002    3.7796491400000001    5.3396944099999999
   3.7742808600000002   -3.7796491400000001    5.3396944099999999
   3.7742808600000002    3.7796491400000001   -5.3396944099999999
Zr Sb Pb O
2 2 4 13
direct
   0.2500287400000000    0.4995396000000000    0.7504891400000000 Zr
   0.7490504600000000    0.4995396000000000    0.2495108600000000 Zr
   0.7491330800000000    0.9982979900000000    0.2491649100000000 Sb
   0.7491330800000000    0.4999681700000000    0.7508350900000000 Sb
   0.7539950200000000    0.0018979700000000    0.7520960500000000 Pb
   0.2498019100000000    0.0018979700000000    0.2479039500000000 Pb
   0.2501827300000000    0.5032119700000000    0.2530302400000000 Pb
   0.2501827300000000    0.9971525000000000    0.7469697600000000 Pb
   0.0859795900000000    0.5859795900000000    0.5000000000000000 O
   0.6817370100000000    0.1817370100000000    0.5000000000000000 O
   0.0642049700000000    0.1651144700000000    0.4832772500000000 O
   0.6818372200000000    0.5809277200000000    0.5167227500000000 O
   0.6818372200000000    0.1651144700000000    0.1009105000000000 O
   0.0642049700000000    0.5809277200000000    0.8990895000000000 O
   0.4187647400000000    0.4187647400000000    0.0000000000000000 O
   0.8149547300000000    0.8149547300000000    0.0000000000000000 O
   0.4359885300000000    0.8304533100000000    0.0168011600000000 O
   0.8136521500000000    0.4191863700000000    0.9831988400000000 O
   0.8136521500000000    0.8304533100000000    0.3944657800000000 O
   0.4359885300000000    0.4191863700000000    0.6055342200000000 O
   0.3806914500000000    0.8806914500000000    0.5000000000000000 O
