Hg4 Se4 O12
1.0
   6.1551686900000000    0.0000000000000000    0.0000000000000000
   0.0000000000000000    8.2653960299999998    0.0000000000000000
   0.0000000000000000    0.0000000000000000    5.9366692800000003
Hg Se O
4 4 12
direct
   0.0000000000000000    0.5000000000000000    0.0000000000000000 Hg
   0.5000000000000000    0.5000000000000000    0.5000000000000000 Hg
   0.5000000000000000    0.0000000000000000    0.5000000000000000 Hg
   0.0000000000000000    0.0000000000000000    0.0000000000000000 Hg
   0.9428558300000000    0.7500000000000000    0.5001712100000000 Se
   0.5571441700000000    0.2500000000000000    0.0001712100000000 Se
   0.4428558300000000    0.7500000000000000    0.9998287900000000 Se
   0.0571441700000000    0.2500000000000000    0.4998287900000000 Se
   0.1987416800000000    0.4138009700000000    0.6193046200000000 O
   0.3012583200000000    0.5861990300000000    0.1193046200000000 O
   0.6987416800000000    0.0861990300000000    0.8806953800000000 O
   0.8012583200000000    0.9138009700000000    0.3806953800000000 O
   0.8012583200000000    0.5861990300000000    0.3806953800000000 O
   0.6987416800000000    0.4138009700000000    0.8806953800000000 O
   0.3012583200000000    0.9138009700000000    0.1193046200000000 O
   0.1987416800000000    0.0861990300000000    0.6193046200000000 O
   0.1416242600000000    0.2500000000000000    0.2300167500000000 O
   0.3583757400000000    0.7500000000000000    0.7300167500000000 O
   0.6416242599999999    0.2500000000000000    0.2699832500000000 O
   0.8583757400000001    0.7500000000000000    0.7699832500000000 O
