Cs4 Hf2 O6
1.0
   5.6238295000000003   -3.8244523500000001    0.0000000000000000
   5.6238295000000003    3.8244523500000001    0.0000000000000000
   0.0000000000000000    0.0000000000000000    5.9471943200000004
Cs Hf O
4 2 6
direct
   0.8053378400000000    0.5198357000000000    0.7500000000000000 Cs
   0.5198357000000000    0.8053378400000000    0.2500000000000000 Cs
   0.1946621600000000    0.4801643000000000    0.2500000000000000 Cs
   0.4801643000000000    0.1946621600000000    0.7500000000000000 Cs
   0.9174722900000000    0.0825277100000000    0.2500000000000000 Hf
   0.0825277100000000    0.9174722900000000    0.7500000000000000 Hf
   0.8804004100000000    0.8804004100000000    0.0000000000000000 O
   0.8804004100000000    0.8804004100000000    0.5000000000000000 O
   0.3369700300000000    0.6630299700000000    0.7500000000000000 O
   0.6630299700000000    0.3369700300000000    0.2500000000000000 O
   0.1195995900000000    0.1195995900000000    0.0000000000000000 O
   0.1195995900000000    0.1195995900000000    0.5000000000000000 O
