Cs4 Be4 P4 O16
1.0
   8.5943179099999991    0.0000000000000000    0.0000000000000000
   0.0000000000000000    5.1534147700000004    0.0000000000000000
   0.0000000000000000    0.0000000000000000    8.9092595200000009
Cs Be P O
4 4 4 16
direct
   0.5074361800000000    0.2500000000000000    0.2972421200000000 Cs
   0.4925638200000000    0.7500000000000000    0.7027578799999999 Cs
   0.0074361800000000    0.2500000000000000    0.2027578800000000 Cs
   0.9925638200000000    0.7500000000000000    0.7972421200000001 Cs
   0.1772617900000000    0.7500000000000000    0.4103338200000000 Be
   0.8227382100000000    0.2500000000000000    0.5896661800000000 Be
   0.6772617900000000    0.7500000000000000    0.0896661800000000 Be
   0.3227382100000000    0.2500000000000000    0.9103338200000000 Be
   0.3129077800000000    0.7500000000000000    0.0808428600000000 P
   0.6870922200000000    0.2500000000000000    0.9191571400000000 P
   0.8129077800000000    0.7500000000000000    0.4191571400000000 P
   0.1870922200000000    0.2500000000000000    0.5808428600000000 P
   0.4902555100000000    0.7500000000000000    0.0936856800000000 O
   0.5097444900000000    0.2500000000000000    0.9063143200000000 O
   0.9902555100000000    0.7500000000000000    0.4063143200000000 O
   0.0097444900000000    0.2500000000000000    0.5936856800000000 O
   0.7555499600000000    0.9929779900000000    0.5048494800000000 O
   0.2444500400000000    0.4929779900000000    0.4951505200000000 O
   0.2555499600000000    0.5070220100000000    0.9951505200000000 O
   0.7444500400000000    0.0070220100000000    0.0048494800000000 O
   0.2444500400000000    0.0070220100000000    0.4951505200000000 O
   0.7555499600000000    0.5070220100000000    0.5048494800000000 O
   0.7444500400000000    0.4929779900000000    0.0048494800000000 O
   0.2555499600000000    0.9929779900000000    0.9951505200000000 O
   0.2605217200000000    0.2500000000000000    0.7377142799999999 O
   0.7394782800000000    0.7500000000000000    0.2622857200000000 O
   0.7605217200000000    0.2500000000000000    0.7622857200000001 O
   0.2394782800000000    0.7500000000000000    0.2377142800000000 O
