Na6 Ag2 S4
1.0
  -3.1662851299999999    6.2140253599999999    3.4038391400000001
   3.1662851299999999   -6.2140253599999999    3.4038391400000001
   3.1662851299999999    6.2140253599999999   -3.4038391400000001
Na Ag S
6 2 4
direct
   0.7500000000000000    0.2500000000000000    0.5000000000000000 Na
   0.2500000000000000    0.7500000000000000    0.5000000000000000 Na
   0.9832486800000000    0.7500000000000000    0.2332486800000000 Na
   0.5167513200000000    0.7500000000000000    0.7667513200000000 Na
   0.0167513200000000    0.2500000000000000    0.7667513200000000 Na
   0.4832486800000000    0.2500000000000000    0.2332486800000000 Na
   0.5000000000000000    0.5000000000000000    0.0000000000000000 Ag
   0.0000000000000000    0.0000000000000000    0.0000000000000000 Ag
   0.6308480400000001    0.2309285000000000    0.8617765400000000 S
   0.8691519599999999    0.7309285000000000    0.6000794600000000 S
   0.1308480400000000    0.2690715000000000    0.3999205400000000 S
   0.3691519600000000    0.7690715000000000    0.1382234600000000 S
