Zn4 B6 O13
1.0
  -3.7072038599999999    3.7072038599999999    3.7072038599999999
   3.7072038599999999   -3.7072038599999999    3.7072038599999999
   3.7072038599999999    3.7072038599999999   -3.7072038599999999
Zn B O
4 6 13
direct
   0.6957522500000000    0.6957522500000000    0.6957522500000000 Zn
   0.0000000000000000    0.3042477500000000    0.0000000000000000 Zn
   0.3042477500000000    0.0000000000000000    0.0000000000000000 Zn
   0.0000000000000000    0.0000000000000000    0.3042477500000000 Zn
   0.2500000000000000    0.5000000000000000    0.7500000000000000 B
   0.7500000000000000    0.2500000000000000    0.5000000000000000 B
   0.2500000000000000    0.7500000000000000    0.5000000000000000 B
   0.5000000000000000    0.7500000000000000    0.2500000000000000 B
   0.5000000000000000    0.2500000000000000    0.7500000000000000 B
   0.7500000000000000    0.5000000000000000    0.2500000000000000 B
   0.7277370200000000    0.7277370200000000    0.2778604900000000 O
   0.2722629800000000    0.5501244700000000    0.0000000000000000 O
   0.4498755300000000    0.7221395100000000    0.4498755300000000 O
   0.5501244700000000    0.2722629800000000    0.0000000000000000 O
   0.0000000000000000    0.5501244700000000    0.2722629800000000 O
   0.7221395100000000    0.4498755300000000    0.4498755300000000 O
   0.2778604900000000    0.7277370200000000    0.7277370200000000 O
   0.7277370200000000    0.2778604900000000    0.7277370200000000 O
   0.2722629800000000    0.0000000000000000    0.5501244700000000 O
   0.0000000000000000    0.2722629800000000    0.5501244700000000 O
   0.4498755300000000    0.4498755300000000    0.7221395100000000 O
   0.5501244700000000    0.0000000000000000    0.2722629800000000 O
   0.0000000000000000    0.0000000000000000    0.0000000000000000 O
