Na8 Si8 O20
1.0
   8.1088754000000005    0.0000000000000000    0.0281877000000000
   0.0000000000000000    4.8366021899999998    0.0000000000000000
  -2.9813246499999999    0.0000000000000000   11.8156946000000005
Na Si O
8 8 20
direct
   0.3794795400000000    0.2546770800000000    0.9438171800000000 Na
   0.6205204600000001    0.7546770800000000    0.5561828200000000 Na
   0.6205204600000001    0.7453229200000000    0.0561828200000000 Na
   0.3794795400000000    0.2453229200000000    0.4438171800000000 Na
   0.1366699900000000    0.7230698600000000    0.9722952400000000 Na
   0.8633300100000000    0.2230698600000000    0.5277047600000000 Na
   0.8633300100000000    0.2769301400000000    0.0277047600000000 Na
   0.1366699900000000    0.7769301400000000    0.4722952400000000 Na
   0.0261664600000000    0.6817407500000000    0.6808156800000000 Si
   0.9738335400000000    0.1817407500000000    0.8191843200000000 Si
   0.9738335400000000    0.3182592500000000    0.3191843200000000 Si
   0.0261664600000000    0.8182592500000000    0.1808156800000000 Si
   0.4019863600000000    0.7973374900000000    0.7770148900000000 Si
   0.5980136400000000    0.2973374900000000    0.7229851100000000 Si
   0.5980136400000000    0.2026625100000000    0.2229851100000000 Si
   0.4019863600000000    0.7026625100000000    0.2770148900000000 Si
   0.9030956000000000    0.7543551300000000    0.0608673400000000 O
   0.0969044000000000    0.2543551300000000    0.4391326600000000 O
   0.0969044000000000    0.2456448700000000    0.9391326600000000 O
   0.9030956000000000    0.7456448700000000    0.5608673400000000 O
   0.3890576200000000    0.7690673600000000    0.4030962400000000 O
   0.6109423800000000    0.2690673600000000    0.0969037600000000 O
   0.6109423800000000    0.2309326400000000    0.5969037600000000 O
   0.3890576200000000    0.7309326400000000    0.9030962400000000 O
   0.2253255400000000    0.7531761100000000    0.1778592700000000 O
   0.7746744600000000    0.2531761100000000    0.3221407300000000 O
   0.7746744600000000    0.2468238900000000    0.8221407300000000 O
   0.2253255400000000    0.7468238900000000    0.6778592700000000 O
   0.4506456300000000    0.3718153900000000    0.2686905000000000 O
   0.5493543700000000    0.8718153900000000    0.2313095000000000 O
   0.5493543700000000    0.6281846100000000    0.7313094999999999 O
   0.4506456300000000    0.1281846100000000    0.7686905000000001 O
   0.0158092000000000    0.3503371000000000    0.7117046100000000 O
   0.9841908000000000    0.8503371000000000    0.7882953900000000 O
   0.9841908000000000    0.6496629000000000    0.2882953900000000 O
   0.0158092000000000    0.1496629000000000    0.2117046100000000 O
