Cs2 Al2 P2 O9
1.0
   4.9309171699999998   -0.0156650400000000    0.0082123000000000
  -2.2979383699999998    6.7955017000000000    0.0053408500000000
  -2.3572389500000002   -1.8014343900000001    7.4445985500000003
Cs Al P O
2 2 2 9
direct
   0.7737683100000000    0.1976308900000000    0.3495116900000000 Cs
   0.2262316900000000    0.8023691100000000    0.6504883100000000 Cs
   0.1540984100000000    0.2371258800000000    0.9704281500000000 Al
   0.8459015900000000    0.7628741200000000    0.0295718500000000 Al
   0.6148662300000000    0.3487111900000000    0.7717332700000000 P
   0.3851337700000000    0.6512888100000001    0.2282667300000000 P
   0.0865186900000000    0.6951778900000000    0.2012917800000000 O
   0.6035816600000000    0.7443947400000001    0.4176612300000000 O
   0.4829759000000000    0.2603488000000000    0.9135625300000000 O
   0.7148853600000000    0.5841382200000000    0.8223343700000000 O
   0.9134813100000000    0.3048221100000000    0.7987082200000000 O
   0.2851146400000000    0.4158617800000000    0.1776656300000000 O
   0.3964183400000000    0.2556052600000000    0.5823387700000000 O
   0.0000000000000000    0.0000000000000000    0.0000000000000000 O
   0.5170241000000000    0.7396512000000000    0.0864374700000000 O
