Ba2 La4 Zn2 O10
1.0
  -3.4190445399999998    3.4190445399999998    5.7246572899999997
   3.4190445399999998   -3.4190445399999998    5.7246572899999997
   3.4190445399999998    3.4190445399999998   -5.7246572899999997
Ba La Zn O
2 4 2 10
direct
   0.2500000000000000    0.2500000000000000    0.0000000000000000 Ba
   0.7500000000000000    0.7500000000000000    0.0000000000000000 Ba
   0.3257910300000000    0.1742089700000000    0.5000000000000000 La
   0.1742089700000000    0.6742089700000000    0.8484179300000000 La
   0.8257910300000000    0.3257910300000000    0.1515820700000000 La
   0.6742089700000000    0.8257910300000000    0.5000000000000000 La
   0.7500000000000000    0.2500000000000000    0.5000000000000000 Zn
   0.2500000000000000    0.7500000000000000    0.5000000000000000 Zn
   0.4900447700000000    0.9900447700000000    0.2111565900000000 O
   0.2211118300000000    0.7211118300000000    0.2111565900000000 O
   0.5099552300000000    0.0099552300000000    0.7888434100000000 O
   0.0099552300000000    0.2211118300000000    0.5000000000000000 O
   0.7211118300000000    0.5099552300000000    0.5000000000000000 O
   0.9900447700000000    0.7788881700000000    0.5000000000000000 O
   0.2788881700000000    0.4900447700000000    0.5000000000000000 O
   0.7788881700000000    0.2788881700000000    0.7888434100000000 O
   0.5000000000000000    0.5000000000000000    0.0000000000000000 O
   0.0000000000000000    0.0000000000000000    0.0000000000000000 O
