Ti2 Tl2 P2 S10
1.0
   8.8070266200000002   -3.4911920300000001    0.0005665600000000
   8.8070266200000002    3.4911920300000001    0.0005665600000000
  -1.1034772200000000    0.0000000000000000    6.2522114100000001
Ti Tl P S
2 2 2 10
direct
   0.2708949400000000    0.7291050600000000    0.5000000000000000 Ti
   0.7291050600000000    0.2708949400000000    0.5000000000000000 Ti
   0.2856575800000000    0.2856575800000000    0.2902137600000000 Tl
   0.7143424200000000    0.7143424200000000    0.7097862400000000 Tl
   0.1355443200000000    0.1355443200000000    0.7305953200000000 P
   0.8644556799999999    0.8644556799999999    0.2694046800000000 P
   0.8493451500000000    0.3231287600000000    0.8450103700000000 S
   0.4338720600000000    0.4338720600000000    0.6641163200000000 S
   0.9126646300000000    0.9126646300000000    0.5953087200000000 S
   0.0873353700000000    0.0873353700000000    0.4046912800000000 S
   0.3231287600000000    0.8493451500000000    0.8450103700000000 S
   0.7502786500000000    0.7502786500000000    0.2174687300000000 S
   0.5661279400000000    0.5661279400000000    0.3358836800000000 S
   0.2497213500000000    0.2497213500000000    0.7825312700000000 S
   0.6768712400000000    0.1506548500000000    0.1549896300000000 S
   0.1506548500000000    0.6768712400000000    0.1549896300000000 S
