Tl8 Si2 S8
1.0
   6.2246255499999998   -5.5359036200000000    0.0588642100000000
   6.2246255499999998    5.5359036200000000    0.0588642100000000
  -3.0132294700000002    0.0000000000000000    6.8134374199999996
Tl Si S
8 2 8
direct
   0.2153545200000000    0.2105095100000000    0.0852195300000000 Tl
   0.2105095100000000    0.2153545200000000    0.5852195300000000 Tl
   0.5930239700000000    0.0190801800000000    0.0511004600000000 Tl
   0.0190801800000000    0.5930239700000000    0.5511004600000000 Tl
   0.0065389100000000    0.7506492900000000    0.0721531600000000 Tl
   0.7506492900000000    0.0065389100000000    0.5721531600000000 Tl
   0.3978923400000000    0.6291139500000000    0.9896642000000000 Tl
   0.6291139500000000    0.3978923400000000    0.4896642000000000 Tl
   0.7989138900000000    0.3825210500000000    0.0293140600000000 Si
   0.3825210500000000    0.7989138900000000    0.5293140600000000 Si
   0.2234575300000000    0.9146929700000000    0.7125215800000000 S
   0.6295523500000000    0.7516527600000000    0.7024137100000000 S
   0.7516527600000000    0.6295523500000000    0.2024137100000000 S
   0.5671064400000000    0.2775111400000000    0.8400946300000000 S
   0.3925291600000000    0.9515010400000000    0.3487186800000000 S
   0.9515010400000000    0.3925291600000000    0.8487186799999999 S
   0.2775111400000000    0.5671064400000000    0.3400946300000000 S
   0.9146929700000000    0.2234575300000000    0.2125215800000000 S
