Li4 Al4 Se8
1.0
   6.8450360200000002    0.0000000000000000    0.0000000000000000
   0.0000000000000000    8.2343875099999995    0.0000000000000000
   0.0000000000000000    0.0000000000000000    6.5357980400000004
Li Al Se
4 4 8
direct
   0.5878439700000000    0.8787587400000000    0.0031195600000000 Li
   0.4121560300000000    0.1212412600000000    0.5031195600000000 Li
   0.9121560300000000    0.3787587400000000    0.5031195600000000 Li
   0.0878439700000000    0.6212412600000000    0.0031195600000000 Li
   0.5736921200000000    0.3739186100000000    0.9996111500000000 Al
   0.4263078800000000    0.6260813900000000    0.4996111500000000 Al
   0.9263078800000000    0.8739186100000000    0.4996111500000000 Al
   0.0736921200000000    0.1260813900000000    0.9996111500000000 Al
   0.9066466700000000    0.3649410900000000    0.1150335600000000 Se
   0.0933533300000000    0.6350589100000000    0.6150335600000000 Se
   0.5933533300000000    0.8649410900000000    0.6150335600000000 Se
   0.4066466700000000    0.1350589100000000    0.1150335600000000 Se
   0.5650614300000000    0.3816678700000000    0.6320347300000000 Se
   0.4349385700000000    0.6183321300000000    0.1320347300000000 Se
   0.9349385700000000    0.8816678700000000    0.1320347300000000 Se
   0.0650614300000000    0.1183321300000000    0.6320347300000000 Se
