Mg2 Ga2 S5
1.0
   3.6860573400000001    0.0000000000000000    0.0000000000000000
  -1.8430291599999999    3.1922195200000001    0.0000000000000000
   0.0000000000000000    0.0000000000000000   15.2828846100000000
Mg Ga S
2 2 5
direct
   0.3333330000000000    0.6666670000000000    0.0984150200000000 Mg
   0.6666670000000000    0.3333330000000000    0.9015849800000000 Mg
   0.3333330000000000    0.6666670000000000    0.6718226700000000 Ga
   0.6666670000000000    0.3333330000000000    0.3281773300000000 Ga
   0.3333330000000000    0.6666670000000000    0.3937232900000000 S
   0.6666670000000000    0.3333330000000000    0.6062767100000001 S
   0.3333330000000000    0.6666670000000000    0.8145498300000000 S
   0.6666670000000000    0.3333330000000000    0.1854501700000000 S
   0.0000000000000000    0.0000000000000000    0.0000000000000000 S
