Rb4 Ag4 Ge2 S8
1.0
   3.6939060399999999  -10.9322093599999999    0.0024826800000000
   3.6939060399999999   10.9322093599999999    0.0024826800000000
  -2.6532332799999998    0.0000000000000000    5.5965190099999997
Rb Ag Ge S
4 4 2 8
direct
   0.1906462500000000    0.8093537500000000    0.2500000000000000 Rb
   0.9384346300000000    0.0615653700000000    0.2500000000000000 Rb
   0.8093537500000000    0.1906462500000000    0.7500000000000000 Rb
   0.0615653700000000    0.9384346300000000    0.7500000000000000 Rb
   0.3096853900000000    0.6903146100000001    0.7500000000000000 Ag
   0.4733259000000000    0.5266741000000000    0.7500000000000000 Ag
   0.5266741000000000    0.4733259000000000    0.2500000000000000 Ag
   0.6903146100000001    0.3096853900000000    0.2500000000000000 Ag
   0.6249191300000000    0.3750808700000000    0.7500000000000000 Ge
   0.3750808700000000    0.6249191300000000    0.2500000000000000 Ge
   0.4769805900000000    0.1095919500000000    0.8405641000000000 S
   0.2278438700000000    0.3605596200000000    0.9451446800000000 S
   0.7721561300000001    0.6394403800000000    0.0548553200000000 S
   0.5230194100000000    0.8904080500000000    0.1594359000000000 S
   0.6394403800000000    0.7721561300000001    0.5548553200000000 S
   0.8904080500000000    0.5230194100000000    0.6594359000000000 S
   0.1095919500000000    0.4769805900000000    0.3405641000000000 S
   0.3605596200000000    0.2278438700000000    0.4451446800000000 S
