Rb1 Bi1 S2
1.0
   2.0595383900000002    1.1890747300000000    7.6257348299999999
  -2.0595383900000002    1.1890747300000000    7.6257348299999999
   0.0000000000000000   -2.3781494599999999    7.6257348299999999
Rb Bi S
1 1 2
direct
   0.5000000000000000    0.5000000000000000    0.5000000000000000 Rb
   0.0000000000000000    0.0000000000000000    0.0000000000000000 Bi
   0.2653922900000000    0.2653922900000000    0.2653922900000000 S
   0.7346077100000000    0.7346077100000000    0.7346077100000000 S
