Ta4 Sb4 O16
1.0
   5.5615290499999999    0.0000000000000000    0.0000000000000000
   0.0000000000000000   11.8784532499999997    0.0000000000000000
   0.0000000000000000    0.0000000000000000    4.9473460700000000
Ta Sb O
4 4 16
direct
   0.6094340700000000    0.2500000000000000    0.2500000000000000 Ta
   0.8905659300000000    0.7500000000000000    0.2500000000000000 Ta
   0.3905659300000000    0.7500000000000000    0.7500000000000000 Ta
   0.1094340700000000    0.2500000000000000    0.7500000000000000 Ta
   0.2500000000000000    0.0000000000000000    0.2024852700000000 Sb
   0.2500000000000000    0.5000000000000000    0.2975147300000000 Sb
   0.7500000000000000    0.5000000000000000    0.7024852700000001 Sb
   0.7500000000000000    0.0000000000000000    0.7975147299999999 Sb
   0.5772665100000000    0.0946828600000000    0.0810763700000000 O
   0.9227334900000000    0.5946828600000000    0.4189236300000000 O
   0.4227334900000000    0.5946828600000000    0.5810763700000000 O
   0.0772665100000000    0.0946828600000000    0.9189236300000000 O
   0.3467816600000000    0.1958884100000000    0.4933162400000000 O
   0.1532183400000000    0.6958884100000000    0.0066837600000000 O
   0.6532183400000000    0.6958884100000000    0.9933162400000000 O
   0.8467816600000000    0.1958884100000000    0.5066837600000000 O
   0.3467816600000000    0.3041115900000000    0.0066837600000000 O
   0.1532183400000000    0.8041115900000000    0.4933162400000000 O
   0.6532183400000000    0.8041115900000000    0.5066837600000000 O
   0.8467816600000000    0.3041115900000000    0.9933162400000000 O
   0.5772665100000000    0.4053171400000000    0.4189236300000000 O
   0.9227334900000000    0.9053171400000000    0.0810763700000000 O
   0.4227334900000000    0.9053171400000000    0.9189236300000000 O
   0.0772665100000000    0.4053171400000000    0.5810763700000000 O
