Rb4 S4 O14
1.0
   6.4429350000000003   -3.7858470000000000    0.0000000000000000
   6.4429350000000003    3.7858470000000000    0.0000000000000000
  -0.0962370000000000    0.0000000000000000    7.5832829999999998
Rb S O
4 4 14
direct
   0.3030780000000000    0.9881360000000000    0.3419650000000000 Rb
   0.9881360000000000    0.3030780000000000    0.8419650000000000 Rb
   0.0118640000000000    0.6969220000000000    0.1580350000000000 Rb
   0.6969220000000000    0.0118640000000000    0.6580350000000000 Rb
   0.7848090000000000    0.4125850000000000    0.3481900000000000 S
   0.4125850000000000    0.7848090000000000    0.8481900000000000 S
   0.5874150000000000    0.2151910000000000    0.1518100000000000 S
   0.2151910000000000    0.5874150000000000    0.6518100000000000 S
   0.6991110000000000    0.6255780000000000    0.4004720000000000 O
   0.6255780000000000    0.6991110000000000    0.9004720000000001 O
   0.9430950000000000    0.3476680000000000    0.2135570000000000 O
   0.3476680000000000    0.9430950000000000    0.7135570000000000 O
   0.2673760000000000    0.8433929999999999    0.9926170000000000 O
   0.8433929999999999    0.2673760000000000    0.4926170000000000 O
   0.5834690000000000    0.4165310000000000    0.2500000000000000 O
   0.4165310000000000    0.5834690000000000    0.7500000000000000 O
   0.1566070000000000    0.7326240000000001    0.5073830000000000 O
   0.7326240000000001    0.1566070000000000    0.0073830000000000 O
   0.6523320000000000    0.0569050000000000    0.2864430000000000 O
   0.0569050000000000    0.6523320000000000    0.7864430000000000 O
   0.3744220000000000    0.3008890000000000    0.0995280000000000 O
   0.3008890000000000    0.3744220000000000    0.5995279999999999 O
