Ba2 Sn1 O4
1.0
  -2.0822386200000000    2.0822386200000000    6.6390455599999996
   2.0822386200000000   -2.0822386200000000    6.6390455599999996
   2.0822386200000000    2.0822386200000000   -6.6390455599999996
Ba Sn O
2 1 4
direct
   0.6456976900000000    0.6456976900000000    0.0000000000000000 Ba
   0.3543023100000000    0.3543023100000000    0.0000000000000000 Ba
   0.0000000000000000    0.0000000000000000    0.0000000000000000 Sn
   0.8437037300000000    0.8437037300000000    0.0000000000000000 O
   0.1562962700000000    0.1562962700000000    0.0000000000000000 O
   0.0000000000000000    0.5000000000000000    0.5000000000000000 O
   0.5000000000000000    0.0000000000000000    0.5000000000000000 O
