La4 In4 O12
1.0
   5.9890834399999999    0.0000000000000000    0.0000000000000000
   0.0000000000000000    8.2580703700000004    0.0000000000000000
   0.0000000000000000    0.0000000000000000    5.7242800899999997
La In O
4 4 12
direct
   0.9412970000000001    0.2500000000000000    0.0185193200000000 La
   0.5587029999999999    0.7500000000000000    0.5185193200000000 La
   0.4412970000000000    0.2500000000000000    0.4814806800000000 La
   0.0587030000000000    0.7500000000000000    0.9814806800000000 La
   0.0000000000000000    0.0000000000000000    0.5000000000000000 In
   0.5000000000000000    0.0000000000000000    0.0000000000000000 In
   0.5000000000000000    0.5000000000000000    0.0000000000000000 In
   0.0000000000000000    0.5000000000000000    0.5000000000000000 In
   0.0523283800000000    0.2500000000000000    0.6230599200000000 O
   0.4476716200000000    0.7500000000000000    0.1230599200000000 O
   0.5523283800000000    0.2500000000000000    0.8769400800000000 O
   0.9476716200000000    0.7500000000000000    0.3769400800000000 O
   0.1963606000000000    0.0648979400000000    0.1929139300000000 O
   0.3036394000000000    0.9351020600000000    0.6929139300000000 O
   0.6963606000000000    0.4351020600000000    0.3070860700000000 O
   0.8036394000000000    0.5648979400000000    0.8070860700000000 O
   0.8036394000000000    0.9351020600000000    0.8070860700000000 O
   0.6963606000000000    0.0648979400000000    0.3070860700000000 O
   0.3036394000000000    0.5648979400000000    0.6929139300000000 O
   0.1963606000000000    0.4351020600000000    0.1929139300000000 O
