Cs4 Sn4 P4 S16
1.0
  17.9020842599999987    0.0000000000000000    0.0000000000000000
   0.0000000000000000    6.6352562099999997    0.0000000000000000
   0.0000000000000000    0.0000000000000000    6.2492441799999998
Cs Sn P S
4 4 4 16
direct
   0.2906460800000000    0.2500000000000000    0.4667127300000000 Cs
   0.7093539200000000    0.7500000000000000    0.5332872700000000 Cs
   0.2093539200000000    0.7500000000000000    0.9667127300000000 Cs
   0.7906460800000000    0.2500000000000000    0.0332872700000000 Cs
   0.0144329700000000    0.2500000000000000    0.7134719600000000 Sn
   0.9855670300000000    0.7500000000000000    0.2865280400000000 Sn
   0.4855670300000000    0.7500000000000000    0.2134719600000000 Sn
   0.5144329700000000    0.2500000000000000    0.7865280400000000 Sn
   0.4089429800000000    0.7500000000000000    0.7154646000000000 P
   0.5910570200000000    0.2500000000000000    0.2845354000000000 P
   0.9089429800000000    0.7500000000000000    0.7845354000000000 P
   0.0910570200000000    0.2500000000000000    0.2154646000000000 P
   0.5215763100000000    0.7500000000000000    0.6466543700000000 S
   0.4784236900000000    0.2500000000000000    0.3533456300000000 S
   0.3861677600000000    0.5012675500000000    0.8972344200000000 S
   0.6138322400000000    0.0012675500000000    0.1027655800000000 S
   0.6138322400000000    0.4987324500000000    0.1027655800000000 S
   0.3861677600000000    0.9987324500000000    0.8972344200000000 S
   0.0215763100000000    0.7500000000000000    0.8533456300000000 S
   0.9784236900000000    0.2500000000000000    0.1466543700000000 S
   0.3479024800000000    0.7500000000000000    0.4407670000000000 S
   0.6520975200000000    0.2500000000000000    0.5592330000000000 S
   0.8479024800000000    0.7500000000000000    0.0592330000000000 S
   0.1520975200000000    0.2500000000000000    0.9407670000000000 S
   0.8861677600000000    0.5012675500000000    0.6027655800000000 S
   0.1138322400000000    0.0012675500000000    0.3972344200000000 S
   0.1138322400000000    0.4987324500000000    0.3972344200000000 S
   0.8861677600000000    0.9987324500000000    0.6027655800000000 S
