Cs4 Ag4 Se16
1.0
   5.6555932100000001    0.0000000000000000    0.0000000000000000
   0.0000000000000000    8.9128615700000005    0.0000000000000000
   0.0000000000000000    0.0000000000000000   13.8315204000000005
Cs Ag Se
4 4 16
direct
   0.3411753000000000    0.5490090000000000    0.6727158700000000 Cs
   0.8411753000000000    0.9509910000000000    0.3272841300000000 Cs
   0.6588247000000000    0.0490090000000000    0.8272841300000000 Cs
   0.1588247000000000    0.4509910000000000    0.1727158700000000 Cs
   0.5467420600000000    0.1218234800000000    0.5561873899999999 Ag
   0.0467420600000000    0.3781765200000000    0.4438126100000000 Ag
   0.4532579400000000    0.6218234800000000    0.9438126100000001 Ag
   0.9532579400000000    0.8781765200000000    0.0561873900000000 Ag
   0.8734394400000000    0.3049559400000000    0.6114274600000000 Se
   0.3734394400000000    0.1950440600000000    0.3885725400000000 Se
   0.1265605600000000    0.8049559400000000    0.8885725400000000 Se
   0.6265605600000000    0.6950440600000000    0.1114274600000000 Se
   0.1472353900000000    0.1251762400000000    0.6710256500000000 Se
   0.6472353900000000    0.3748237600000000    0.3289743500000000 Se
   0.8527646100000000    0.6251762400000000    0.8289743500000000 Se
   0.3527646100000000    0.8748237600000000    0.1710256500000000 Se
   0.7946499100000000    0.1490681900000000    0.0890962700000000 Se
   0.2946499100000000    0.3509318100000000    0.9109037300000000 Se
   0.2053500900000000    0.6490681900000000    0.4109037300000000 Se
   0.7053500900000000    0.8509318100000000    0.5890962700000000 Se
   0.3866393400000000    0.0893939400000000    0.0640940900000000 Se
   0.8866393400000000    0.4106060600000000    0.9359059100000000 Se
   0.6133606600000000    0.5893939400000000    0.4359059100000000 Se
   0.1133606600000000    0.9106060600000000    0.5640940900000000 Se
