In4 Ag6 P6 O24
1.0
   6.2820334999999998   -6.4269723699999997    0.0141887400000000
   6.2820334999999998    6.4269723699999997    0.0141887400000000
  -2.6903088199999998    0.0000000000000000    6.0703978400000000
In Ag P O
4 6 6 24
direct
   0.0693725200000000    0.3813074200000000    0.6535827800000000 In
   0.3813074200000000    0.0693725200000000    0.1535827800000000 In
   0.6186925800000000    0.9306274800000000    0.8464172200000000 In
   0.9306274800000000    0.6186925800000000    0.3464172200000000 In
   0.0126776100000000    0.9873223900000000    0.7500000000000000 Ag
   0.7149952400000000    0.2850047600000000    0.7500000000000000 Ag
   0.9873223900000000    0.0126776100000000    0.2500000000000000 Ag
   0.2850047600000000    0.7149952400000000    0.2500000000000000 Ag
   0.5000000000000000    0.5000000000000000    0.0000000000000000 Ag
   0.5000000000000000    0.5000000000000000    0.5000000000000000 Ag
   0.2752151000000000    0.7247849000000000    0.7500000000000000 P
   0.8658660200000000    0.6610352300000000    0.8652756200000000 P
   0.3389647700000000    0.1341339800000000    0.6347243800000000 P
   0.6610352300000000    0.8658660200000000    0.3652756200000000 P
   0.1341339800000000    0.3389647700000000    0.1347243800000000 P
   0.7247849000000000    0.2752151000000000    0.2500000000000000 P
   0.3354234700000000    0.0066087200000000    0.4194712400000000 O
   0.7407659200000000    0.4400175400000000    0.2215197100000000 O
   0.5599824600000000    0.2592340800000000    0.2784802900000000 O
   0.8408745600000000    0.8353560100000000    0.8738419500000000 O
   0.5909969100000000    0.9350484999999999    0.1708261500000000 O
   0.9350484999999999    0.5909969100000000    0.6708261500000000 O
   0.8446727900000000    0.2531806200000000    0.4564454800000000 O
   0.2592340800000000    0.5599824600000000    0.7784802900000000 O
   0.2531806200000000    0.8446727900000000    0.9564454800000000 O
   0.0649515000000000    0.4090030900000000    0.3291738500000000 O
   0.6645765300000001    0.9933912800000000    0.5805287600000000 O
   0.8353560100000000    0.8408745600000000    0.3738419500000000 O
   0.1553272100000000    0.7468193800000000    0.5435545200000000 O
   0.5675541300000000    0.7134537700000000    0.3347336900000000 O
   0.4400175400000000    0.7407659200000000    0.7215197100000000 O
   0.0066087200000000    0.3354234700000000    0.9194712400000000 O
   0.9933912800000000    0.6645765300000001    0.0805287600000000 O
   0.4324458700000000    0.2865462300000000    0.6652663100000000 O
   0.4090030900000000    0.0649515000000000    0.8291738500000000 O
   0.7468193800000000    0.1553272100000000    0.0435545200000000 O
   0.1591254400000000    0.1646439900000000    0.1261580500000000 O
   0.2865462300000000    0.4324458700000000    0.1652663100000000 O
   0.1646439900000000    0.1591254400000000    0.6261580500000000 O
   0.7134537700000000    0.5675541300000000    0.8347336900000000 O
