Ca2 Sn2 P8 O24
1.0
   6.4782136200000000   -4.3993909000000002    0.0351855200000000
   6.4782136200000000    4.3993909000000002    0.0351855200000000
  -5.6469880500000000    0.0000000000000000    9.4782183000000000
Ca Sn P O
2 2 8 24
direct
   0.0285461600000000    0.9714538400000000    0.2500000000000000 Ca
   0.9714538400000000    0.0285461600000000    0.7500000000000000 Ca
   0.0000000000000000    0.5000000000000000    0.0000000000000000 Sn
   0.5000000000000000    0.0000000000000000    0.5000000000000000 Sn
   0.3069980700000000    0.3219563000000000    0.3205476700000000 P
   0.6780437000000000    0.6930019300000000    0.1794523300000000 P
   0.6930019300000000    0.6780437000000000    0.6794523300000000 P
   0.3219563000000000    0.3069980700000000    0.8205476700000000 P
   0.2653402700000000    0.7278959100000000    0.5231028200000000 P
   0.2721040900000000    0.7346597300000000    0.9768971800000000 P
   0.7346597300000000    0.2721040900000000    0.4768971800000000 P
   0.7278959100000000    0.2653402700000000    0.0231028200000000 P
   0.5371163300000000    0.2571750500000000    0.3467493900000000 O
   0.7428249500000000    0.4628836700000000    0.1532506100000000 O
   0.4628836700000000    0.7428249500000000    0.6532506100000000 O
   0.2571750500000000    0.5371163300000000    0.8467493900000000 O
   0.2868290400000000    0.4978866800000000    0.4609953100000000 O
   0.5021133200000000    0.7131709600000000    0.0390046900000000 O
   0.7131709600000000    0.5021133200000000    0.5390046900000000 O
   0.4978866800000000    0.2868290400000000    0.9609953100000000 O
   0.2097541300000000    0.3822929200000000    0.1921507000000000 O
   0.6177070800000000    0.7902458700000000    0.3078493000000000 O
   0.7902458700000000    0.6177070800000000    0.8078493000000000 O
   0.3822929200000000    0.2097541300000000    0.6921507000000000 O
   0.2502311900000000    0.1614960900000000    0.3268782300000000 O
   0.8385039100000000    0.7497688100000000    0.1731217700000000 O
   0.7497688100000000    0.8385039100000000    0.6731217700000000 O
   0.1614960900000000    0.2502311900000000    0.8268782300000000 O
   0.2652187300000000    0.8024647100000000    0.4164114400000000 O
   0.1975352900000000    0.7347812700000000    0.0835885600000000 O
   0.7347812700000000    0.1975352900000000    0.5835885600000000 O
   0.8024647100000000    0.2652187300000000    0.9164114400000000 O
   0.1033842300000000    0.8175351400000000    0.5829267600000000 O
   0.1824648600000000    0.8966157700000000    0.9170732400000000 O
   0.8966157700000000    0.1824648600000000    0.4170732400000000 O
   0.8175351400000000    0.1033842300000000    0.0829267600000000 O
