Cs1 Ti3 P5 O19
1.0
   4.7057505400000004   -7.1454558500000003    0.0018474300000000
   4.7057505400000004    7.1454558500000003    0.0018474300000000
  -1.7266549600000001    0.0000000000000000    6.1441739799999997
Cs Ti P O
1 3 5 19
direct
   0.1010242900000000    0.1010242900000000    0.5194227400000000 Cs
   0.4918830600000000    0.2432947100000000    0.1803240000000000 Ti
   0.7652241300000000    0.7652241300000000    0.8431649100000000 Ti
   0.2432947100000000    0.4918830600000000    0.1803240000000000 Ti
   0.1853166600000000    0.8145093799999999    0.9992610400000000 P
   0.8145093799999999    0.1853166600000000    0.9992610400000000 P
   0.6707604000000000    0.6707604000000000    0.3030723400000000 P
   0.3168128700000000    0.6093829500000000    0.7299765000000000 P
   0.6093829500000000    0.3168128700000000    0.7299765000000000 P
   0.4865190600000000    0.6653322200000000    0.2623375900000000 O
   0.5233035700000001    0.2333018500000000    0.4914582400000000 O
   0.4731757400000000    0.2502335800000000    0.8646381200000000 O
   0.1645574900000000    0.6831183400000000    0.1405112000000000 O
   0.9953700800000000    0.3235196600000000    0.1152256500000000 O
   0.7753741000000000    0.7753741000000000    0.1537639000000000 O
   0.7066891800000000    0.5148573300000000    0.7795867000000000 O
   0.7721384600000000    0.7721384600000000    0.5379782200000000 O
   0.3120174100000000    0.3120174100000000    0.1885962200000000 O
   0.5148573300000000    0.7066891800000000    0.7795867000000000 O
   0.6831183400000000    0.1645574900000000    0.1405112000000000 O
   0.7554173400000000    0.2473239400000000    0.7868958800000000 O
   0.8240878300000000    0.0158843900000000    0.9034814000000000 O
   0.2502335800000000    0.4731757400000000    0.8646381200000000 O
   0.2333018500000000    0.5233035700000001    0.4914582400000000 O
   0.6653322200000000    0.4865190600000000    0.2623375900000000 O
   0.3235196600000000    0.9953700800000000    0.1152256500000000 O
   0.0158843900000000    0.8240878300000000    0.9034814000000000 O
   0.2473239400000000    0.7554173400000000    0.7868958800000000 O
