Rb12 Bi4 Se12
1.0
  10.0878837299999997    0.0000000000000000    0.0000000000000000
   0.0000000000000000   10.0878837299999997    0.0000000000000000
   0.0000000000000000    0.0000000000000000   10.0878837299999997
Rb Bi Se
12 4 12
direct
   0.3219889800000000    0.3219889800000000    0.3219889800000000 Rb
   0.1780110200000000    0.6780110200000000    0.8219889800000000 Rb
   0.8219889800000000    0.1780110200000000    0.6780110200000000 Rb
   0.6780110200000000    0.8219889800000000    0.1780110200000000 Rb
   0.5717793200000000    0.5717793200000000    0.5717793200000000 Rb
   0.9282206800000000    0.4282206800000000    0.0717793200000000 Rb
   0.0717793200000000    0.9282206800000000    0.4282206800000000 Rb
   0.4282206800000000    0.0717793200000000    0.9282206800000000 Rb
   0.8136930700000000    0.8136930700000000    0.8136930700000000 Rb
   0.6863069300000000    0.1863069300000000    0.3136930700000000 Rb
   0.3136930700000000    0.6863069300000000    0.1863069300000000 Rb
   0.1863069300000000    0.3136930700000000    0.6863069300000000 Rb
   0.0332262100000000    0.0332262100000000    0.0332262100000000 Bi
   0.4667737900000000    0.9667737900000000    0.5332262100000000 Bi
   0.5332262100000000    0.4667737900000000    0.9667737900000000 Bi
   0.9667737900000000    0.5332262100000000    0.4667737900000000 Bi
   0.2189271600000000    0.6095281200000000    0.4978635400000000 Se
   0.4978635400000000    0.2189271600000000    0.6095281200000000 Se
   0.6095281200000000    0.4978635400000000    0.2189271600000000 Se
   0.8904718800000000    0.5021364600000000    0.7189271600000000 Se
   0.9978635400000000    0.2810728400000000    0.3904718800000000 Se
   0.3904718800000000    0.9978635400000000    0.2810728400000000 Se
   0.0021364600000000    0.7810728400000000    0.1095281200000000 Se
   0.5021364600000000    0.7189271600000000    0.8904718800000000 Se
   0.1095281200000000    0.0021364600000000    0.7810728400000000 Se
   0.7189271600000000    0.8904718800000000    0.5021364600000000 Se
   0.7810728400000000    0.1095281200000000    0.0021364600000000 Se
   0.2810728400000000    0.3904718800000000    0.9978635400000000 Se
