Rb2 Al2 Si6 O16
1.0
   7.2988508799999998   -0.0446329200000000    0.0450182000000000
  -1.8232449100000001    7.5258094599999996   -0.0459724800000000
  -2.0662944099999998   -3.5101064000000002    6.9073055300000004
Rb Al Si O
2 2 6 16
direct
   0.1387394700000000    0.2950742000000000    0.2842227000000000 Rb
   0.8612605300000000    0.7049258000000000    0.7157772999999999 Rb
   0.2172958600000000    0.8198871000000000    0.2031255400000000 Al
   0.7827041400000000    0.1801129000000000    0.7968744600000000 Al
   0.2326203900000000    0.1971267200000000    0.8276562300000000 Si
   0.7673796100000000    0.8028732800000000    0.1723437700000000 Si
   0.3409514300000000    0.5991999200000000    0.8428733300000000 Si
   0.3515908300000000    0.8328673100000000    0.6015408000000000 Si
   0.6590485699999999    0.4008000800000000    0.1571266700000000 Si
   0.6484091700000000    0.1671326900000000    0.3984592000000000 Si
   0.2824139000000000    0.6518482600000000    0.6618246900000000 O
   0.7175861000000000    0.3481517400000000    0.3381753100000000 O
   0.4042215100000000    0.0596618200000000    0.3052070700000000 O
   0.4109719100000000    0.2971708900000000    0.0441407600000000 O
   0.5957784900000000    0.9403381800000000    0.6947929300000000 O
   0.5890280900000000    0.7028291100000000    0.9558592400000000 O
   0.2542252100000000    0.7219497000000000    0.3678821900000000 O
   0.2733486100000000    0.3545555900000000    0.7369334500000000 O
   0.7457747900000000    0.2780503000000000    0.6321178100000000 O
   0.7266513900000000    0.6454444100000000    0.2630665500000000 O
   0.2207566500000000    0.6670788800000000    0.9812471699999999 O
   0.2403884900000000    0.9879361000000000    0.6856108000000000 O
   0.7792433500000000    0.3329211200000000    0.0187528300000000 O
   0.7596115100000000    0.0120639000000000    0.3143892000000000 O
   0.9827677600000000    0.8505634700000000    0.1476688700000000 O
   0.0172322400000000    0.1494365300000000    0.8523311300000000 O
