Li4 Cd2 Sn2 S8
1.0
   7.9278879499999997    0.0000000000000000    0.0000000000000000
   0.0000000000000000    6.9519284399999997    0.0000000000000000
   0.0000000000000000    0.0000000000000000    6.5012640700000004
Li Cd Sn S
4 2 2 8
direct
   0.2520912100000000    0.3314461600000000    0.1941703200000000 Li
   0.7479087900000000    0.3314461600000000    0.1941703200000000 Li
   0.2479087900000000    0.6685538400000000    0.6941703200000000 Li
   0.7520912100000000    0.6685538400000000    0.6941703200000000 Li
   0.0000000000000000    0.8429098600000000    0.1947458300000000 Cd
   0.5000000000000000    0.1570901400000000    0.6947458300000000 Cd
   0.0000000000000000    0.1695904800000000    0.6925965200000000 Sn
   0.5000000000000000    0.8304095200000000    0.1925965200000000 Sn
   0.0000000000000000    0.1850501100000000    0.3222768500000000 S
   0.5000000000000000    0.8149498900000000    0.8222768499999999 S
   0.0000000000000000    0.8403310700000000    0.8049574700000000 S
   0.5000000000000000    0.1596689300000000    0.3049574700000000 S
   0.2431118400000000    0.3393500700000000    0.8213118400000000 S
   0.7568881600000000    0.3393500700000000    0.8213118400000000 S
   0.2568881600000000    0.6606499300000001    0.3213118400000000 S
   0.7431118400000000    0.6606499300000001    0.3213118400000000 S
