Ba1 Zr1 O3
1.0
   4.2165654899999998    0.0000000000000000    0.0000000000000000
   0.0000000000000000    4.2165654899999998    0.0000000000000000
   0.0000000000000000    0.0000000000000000    4.2165654899999998
Ba Zr O
1 1 3
direct
   0.0000000000000000    0.0000000000000000    0.0000000000000000 Ba
   0.5000000000000000    0.5000000000000000    0.5000000000000000 Zr
   0.5000000000000000    0.0000000000000000    0.5000000000000000 O
   0.5000000000000000    0.5000000000000000    0.0000000000000000 O
   0.0000000000000000    0.5000000000000000    0.5000000000000000 O
