Na1 La1 S2
1.0
   2.0909004599999998    1.2071821000000000    6.4994094400000000
  -2.0909004599999998    1.2071821000000000    6.4994094400000000
   0.0000000000000000   -2.4143641900000001    6.4994094400000000
Na La S
1 1 2
direct
   0.0000000000000000    0.0000000000000000    0.0000000000000000 Na
   0.5000000000000000    0.5000000000000000    0.5000000000000000 La
   0.7543880800000000    0.7543880800000000    0.7543880800000000 S
   0.2456119200000000    0.2456119200000000    0.2456119200000000 S
