Sr4 Tl4 V4 O16
1.0
   5.8503741900000001    0.0000000000000000    0.0000000000000000
   0.0000000000000000    7.5214971899999998    0.0000000000000000
   0.0000000000000000    0.0000000000000000    9.9653175800000007
Sr Tl V O
4 4 4 16
direct
   0.9750597600000001    0.2512678900000000    0.7035102700000000 Sr
   0.0249402400000000    0.7512678900000000    0.7964897300000000 Sr
   0.5249402399999999    0.7487321100000000    0.2035102700000000 Sr
   0.4750597600000000    0.2487321100000000    0.2964897300000000 Sr
   0.4775123800000000    0.4139938600000000    0.9223542700000000 Tl
   0.9775123800000000    0.0860061400000000    0.0776457300000000 Tl
   0.5224876200000000    0.9139938600000000    0.5776457300000000 Tl
   0.0224876200000000    0.5860061400000000    0.4223542700000000 Tl
   0.5158006400000000    0.4706866500000000    0.5823556100000000 V
   0.4841993600000000    0.9706866500000000    0.9176443900000000 V
   0.0158006400000000    0.0293133500000000    0.4176443900000000 V
   0.9841993600000000    0.5293133500000000    0.0823556100000000 V
   0.2412135300000000    0.4910930900000000    0.1654513400000000 O
   0.5011387400000000    0.0552203000000000    0.0794220100000000 O
   0.7485398100000000    0.5527158100000000    0.6691650700000000 O
   0.0011387400000000    0.4447797000000000    0.9205779900000000 O
   0.2514601900000000    0.0527158100000000    0.8308349300000000 O
   0.7412135300000000    0.0089069100000000    0.8345486600000001 O
   0.2587864700000000    0.5089069100000000    0.6654513399999999 O
   0.2485398100000000    0.9472841900000000    0.3308349300000000 O
   0.4265739600000000    0.7477346400000000    0.9368461500000000 O
   0.9265739600000000    0.7522653600000000    0.0631538500000000 O
   0.7587864700000000    0.9910930900000000    0.3345486600000000 O
   0.4988612600000000    0.5552203000000000    0.4205779900000000 O
   0.7514601900000000    0.4472841900000000    0.1691650700000000 O
   0.9988612600000000    0.9447797000000000    0.5794220100000000 O
   0.0734260400000000    0.2522653600000000    0.4368461500000000 O
   0.5734260400000000    0.2477346400000000    0.5631538500000000 O
