Rb12 P4 S16
1.0
   9.2069996399999994    0.0000000000000000    0.0000000000000000
   0.0000000000000000   10.8839850800000004    0.0000000000000000
   0.0000000000000000    0.0000000000000000    9.2879738700000001
Rb P S
12 4 16
direct
   0.1517895800000000    0.2500000000000000    0.0854089800000000 Rb
   0.3482104200000000    0.7500000000000000    0.5854089800000000 Rb
   0.6517895800000000    0.2500000000000000    0.4145910200000000 Rb
   0.8482104200000000    0.7500000000000000    0.9145910200000000 Rb
   0.9558968799999999    0.0415753900000000    0.7038193000000000 Rb
   0.5441031200000001    0.9584246100000000    0.2038193000000000 Rb
   0.4558968800000000    0.4584246100000000    0.7961807000000000 Rb
   0.0441031200000000    0.5415753900000000    0.2961807000000000 Rb
   0.0441031200000000    0.9584246100000000    0.2961807000000000 Rb
   0.4558968800000000    0.0415753900000000    0.7961807000000000 Rb
   0.5441031200000001    0.5415753900000000    0.2038193000000000 Rb
   0.9558968799999999    0.4584246100000000    0.7038193000000000 Rb
   0.2253876500000000    0.2500000000000000    0.5197052900000000 P
   0.2746123500000000    0.7500000000000000    0.0197052900000000 P
   0.7253876500000001    0.2500000000000000    0.9802947100000000 P
   0.7746123499999999    0.7500000000000000    0.4802947100000000 P
   0.2065757300000000    0.2500000000000000    0.7397816800000000 S
   0.2934242700000000    0.7500000000000000    0.2397816800000000 S
   0.7065757300000000    0.2500000000000000    0.7602183200000000 S
   0.7934242700000000    0.7500000000000000    0.2602183200000000 S
   0.6663654300000000    0.5941538900000000    0.5422949100000000 S
   0.8336345700000000    0.4058461100000000    0.0422949100000000 S
   0.1663654300000000    0.9058461100000000    0.9577050900000000 S
   0.3336345700000000    0.0941538900000000    0.4577050900000000 S
   0.9782227500000000    0.7500000000000000    0.5726618600000000 S
   0.5217772500000000    0.2500000000000000    0.0726618600000000 S
   0.4782227500000000    0.7500000000000000    0.9273381400000000 S
   0.0217772500000000    0.2500000000000000    0.4273381400000000 S
   0.6663654300000000    0.9058461100000000    0.5422949100000000 S
   0.8336345700000000    0.0941538900000000    0.0422949100000000 S
   0.1663654300000000    0.5941538900000000    0.9577050900000000 S
   0.3336345700000000    0.4058461100000000    0.4577050900000000 S
