Na2 Ca2 P6 O18
1.0
   6.7324795999999996    0.0052076900000000   -0.0036692600000000
   0.8838866600000000    6.8775411200000001   -0.0098322400000000
   1.1536028300000001    0.7098746300000000    7.4982933899999997
Na Ca P O
2 2 6 18
direct
   0.4637216900000000    0.3709383100000000    0.3397570000000000 Na
   0.5362783100000000    0.6290616900000000    0.6602430000000000 Na
   0.0142590800000000    0.7252012900000000    0.6367495900000000 Ca
   0.9857409200000000    0.2747987100000000    0.3632504100000000 Ca
   0.8335739599999999    0.7982636900000000    0.2774261000000000 P
   0.1664260400000000    0.2017363100000000    0.7225739000000000 P
   0.8104598100000000    0.3370323500000000    0.9475270099999999 P
   0.1895401900000000    0.6629676500000000    0.0524729900000000 P
   0.6174436200000000    0.1150074500000000    0.7173552300000000 P
   0.3825563800000000    0.8849925500000000    0.2826447700000000 P
   0.0782193600000000    0.0415684200000000    0.6549438200000000 O
   0.9217806400000000    0.9584315799999999    0.3450561800000000 O
   0.3784943400000000    0.1337091400000000    0.7870520000000000 O
   0.6215056600000000    0.8662908600000000    0.2129480000000000 O
   0.1706286900000000    0.3839870900000000    0.5933422300000000 O
   0.8293713100000000    0.6160129100000000    0.4066577700000000 O
   0.0444660600000000    0.2446642600000000    0.9149953800000000 O
   0.9555339400000000    0.7553357400000000    0.0850046200000000 O
   0.7610559700000000    0.3447090100000000    0.1449327300000000 O
   0.2389440300000000    0.6552909900000000    0.8550672700000000 O
   0.7850957500000000    0.5180521500000000    0.8231676800000000 O
   0.2149042500000000    0.4819478500000000    0.1768323200000000 O
   0.6909176800000000    0.1697686900000000    0.8952713000000000 O
   0.3090823200000000    0.8302313099999999    0.1047287000000000 O
   0.6596445000000000    0.2698113900000000    0.5658805600000000 O
   0.3403555000000000    0.7301886100000000    0.4341194400000000 O
   0.6836860299999999    0.9047585700000000    0.6941048300000000 O
   0.3163139700000000    0.0952414300000000    0.3058951700000000 O
