Na4 Y4 O8
1.0
   3.2848350200000000   -6.5535532400000003   -0.0079525100000000
   3.2848350200000000    6.5535532400000003   -0.0079525100000000
  -3.1925290500000001    0.0000000000000000    4.9555141000000003
Na Y O
4 4 8
direct
   0.8192900100000000    0.1807099900000000    0.7500000000000000 Na
   0.0560482100000000    0.9439517900000000    0.7500000000000000 Na
   0.1807099900000000    0.8192900100000000    0.2500000000000000 Na
   0.9439517900000000    0.0560482100000000    0.2500000000000000 Na
   0.4328764800000000    0.5671235200000000    0.2500000000000000 Y
   0.5671235200000000    0.4328764800000000    0.7500000000000000 Y
   0.6929631600000000    0.3070368400000000    0.2500000000000000 Y
   0.3070368400000000    0.6929631600000000    0.7500000000000000 Y
   0.2283917500000000    0.3550855900000000    0.7916069800000000 O
   0.6449144100000000    0.7716082500000000    0.7083930200000000 O
   0.7716082500000000    0.6449144100000000    0.2083930200000000 O
   0.3550855900000000    0.2283917500000000    0.2916069800000000 O
   0.4586603500000000    0.0824380100000000    0.7903721800000000 O
   0.0824380100000000    0.4586603500000000    0.2903721800000000 O
   0.5413396500000000    0.9175619900000000    0.2096278200000000 O
   0.9175619900000000    0.5413396500000000    0.7096278200000000 O
