Rb4 B4 Se14
1.0
   7.8979640000000000   -3.6480410000000001    0.0000000000000000
   7.8979640000000000    3.6480410000000001    0.0000000000000000
  -6.6074020000000004    0.0000000000000000   10.6280680000000007
Rb B Se
4 4 14
direct
   0.6716110000000000    0.1205350000000000    0.4798260000000000 Rb
   0.8794650000000001    0.3283890000000000    0.0201740000000000 Rb
   0.3283890000000000    0.8794650000000001    0.5201740000000000 Rb
   0.1205350000000000    0.6716110000000000    0.9798260000000000 Rb
   0.1531640000000000    0.6139170000000000    0.6524260000000000 B
   0.3860830000000000    0.8468360000000000    0.8475740000000000 B
   0.8468360000000000    0.3860830000000000    0.3475740000000000 B
   0.6139170000000000    0.1531640000000000    0.1524260000000000 B
   0.5727930000000000    0.1689010000000000    0.9826330000000000 Se
   0.8310990000000000    0.4272070000000000    0.5173670000000000 Se
   0.4272070000000000    0.8310990000000000    0.0173670000000000 Se
   0.1689010000000000    0.5727930000000000    0.4826330000000000 Se
   0.3937350000000000    0.1493560000000000    0.1675030000000000 Se
   0.8506440000000000    0.6062650000000001    0.3324970000000000 Se
   0.6062650000000001    0.8506440000000000    0.8324970000000000 Se
   0.1493560000000000    0.3937350000000000    0.6675030000000000 Se
   0.9035190000000000    0.9329630000000000    0.2324080000000000 Se
   0.0670370000000000    0.0964810000000000    0.2675920000000000 Se
   0.0964810000000000    0.0670370000000000    0.7675920000000001 Se
   0.9329630000000000    0.9035190000000000    0.7324079999999999 Se
   0.5481730000000000    0.4518270000000000    0.2500000000000000 Se
   0.4518270000000000    0.5481730000000000    0.7500000000000000 Se
