Na2 Ca2 Ga2 Si4 O14
1.0
   5.0500437700000003    0.0000000000000000    0.0051902500000000
   0.0000000000000000    7.6958310399999998    0.0000000000000000
  -0.2044440300000000    0.0000000000000000    7.7257803000000003
Na Ca Ga Si O
2 2 2 4 14
direct
   0.5053892500000000    0.6632840400000000    0.9326802700000000 Na
   0.4946107500000000    0.1632840400000000    0.0673197300000000 Na
   0.5095168900000000    0.3437483800000000    0.5948210900000001 Ca
   0.4904831100000000    0.8437483800000000    0.4051789100000000 Ca
   0.9989311700000000    0.4997654500000000    0.2543976100000000 Ga
   0.0010688300000000    0.9997654500000001    0.7456023899999999 Ga
   0.9526631400000000    0.8593305500000000    0.1126118200000000 Si
   0.0473368600000000    0.3593305500000000    0.8873881800000000 Si
   0.9420614100000000    0.1417781000000000    0.3943124100000000 Si
   0.0579385900000000    0.6417781000000000    0.6056875900000001 Si
   0.2677396700000000    0.8516325800000000    0.1315653400000000 O
   0.7322603300000000    0.3516325800000000    0.8684346600000000 O
   0.2567167100000000    0.1416091100000000    0.4178598500000000 O
   0.7432832900000000    0.6416091100000000    0.5821401500000000 O
   0.2219204500000000    0.5736018300000000    0.4338490000000000 O
   0.7780795500000000    0.0736018300000000    0.5661510000000000 O
   0.1799797800000000    0.4011682300000000    0.0785145600000000 O
   0.8200202200000000    0.9011682300000000    0.9214854400000000 O
   0.7958523300000000    0.6836752000000000    0.1800566700000000 O
   0.2041476700000000    0.1836752000000000    0.8199433300000000 O
   0.7971559300000000    0.3291975700000000    0.3533460600000000 O
   0.2028440700000000    0.8291975700000001    0.6466539400000000 O
   0.1784364300000000    0.5112089600000000    0.7597539900000000 O
   0.8215635700000000    0.0112089600000000    0.2402460100000000 O
