Zn4 As8 O16
1.0
   4.4985259199999996    0.0000000000000000   -0.0093455900000000
   0.0000000000000000    4.9345141300000002    0.0000000000000000
  -0.1352179900000000    0.0000000000000000   17.5129750000000008
Zn As O
4 8 16
direct
   0.2535941200000000    0.9875591000000000    0.2508635200000000 Zn
   0.7464058800000000    0.4875591000000000    0.2491364800000000 Zn
   0.7464058800000000    0.0124409000000000    0.7491364800000000 Zn
   0.2535941200000000    0.5124409000000000    0.7508635200000000 Zn
   0.4878652700000000    0.2674862000000000    0.4086740600000000 As
   0.5121347300000000    0.7674862000000000    0.0913259400000000 As
   0.5121347300000000    0.7325138000000000    0.5913259400000000 As
   0.4878652700000000    0.2325138000000000    0.9086740600000000 As
   0.9905202700000000    0.7201408800000000    0.4066381100000000 As
   0.0094797300000000    0.2201408800000000    0.0933618900000000 As
   0.0094797300000000    0.2798591200000000    0.5933618899999999 As
   0.9905202700000000    0.7798591200000000    0.9066381100000001 As
   0.5054502900000000    0.2354032900000000    0.3071055500000000 O
   0.4945497100000000    0.7354032900000000    0.1928944500000000 O
   0.4945497100000000    0.7645967100000000    0.6928944500000001 O
   0.5054502900000000    0.2645967100000000    0.8071055499999999 O
   0.0025467100000000    0.7369545300000000    0.3051145100000000 O
   0.9974532900000000    0.2369545300000000    0.1948854900000000 O
   0.9974532900000000    0.2630454700000000    0.6948854900000000 O
   0.0025467100000000    0.7630454700000000    0.8051145100000000 O
   0.0961616400000000    0.3622632600000000    0.4173343100000000 O
   0.9038383600000000    0.8622632600000000    0.0826656900000000 O
   0.9038383600000000    0.6377367400000000    0.5826656900000000 O
   0.0961616400000000    0.1377367400000000    0.9173343100000000 O
   0.5981490300000000    0.8747847800000000    0.9128170700000000 O
   0.4018509700000000    0.3747847800000000    0.5871829300000000 O
   0.4018509700000000    0.1252152200000000    0.0871829300000000 O
   0.5981490300000000    0.6252152200000000    0.4128170700000000 O
