La6 Cu2 Ge2 S14
1.0
  10.2258128599999996    0.0000002500000000    0.0000000000000000
  -5.1129066500000002    8.8558131800000002    0.0000000000000000
   0.0000000000000000    0.0000000000000000    5.8131279200000003
La Cu Ge S
6 2 2 14
direct
   0.3567753500000000    0.1278237800000000    0.3530402000000000 La
   0.2289515700000000    0.3567753500000000    0.8530402000000000 La
   0.1278237800000000    0.7710484300000000    0.8530402000000000 La
   0.8721762199999999    0.2289515700000000    0.3530402000000000 La
   0.7710484300000000    0.6432246500000000    0.3530402000000000 La
   0.6432246500000000    0.8721762199999999    0.8530402000000000 La
   0.0000000000000000    0.0000000000000000    0.3288584100000000 Cu
   0.0000000000000000    0.0000000000000000    0.8288584100000000 Cu
   0.6666670000000000    0.3333330000000000    0.9347346399999999 Ge
   0.3333330000000000    0.6666670000000000    0.4347346400000000 Ge
   0.6666670000000000    0.3333330000000000    0.5565620200000000 S
   0.3333330000000000    0.6666670000000000    0.0565620200000000 S
   0.1600918400000000    0.2493902900000000    0.3394326800000000 S
   0.9107015500000000    0.1600918400000000    0.8394326800000000 S
   0.2493902900000000    0.0892984500000000    0.8394326800000000 S
   0.7506097100000000    0.9107015500000000    0.3394326800000000 S
   0.0892984500000000    0.8399081600000000    0.3394326800000000 S
   0.8399081600000000    0.7506097100000000    0.8394326800000000 S
   0.5200844900000000    0.4167663400000000    0.0857740900000000 S
   0.1033181500000000    0.5200844900000000    0.5857740900000000 S
   0.4167663400000000    0.8966818500000000    0.5857740900000000 S
   0.5832336600000000    0.1033181500000000    0.0857740900000000 S
   0.8966818500000000    0.4799155100000000    0.0857740900000000 S
   0.4799155100000000    0.5832336600000000    0.5857740900000000 S
