Sc4 Ti2 O10
1.0
   1.9376136200000000   -5.0589263799999999    0.0000000000000000
   1.9376136200000000    5.0589263799999999    0.0000000000000000
   0.0000000000000000    0.0000000000000000   10.1815606299999999
Sc Ti O
4 2 10
direct
   0.6379740500000000    0.3620259500000000    0.4377309400000000 Sc
   0.6950392200000000    0.3049607800000000    0.7496079600000000 Sc
   0.3049607800000000    0.6950392200000000    0.2496079600000000 Sc
   0.3620259500000000    0.6379740500000000    0.9377309400000000 Sc
   0.6357821200000000    0.3642178800000000    0.0594454100000000 Ti
   0.3642178800000000    0.6357821200000000    0.5594454100000000 Ti
   0.5521273100000000    0.4478726900000000    0.8886239000000000 O
   0.8132830400000000    0.1867169600000000    0.5701210900000000 O
   0.7288687700000001    0.2711312300000000    0.2426971700000000 O
   0.8004658100000001    0.1995341900000000    0.9328236900000000 O
   0.5410797600000000    0.4589202400000000    0.6189508400000000 O
   0.2711312300000000    0.7288687700000001    0.7426971700000000 O
   0.1867169600000000    0.8132830400000000    0.0701210900000000 O
   0.4478726900000000    0.5521273100000000    0.3886239000000000 O
   0.4589202400000000    0.5410797600000000    0.1189508400000000 O
   0.1995341900000000    0.8004658100000001    0.4328236900000000 O
