Te1 Pb2 S1
1.0
   2.1803332700000002    1.2588158100000000    7.0988468700000000
  -2.1803332700000002    1.2588158100000000    7.0988468700000000
   0.0000000000000000   -2.5176316200000000    7.0988468700000000
Te Pb S
1 2 1
direct
   0.5000000000000000    0.5000000000000000    0.5000000000000000 Te
   0.7411026300000000    0.7411026300000000    0.7411026300000000 Pb
   0.2588973700000000    0.2588973700000000    0.2588973700000000 Pb
   0.0000000000000000    0.0000000000000000    0.0000000000000000 S
