Cu4 P4 S12
1.0
   5.2386692999999998    0.0000000000000000    0.0000000000000000
   0.0000000000000000    5.2386692999999998    0.0000000000000000
   0.0000000000000000    0.0000000000000000   14.8404750100000005
Cu P S
4 4 12
direct
   0.0000000000000000    0.5000000000000000    0.2500000000000000 Cu
   0.5000000000000000    0.0000000000000000    0.7500000000000000 Cu
   0.0000000000000000    0.5000000000000000    0.7500000000000000 Cu
   0.5000000000000000    0.0000000000000000    0.2500000000000000 Cu
   0.5000000000000000    0.5000000000000000    0.4045571400000000 P
   0.0000000000000000    0.0000000000000000    0.9045571400000000 P
   0.5000000000000000    0.5000000000000000    0.5954428600000000 P
   0.0000000000000000    0.0000000000000000    0.0954428600000000 P
   0.2872320400000000    0.7127679600000000    0.5000000000000000 S
   0.7127679600000000    0.2872320400000000    0.5000000000000000 S
   0.2127679600000000    0.2127679600000000    0.0000000000000000 S
   0.7872320400000000    0.7872320400000000    0.0000000000000000 S
   0.2632133000000000    0.2632133000000000    0.3371947000000000 S
   0.7367867000000000    0.7367867000000000    0.3371947000000000 S
   0.2367867000000000    0.7632133000000000    0.8371947000000000 S
   0.7632133000000000    0.2367867000000000    0.8371947000000000 S
   0.7367867000000000    0.7367867000000000    0.6628053000000000 S
   0.2632133000000000    0.2632133000000000    0.6628053000000000 S
   0.7632133000000000    0.2367867000000000    0.1628053000000000 S
   0.2367867000000000    0.7632133000000000    0.1628053000000000 S
