Sr6 W2 O12
1.0
   5.8000430700000001    0.0000000000000000    0.0013367700000000
   0.0000000000000000    6.0568894699999998    0.0000000000000000
  -5.8019369599999999    0.0000000000000000    8.3228446700000003
Sr W O
6 2 12
direct
   0.5000000000000000    0.5000000000000000    0.5000000000000000 Sr
   0.2403631000000000    0.0522178700000000    0.2550818800000000 Sr
   0.7596368999999999    0.5522178700000000    0.2449181200000000 Sr
   0.5000000000000000    0.0000000000000000    0.0000000000000000 Sr
   0.2403631000000000    0.4477821300000000    0.7550818800000000 Sr
   0.7596368999999999    0.9477821300000000    0.7449181200000000 Sr
   0.0000000000000000    0.5000000000000000    0.0000000000000000 W
   0.0000000000000000    0.0000000000000000    0.5000000000000000 W
   0.6778188300000000    0.5483537100000000    0.7819714700000000 O
   0.8994517700000000    0.7636492700000000    0.0663261000000000 O
   0.2253761900000000    0.8259022800000000    0.4546853300000000 O
   0.7746238100000000    0.3259022800000000    0.0453146700000000 O
   0.1005482300000000    0.2636492700000000    0.4336739000000000 O
   0.3221811700000000    0.0483537100000000    0.7180285300000000 O
   0.6778188300000000    0.9516462900000000    0.2819714700000000 O
   0.8994517700000000    0.7363507300000000    0.5663261000000001 O
   0.2253761900000000    0.6740977200000000    0.9546853300000000 O
   0.7746238100000000    0.1740977200000000    0.5453146700000000 O
   0.1005482300000000    0.2363507300000000    0.9336738999999999 O
   0.3221811700000000    0.4516462900000000    0.2180285300000000 O
