Li4 Cu2 P2 O8
1.0
   6.1484498700000003    0.0000000000000000    0.0000000000000000
   0.0000000000000000    5.2349222700000002    0.0000000000000000
   0.0000000000000000    0.0000000000000000    4.9837673999999996
Li Cu P O
4 2 2 8
direct
   0.2511353800000000    0.3249797600000000    0.9980368800000000 Li
   0.2488646200000000    0.6750202400000000    0.4980368800000000 Li
   0.7488646200000000    0.3249797600000000    0.9980368800000000 Li
   0.7511353800000000    0.6750202400000000    0.4980368800000000 Li
   0.5000000000000000    0.1725768800000000    0.5013327000000000 Cu
   0.0000000000000000    0.8274231200000000    0.0013327000000000 Cu
   0.0000000000000000    0.1791904100000000    0.5012999200000000 P
   0.5000000000000000    0.8208095900000000    0.0012999200000000 P
   0.2953461300000000    0.6812287900000000    0.8889261899999999 O
   0.7953461300000000    0.3187712100000000    0.3889261900000000 O
   0.5000000000000000    0.8050843500000000    0.3118021800000000 O
   0.0000000000000000    0.8947811400000000    0.4116390700000000 O
   0.0000000000000000    0.1949156500000000    0.8118021800000000 O
   0.7046538700000000    0.6812287900000000    0.8889261899999999 O
   0.5000000000000000    0.1052188600000000    0.9116390700000000 O
   0.2046538700000000    0.3187712100000000    0.3889261900000000 O
