Cs2 S2
1.0
  -2.5635321200000001    3.6246805200000001    4.4045053300000001
   2.5635321200000001   -3.6246805200000001    4.4045053300000001
   2.5635321200000001    3.6246805200000001   -4.4045053300000001
Cs S
2 2
direct
   0.7686751200000000    0.2686751200000000    0.5000000000000000 Cs
   0.2313248800000000    0.7313248800000000    0.5000000000000000 Cs
   0.1451463100000000    0.0000000000000000    0.1451463100000000 S
   0.8548536900000000    0.0000000000000000    0.8548536900000000 S
