Rb4 Li2 V2 O8
1.0
   2.9275152100000001   -5.8455614200000001    0.0000000000000000
   2.9275152100000001    5.8455614200000001    0.0000000000000000
   0.0000000000000000    0.0000000000000000    7.8399452700000003
Rb Li V O
4 2 2 8
direct
   0.3963252800000000    0.6036747200000000    0.5491211300000000 Rb
   0.6036747200000000    0.3963252800000000    0.0491211300000000 Rb
   0.0617362300000000    0.9382637700000001    0.4104194200000000 Rb
   0.9382637700000001    0.0617362300000000    0.9104194200000000 Rb
   0.2007395300000000    0.7992604700000000    0.8290688400000000 Li
   0.7992604700000000    0.2007395300000000    0.3290688400000000 Li
   0.6891330300000000    0.3108669700000000    0.6111060300000000 V
   0.3108669700000000    0.6891330300000000    0.1111060300000000 V
   0.1170741100000000    0.4022012100000000    0.2178620900000000 O
   0.8829258900000000    0.5977987900000000    0.7178620900000000 O
   0.3660285900000000    0.6339714100000000    0.9064184800000000 O
   0.6339714100000000    0.3660285900000000    0.4064184800000000 O
   0.5977987900000000    0.8829258900000000    0.2178620900000000 O
   0.4022012100000000    0.1170741100000000    0.7178620900000000 O
   0.8360754700000000    0.1639245300000000    0.5794399200000000 O
   0.1639245300000000    0.8360754700000000    0.0794399200000000 O
