Li4 Ga4 O8
1.0
   5.4040748599999997    0.0000000000000000    0.0000000000000000
   0.0000000000000000    6.3734291199999999    0.0000000000000000
   0.0000000000000000    0.0000000000000000    5.0186747100000000
Li Ga O
4 4 8
direct
   0.9179377600000000    0.6242818700000000    0.1161645200000000 Li
   0.0820622400000000    0.3757181300000000    0.6161645200000000 Li
   0.5820622400000000    0.1242818700000000    0.6161645200000000 Li
   0.4179377600000000    0.8757181300000000    0.1161645200000000 Li
   0.5822946500000000    0.6261356400000000    0.6204302400000000 Ga
   0.4177053500000000    0.3738643600000000    0.1204302400000000 Ga
   0.9177053500000000    0.1261356400000000    0.1204302400000000 Ga
   0.0822946500000000    0.8738643600000000    0.6204302400000000 Ga
   0.9089624900000000    0.6370858400000000    0.5106225200000000 O
   0.0910375100000000    0.3629141600000000    0.0106225200000000 O
   0.5910375100000000    0.1370858400000000    0.0106225200000000 O
   0.4089624900000000    0.8629141600000000    0.5106225200000000 O
   0.0699790300000000    0.8863881700000000    0.9907827200000000 O
   0.9300209699999999    0.1136118300000000    0.4907827200000000 O
   0.4300209700000000    0.3863881700000000    0.4907827200000000 O
   0.5699790300000001    0.6136118300000000    0.9907827200000000 O
