Sr4 Sb4 O14
1.0
  -3.7478425700000000    5.2027287700000002    3.8579572299999998
   3.7478425700000000   -5.2027287700000002    3.8579572299999998
   3.7478425700000000    5.2027287700000002   -3.8579572299999998
Sr Sb O
4 4 14
direct
   0.0000000000000000    0.0000000000000000    0.5000000000000000 Sr
   0.0000000000000000    0.5000000000000000    0.0000000000000000 Sr
   0.5000000000000000    0.0000000000000000    0.5000000000000000 Sr
   0.0000000000000000    0.0000000000000000    0.0000000000000000 Sr
   0.5000000000000000    0.5000000000000000    0.5000000000000000 Sb
   0.5000000000000000    0.0000000000000000    0.0000000000000000 Sb
   0.0000000000000000    0.5000000000000000    0.5000000000000000 Sb
   0.5000000000000000    0.5000000000000000    0.0000000000000000 Sb
   0.8140563700000000    0.6378667099999999    0.5864492600000000 O
   0.1859436300000000    0.7723928900000000    0.8238113400000000 O
   0.5514184500000000    0.2276071100000000    0.9135507400000000 O
   0.4485815500000000    0.3621332900000000    0.6761886600000000 O
   0.1859436300000000    0.3621332900000000    0.4135507400000000 O
   0.8140563700000000    0.2276071100000000    0.1761886600000000 O
   0.4485815500000000    0.7723928900000000    0.0864492600000000 O
   0.5514184500000000    0.6378667099999999    0.3238113400000000 O
   0.4012205600000000    0.1512205600000000    0.2500000000000000 O
   0.5987794400000001    0.8487794400000001    0.7500000000000000 O
   0.1274401300000000    0.7195019600000000    0.4079381700000000 O
   0.8725598700000000    0.2804980400000000    0.5920618300000000 O
   0.8115637900000000    0.7195019600000000    0.0920618300000000 O
   0.1884362100000000    0.2804980400000000    0.9079381700000000 O
