Hg8 Te4 O20
1.0
   7.3922137699999997    0.0000000000000000    0.0000000000000000
   0.0000000000000000    5.9105875899999996    0.0000000000000000
   0.0000000000000000    0.0000000000000000    9.9902346600000005
Hg Te O
8 4 20
direct
   0.7322244999999999    0.2260854300000000    0.8270742000000000 Hg
   0.2677755000000000    0.7739145700000000    0.3270742000000000 Hg
   0.2322245000000000    0.2739145700000000    0.8270742000000000 Hg
   0.7677755000000001    0.7260854300000000    0.3270742000000000 Hg
   0.5233667600000000    0.2279809200000000    0.1654392400000000 Hg
   0.4766332400000000    0.7720190800000000    0.6654392400000000 Hg
   0.0233667600000000    0.2720190800000000    0.1654392400000000 Hg
   0.9766332400000000    0.7279809200000000    0.6654392400000000 Hg
   0.8651267600000000    0.2403278100000000    0.4975423600000000 Te
   0.1348732400000000    0.7596721900000000    0.9975423600000000 Te
   0.3651267600000000    0.2596721900000000    0.4975423600000000 Te
   0.6348732400000000    0.7403278100000000    0.9975423600000000 Te
   0.8337633900000000    0.1502143900000000    0.3131504500000000 O
   0.1662366100000000    0.8497856100000000    0.8131504500000000 O
   0.3337633900000000    0.3497856100000000    0.3131504500000000 O
   0.6662366100000000    0.6502143900000000    0.8131504500000000 O
   0.7167222200000000    0.4517081400000000    0.0587917500000000 O
   0.2832777800000000    0.5482918600000000    0.5587917500000000 O
   0.2167222200000000    0.0482918600000000    0.0587917500000000 O
   0.7832777800000000    0.9517081400000000    0.5587917500000000 O
   0.6177453899999999    0.3759597700000000    0.4975562200000000 O
   0.3822546100000000    0.6240402300000000    0.9975562200000000 O
   0.1177453900000000    0.1240402300000000    0.4975562200000000 O
   0.8822546100000001    0.8759597700000000    0.9975562200000000 O
   0.9456310700000000    0.5436209800000000    0.4466866400000000 O
   0.0543689300000000    0.4563790200000000    0.9466866400000000 O
   0.4456310700000000    0.9563790200000000    0.4466866400000000 O
   0.5543689300000000    0.0436209800000000    0.9466866400000000 O
   0.9118967800000000    0.3398251200000000    0.6826101300000000 O
   0.0881032200000000    0.6601748800000000    0.1826101300000000 O
   0.4118967800000000    0.1601748800000000    0.6826101300000000 O
   0.5881032200000000    0.8398251200000000    0.1826101300000000 O
