Na4 As2 P2 C2 O14
1.0
   5.4395759999999997    0.0000000000000000    0.0000000000000000
   0.0000000000000000    6.5408309999999998    0.0000000000000000
  -0.4463600000000000    0.0000000000000000    9.0830029999999997
Na As P C O
4 2 2 2 14
direct
   0.7268559999999999    0.4905480000000000    0.7725700000000000 Na
   0.7268559999999999    0.0094520000000000    0.7725700000000000 Na
   0.2731440000000000    0.5094520000000000    0.2274300000000000 Na
   0.2731440000000000    0.9905480000000000    0.2274300000000000 Na
   0.1544780000000000    0.7500000000000000    0.6321180000000000 As
   0.8455220000000000    0.2500000000000000    0.3678820000000000 As
   0.2439000000000000    0.2500000000000000    0.5998540000000000 P
   0.7561000000000000    0.7500000000000000    0.4001460000000000 P
   0.2572880000000000    0.7500000000000000    0.9091220000000000 C
   0.7427120000000000    0.2500000000000000    0.0908780000000000 C
   0.7498040000000000    0.2500000000000000    0.9545880000000000 O
   0.0419750000000000    0.7500000000000000    0.8252910000000000 O
   0.4493950000000000    0.7500000000000000    0.8314330000000000 O
   0.1069480000000000    0.0623380000000000    0.6611270000000000 O
   0.1069480000000000    0.4376620000000000    0.6611270000000000 O
   0.8083680000000000    0.7500000000000000    0.5757500000000000 O
   0.5179850000000000    0.2500000000000000    0.6321639999999999 O
   0.4820150000000000    0.7500000000000000    0.3678360000000000 O
   0.1916320000000000    0.2500000000000000    0.4242500000000000 O
   0.8930520000000000    0.5623380000000000    0.3388730000000000 O
   0.8930520000000000    0.9376620000000000    0.3388730000000000 O
   0.5506050000000000    0.2500000000000000    0.1685670000000000 O
   0.9580250000000000    0.2500000000000000    0.1747090000000000 O
   0.2501960000000000    0.7500000000000000    0.0454120000000000 O
