Bi8 O12
1.0
   5.8516083099999996    0.0000000000000000    0.0286753900000000
   0.0000000000000000    8.0650328699999996    0.0000000000000000
  -2.8041020300000001    0.0000000000000000    6.8286384299999998
Bi O
8 12
direct
   0.0399813600000000    0.5443492400000000    0.2753718200000000 Bi
   0.9600186400000000    0.0443492400000000    0.2246281800000000 Bi
   0.9600186400000000    0.4556507600000000    0.7246281800000000 Bi
   0.0399813600000000    0.9556507600000000    0.7753718200000000 Bi
   0.5205260900000001    0.6896098800000000    0.8698890100000000 Bi
   0.4794739100000000    0.1896098800000000    0.6301109900000000 Bi
   0.4794739100000000    0.3103901200000000    0.1301109900000000 Bi
   0.5205260900000001    0.8103901200000000    0.3698890100000000 Bi
   0.2714670100000000    0.5339543200000000    0.0146255300000000 O
   0.7285329900000000    0.0339543200000000    0.4853744700000000 O
   0.7285329900000000    0.4660456800000000    0.9853744700000000 O
   0.2714670100000000    0.9660456800000000    0.5146255300000000 O
   0.2367950200000000    0.5525787800000000    0.6221849200000000 O
   0.7632049800000000    0.0525787800000000    0.8778150800000000 O
   0.7632049800000000    0.4474212200000000    0.3778150800000000 O
   0.2367950200000000    0.9474212200000000    0.1221849200000000 O
   0.7784439900000000    0.7072228200000000    0.7075292200000000 O
   0.2215560100000000    0.2072228200000000    0.7924707800000000 O
   0.2215560100000000    0.2927771800000000    0.2924707800000000 O
   0.7784439900000000    0.7927771800000000    0.2075292200000000 O
