Be1 Se1
1.0
   0.0000000000000000    2.5679380500000000    2.5679380500000000
   2.5679380500000000    0.0000000000000000    2.5679380500000000
   2.5679380500000000    2.5679380500000000    0.0000000000000000
Be Se
1 1
direct
   0.0000000000000000    0.0000000000000000    0.0000000000000000 Be
   0.7500000000000000    0.7500000000000000    0.7500000000000000 Se
