Cd4 Bi2 As2 O12
1.0
   4.3433148299999997   -5.7417440900000001    0.0000000000000000
   4.3433148299999997    5.7417440900000001    0.0000000000000000
   0.0000000000000000    0.0000000000000000    5.6274698299999999
Cd Bi As O
4 2 2 12
direct
   0.4075656600000000    0.1859025400000000    0.3694850000000000 Cd
   0.8140974600000001    0.5924343399999999    0.3694850000000000 Cd
   0.5924343399999999    0.8140974600000001    0.8694850000000000 Cd
   0.1859025400000000    0.4075656600000000    0.8694850000000000 Cd
   0.9034294200000000    0.0965705800000000    0.3777932800000000 Bi
   0.0965705800000000    0.9034294200000000    0.8777932800000000 Bi
   0.3330553900000000    0.6669446100000000    0.3542453900000000 As
   0.6669446100000000    0.3330553900000000    0.8542453900000000 As
   0.1581603000000000    0.1527940200000000    0.6218538600000000 O
   0.1143263900000000    0.5661261000000000    0.2162945200000000 O
   0.1527940200000000    0.1581603000000000    0.1218538600000000 O
   0.8472059800000000    0.8418397000000000    0.6218538600000000 O
   0.8418397000000000    0.8472059800000000    0.1218538600000000 O
   0.5202880600000001    0.4797119400000000    0.8109034100000000 O
   0.2977655500000000    0.7022344500000000    0.6532011500000000 O
   0.8856736100000000    0.4338739000000000    0.7162945200000000 O
   0.5661261000000000    0.1143263900000000    0.7162945200000000 O
   0.4797119400000000    0.5202880600000001    0.3109034100000000 O
   0.7022344500000000    0.2977655500000000    0.1532011500000000 O
   0.4338739000000000    0.8856736100000000    0.2162945200000000 O
