Hf1 Tl8 Mo6 O24
1.0
   4.8718307300000001   -9.4374405200000009    0.0000235800000000
   4.8718307300000001    9.4374405200000009    0.0000235800000000
  -2.1949173700000002    0.0000000000000000    7.5220922400000001
Hf Tl Mo O
1 8 6 24
direct
   0.0000000000000000    0.0000000000000000    0.0000000000000000 Hf
   0.7813275700000000    0.7813275700000000    0.3431987000000000 Tl
   0.4888766300000000    0.1312581100000000    0.8814190800000000 Tl
   0.3412064900000000    0.6587935100000000    0.5000000000000000 Tl
   0.2186724300000000    0.2186724300000000    0.6568013000000000 Tl
   0.5111233700000000    0.8687418900000000    0.1185809200000000 Tl
   0.6587935100000000    0.3412064900000000    0.5000000000000000 Tl
   0.1312581100000000    0.4888766300000000    0.8814190800000000 Tl
   0.8687418900000000    0.5111233700000000    0.1185809200000000 Tl
   0.0535385400000000    0.7409624200000000    0.6973764800000000 Mo
   0.9464614600000000    0.2590375800000000    0.3026235200000000 Mo
   0.3946652600000000    0.3946652600000000    0.2094719200000000 Mo
   0.2590375800000000    0.9464614600000000    0.3026235200000000 Mo
   0.7409624200000000    0.0535385400000000    0.6973764800000000 Mo
   0.6053347400000000    0.6053347400000000    0.7905280800000000 Mo
   0.9309503099999999    0.0839664800000000    0.1944283700000000 O
   0.0766259800000000    0.4202678000000000    0.2153397500000000 O
   0.0839664800000000    0.9309503099999999    0.1944283700000000 O
   0.2381827800000000    0.7711165600000000    0.7524644400000000 O
   0.0690496900000000    0.9160335200000000    0.8055716300000000 O
   0.7618172200000000    0.2288834400000000    0.2475355600000000 O
   0.3169214100000000    0.0272112600000000    0.5368667800000000 O
   0.4229468000000000    0.5737052500000001    0.7998838000000000 O
   0.9727887400000000    0.6830785900000000    0.4631332200000000 O
   0.7711165600000000    0.2381827800000000    0.7524644400000000 O
   0.5797322000000000    0.9233740200000000    0.7846602499999999 O
   0.5770532000000000    0.4262947500000000    0.2001162000000000 O
   0.2221862600000000    0.2221862600000000    0.0322229700000000 O
   0.2288834400000000    0.7618172200000000    0.2475355600000000 O
   0.6830785900000000    0.9727887400000000    0.4631332200000000 O
   0.5737052500000001    0.4229468000000000    0.7998838000000000 O
   0.0272112600000000    0.3169214100000000    0.5368667800000000 O
   0.4202678000000000    0.0766259800000000    0.2153397500000000 O
   0.9233740200000000    0.5797322000000000    0.7846602499999999 O
   0.6497416100000000    0.6497416100000000    0.5873672900000000 O
   0.7778137400000000    0.7778137400000000    0.9677770300000000 O
   0.9160335200000000    0.0690496900000000    0.8055716300000000 O
   0.3502583900000000    0.3502583900000000    0.4126327100000000 O
   0.4262947500000000    0.5770532000000000    0.2001162000000000 O
