Cs4 Zr2 Si6 O18
1.0
   7.2274658399999998    0.0000002000000000    0.0000000000000000
  -3.6137335700000000    6.2591687199999999    0.0000000000000000
   0.0000000000000000    0.0000000000000000   10.3466367800000008
Cs Zr Si O
4 2 6 18
direct
   0.6666670000000000    0.3333330000000000    0.9380274100000000 Cs
   0.3333330000000000    0.6666670000000000    0.4380274100000000 Cs
   0.3333330000000000    0.6666670000000000    0.0619725900000000 Cs
   0.6666670000000000    0.3333330000000000    0.5619725900000000 Cs
   0.0000000000000000    0.0000000000000000    0.0000000000000000 Zr
   0.0000000000000000    0.0000000000000000    0.5000000000000000 Zr
   0.7582575400000000    0.1472092700000000    0.2500000000000000 Si
   0.6110472700000000    0.7582575400000000    0.7500000000000000 Si
   0.1472092700000000    0.3889527300000000    0.7500000000000000 Si
   0.8527907300000001    0.6110472700000000    0.2500000000000000 Si
   0.3889527300000000    0.2417424600000000    0.2500000000000000 Si
   0.2417424600000000    0.8527907300000001    0.7500000000000000 Si
   0.2074190500000000    0.9485863800000000    0.8826017300000000 O
   0.2588326700000000    0.2074190500000000    0.3826017300000000 O
   0.9485863800000000    0.7411673300000000    0.3826017300000000 O
   0.0514136200000000    0.2588326700000000    0.8826017300000000 O
   0.7411673300000000    0.7925809500000000    0.8826017300000000 O
   0.7925809500000000    0.0514136200000000    0.3826017300000000 O
   0.7925809500000000    0.0514136200000000    0.1173982700000000 O
   0.7411673300000000    0.7925809500000000    0.6173982700000000 O
   0.0514136200000000    0.2588326700000000    0.6173982700000000 O
   0.9485863800000000    0.7411673300000000    0.1173982700000000 O
   0.2588326700000000    0.2074190500000000    0.1173982700000000 O
   0.2074190500000000    0.9485863800000000    0.6173982700000000 O
   0.0933052200000000    0.5882410300000001    0.7500000000000000 O
   0.5050631900000000    0.0933052200000000    0.2500000000000000 O
   0.5882410300000001    0.4949368100000000    0.2500000000000000 O
   0.4117589700000000    0.5050631900000000    0.7500000000000000 O
   0.4949368100000000    0.9066947800000000    0.7500000000000000 O
   0.9066947800000000    0.4117589700000000    0.2500000000000000 O
