La4 Sn4 O14
1.0
   0.0000000000000000    5.3506048000000002    5.3506048000000002
   5.3506048000000002    0.0000000000000000    5.3506048000000002
   5.3506048000000002    5.3506048000000002    0.0000000000000000
La Sn O
4 4 14
direct
   0.6250000000000000    0.6250000000000000    0.1250000000000000 La
   0.6250000000000000    0.1250000000000000    0.6250000000000000 La
   0.6250000000000000    0.6250000000000000    0.6250000000000000 La
   0.1250000000000000    0.6250000000000000    0.6250000000000000 La
   0.1250000000000000    0.6250000000000000    0.1250000000000000 Sn
   0.6250000000000000    0.1250000000000000    0.1250000000000000 Sn
   0.1250000000000000    0.1250000000000000    0.6250000000000000 Sn
   0.1250000000000000    0.1250000000000000    0.1250000000000000 Sn
   0.0427142100000000    0.4572857900000000    0.0427142100000000 O
   0.2072857900000000    0.7927142100000000    0.7927142100000000 O
   0.4572857900000000    0.0427142100000000    0.0427142100000000 O
   0.4572857900000000    0.0427142100000000    0.4572857900000000 O
   0.4572857900000000    0.4572857900000000    0.0427142100000000 O
   0.2072857900000000    0.7927142100000000    0.2072857900000000 O
   0.5000000000000000    0.5000000000000000    0.5000000000000000 O
   0.0427142100000000    0.4572857900000000    0.4572857900000000 O
   0.2072857900000000    0.2072857900000000    0.7927142100000000 O
   0.7927142100000000    0.2072857900000000    0.2072857900000000 O
   0.7500000000000000    0.7500000000000000    0.7500000000000000 O
   0.7927142100000000    0.7927142100000000    0.2072857900000000 O
   0.7927142100000000    0.2072857900000000    0.7927142100000000 O
   0.0427142100000000    0.0427142100000000    0.4572857900000000 O
