Mg6 Te2 O12
1.0
   4.3051897500000003    2.4856025900000001    3.4525470299999999
  -4.3051897400000003    2.4856025900000001    3.4525470299999999
  -0.0000000000000000   -4.9712051800000001    3.4525470299999999
Mg Te O
6 2 12
direct
   0.4459088700000000    0.9355579800000000    0.7516875400000000 Mg
   0.9355579800000000    0.7516875400000000    0.4459088700000000 Mg
   0.2483124600000000    0.5540911300000000    0.0644420200000000 Mg
   0.0644420200000000    0.2483124600000000    0.5540911300000000 Mg
   0.5540911300000000    0.0644420200000000    0.2483124600000000 Mg
   0.7516875400000000    0.4459088700000000    0.9355579800000000 Mg
   0.0000000000000000    0.0000000000000000    0.0000000000000000 Te
   0.5000000000000000    0.5000000000000000    0.5000000000000000 Te
   0.4091106700000000    0.1970373200000000    0.5442963100000000 O
   0.5442963100000000    0.4091106700000000    0.1970373200000000 O
   0.1970373200000000    0.5442963100000000    0.4091106700000000 O
   0.5908893300000000    0.8029626800000000    0.4557036900000000 O
   0.4557036900000000    0.5908893300000000    0.8029626800000000 O
   0.8029626800000000    0.4557036900000000    0.5908893300000000 O
   0.9296421900000000    0.6976307000000000    0.0751048900000000 O
   0.0751048900000000    0.9296421900000000    0.6976307000000000 O
   0.3023693000000000    0.9248951100000000    0.0703578100000000 O
   0.9248951100000000    0.0703578100000000    0.3023693000000000 O
   0.0703578100000000    0.3023693000000000    0.9248951100000000 O
   0.6976307000000000    0.0751048900000000    0.9296421900000000 O
