Ba2 Y1 Ta1 O6
1.0
  -2.9749037800000000    2.9749039900000001    4.2356418800000002
   2.9749037800000000   -2.9749039900000001    4.2356418800000002
   2.9749039900000001    2.9749037800000000   -4.2356418800000002
Ba Y Ta O
2 1 1 6
direct
   0.7500000000000000    0.2500000000000000    0.5000000000000000 Ba
   0.2500000000000000    0.7500000000000000    0.5000000000000000 Ba
   0.0000000000000000    0.0000000000000000    0.0000000000000000 Y
   0.5000000000000000    0.5000000000000000    0.0000000000000000 Ta
   0.7080726100000000    0.7651332300000000    0.4732058500000000 O
   0.7651332300000000    0.2919273900000000    0.0570606200000000 O
   0.2348667700000000    0.7080726100000000    0.9429393800000000 O
   0.2919273900000000    0.2348667700000000    0.5267941500000000 O
   0.2631124400000000    0.2631124400000000    0.0000000000000000 O
   0.7368875600000000    0.7368875600000000    0.0000000000000000 O
