Na4 Li4 Se4
1.0
   7.0996234800000000    0.0000000000000000    0.0000000000000000
   0.0000000000000000    4.2043710299999999    0.0000000000000000
   0.0000000000000000    0.0000000000000000    7.7032231600000003
Na Li Se
4 4 4
direct
   0.4839821300000000    0.7500000000000000    0.3180254800000000 Na
   0.5160178700000000    0.2500000000000000    0.6819745200000000 Na
   0.9839821300000000    0.7500000000000000    0.1819745200000000 Na
   0.0160178700000000    0.2500000000000000    0.8180254800000000 Na
   0.3571371600000000    0.7500000000000000    0.9294440300000000 Li
   0.6428628400000000    0.2500000000000000    0.0705559700000000 Li
   0.8571371600000000    0.7500000000000000    0.5705559700000000 Li
   0.1428628400000000    0.2500000000000000    0.4294440300000000 Li
   0.7226868300000000    0.7500000000000000    0.8906027399999999 Se
   0.2773131700000000    0.2500000000000000    0.1093972600000000 Se
   0.2226868300000000    0.7500000000000000    0.6093972600000001 Se
   0.7773131700000000    0.2500000000000000    0.3906027400000000 Se
