Ta4 Al4 O16
1.0
   4.4828072399999996    0.0000000000000000    0.0000000000000000
   0.0000000000000000   11.3171519000000007    0.0000000000000000
   0.0000000000000000    0.0000000000000000    4.7844164100000004
Ta Al O
4 4 16
direct
   0.5000000000000000    0.3300214400000000    0.7500000000000000 Ta
   0.0000000000000000    0.1699785600000000    0.2500000000000000 Ta
   0.5000000000000000    0.6699785600000000    0.2500000000000000 Ta
   0.0000000000000000    0.8300214400000000    0.7500000000000000 Ta
   0.5000000000000000    0.0636122600000000    0.7500000000000000 Al
   0.0000000000000000    0.4363877400000000    0.2500000000000000 Al
   0.5000000000000000    0.9363877400000000    0.2500000000000000 Al
   0.0000000000000000    0.5636122600000000    0.7500000000000000 Al
   0.7329126400000000    0.0570845500000000    0.4235106100000000 O
   0.2329126400000000    0.4429154500000000    0.5764893900000000 O
   0.7670873600000000    0.4429154500000000    0.9235106100000000 O
   0.2670873600000000    0.0570845500000000    0.0764893900000000 O
   0.2670873600000000    0.9429154500000000    0.5764893900000000 O
   0.7670873600000000    0.5570845500000000    0.4235106100000000 O
   0.2329126400000000    0.5570845500000000    0.0764893900000000 O
   0.7329126400000000    0.9429154500000000    0.9235106100000000 O
   0.7740958100000001    0.6871189500000000    0.9168239800000000 O
   0.2740958100000000    0.8128810500000000    0.0831760200000000 O
   0.7259041899999999    0.8128810500000000    0.4168239800000000 O
   0.2259041900000000    0.6871189500000000    0.5831760200000000 O
   0.2259041900000000    0.3128810500000000    0.0831760200000000 O
   0.7259041899999999    0.1871189500000000    0.9168239800000000 O
   0.2740958100000000    0.1871189500000000    0.5831760200000000 O
   0.7740958100000001    0.3128810500000000    0.4168239800000000 O
