Ca4 P2 O1
1.0
  -2.2250780699999999    2.2250780699999999    7.4536435299999999
   2.2250780699999999   -2.2250780699999999    7.4536435299999999
   2.2250780699999999    2.2250780699999999   -7.4536435299999999
Ca P O
4 2 1
direct
   0.8267816800000000    0.8267816800000000    0.0000000000000000 Ca
   0.1732183200000000    0.1732183200000000    0.0000000000000000 Ca
   0.5000000000000000    0.0000000000000000    0.5000000000000000 Ca
   0.0000000000000000    0.5000000000000000    0.5000000000000000 Ca
   0.6359763300000000    0.6359763300000000    0.0000000000000000 P
   0.3640236700000000    0.3640236700000000    0.0000000000000000 P
   0.0000000000000000    0.0000000000000000    0.0000000000000000 O
