Ba3 Si6 N2 O12
1.0
   7.5219086099999997    0.0000002000000000    0.0000000000000000
  -3.7609539900000000    6.5141634499999999    0.0000000000000000
   0.0000000000000000    0.0000000000000000    6.4742028500000002
Ba Si N O
3 6 2 12
direct
   0.3333330000000000    0.6666670000000000    0.1032017300000000 Ba
   0.6666670000000000    0.3333330000000000    0.8967982700000000 Ba
   0.0000000000000000    0.0000000000000000    0.0000000000000000 Ba
   0.4066379800000000    0.2366554600000000    0.3886452900000000 Si
   0.7633445400000000    0.1699825200000000    0.3886452900000000 Si
   0.8300174800000000    0.5933620200000000    0.3886452900000000 Si
   0.5933620200000000    0.7633445400000000    0.6113547100000000 Si
   0.2366554600000000    0.8300174800000000    0.6113547100000000 Si
   0.1699825200000000    0.4066379800000000    0.6113547100000000 Si
   0.3333330000000000    0.6666670000000000    0.5642022600000000 N
   0.6666670000000000    0.3333330000000000    0.4357977400000000 N
   0.6398010200000001    0.6988662200000000    0.8311576600000000 O
   0.3011337800000000    0.9409357900000000    0.8311576600000000 O
   0.0590642100000000    0.3601989800000000    0.8311576600000000 O
   0.3601989800000000    0.3011337800000000    0.1688423400000000 O
   0.6988662200000000    0.0590642100000000    0.1688423400000000 O
   0.9409357900000000    0.6398010200000001    0.1688423400000000 O
   0.6979551000000001    0.0159039700000000    0.5925134800000000 O
   0.9840960300000000    0.6820511299999999    0.5925134800000000 O
   0.3179488700000000    0.3020449000000000    0.5925134800000000 O
   0.3020449000000000    0.9840960300000000    0.4074865200000000 O
   0.0159039700000000    0.3179488700000000    0.4074865200000000 O
   0.6820511299999999    0.6979551000000001    0.4074865200000000 O
