Ga4 Se6
1.0
   3.3232877500000000   -5.8233497099999996   -0.0076300400000000
   3.3232877500000000    5.8233497099999996   -0.0076300400000000
  -2.1176136099999998    0.0000000000000000    6.2832148400000003
Ga Se
4 6
direct
   0.2788551700000000    0.7816899400000000    0.5050725800000000 Ga
   0.7816899400000000    0.2788551700000000    0.0050725800000000 Ga
   0.5856080800000000    0.4142002100000000    0.5011344599999999 Ga
   0.4142002100000000    0.5856080800000000    0.0011344600000000 Ga
   0.7490710500000000    0.5932673400000000    0.8890618000000000 Se
   0.5932673400000000    0.7490710500000000    0.3890618000000000 Se
   0.2110002500000000    0.0462864300000000    0.3581114700000000 Se
   0.0462864300000000    0.2110002500000000    0.8581114700000000 Se
   0.9030987900000000    0.3773217400000000    0.3942196900000000 Se
   0.3773217400000000    0.9030987900000000    0.8942196900000000 Se
