Cs4 Mo2 S4 O4
1.0
   5.9532381699999997   -3.7894515300000000   -0.0385201500000000
   5.9532381699999997    3.7894515300000000   -0.0385201500000000
  -5.1554187300000001    0.0000000000000000    8.7862456299999998
Cs Mo S O
4 2 4 4
direct
   0.6556524300000000    0.7592786800000000    0.8328821700000000 Cs
   0.2407213200000000    0.3443475700000000    0.6671178300000000 Cs
   0.3443475700000000    0.2407213200000000    0.1671178300000000 Cs
   0.7592786800000000    0.6556524300000000    0.3328821700000000 Cs
   0.9242562800000000    0.0757437200000000    0.7500000000000000 Mo
   0.0757437200000000    0.9242562800000000    0.2500000000000000 Mo
   0.7355918500000000    0.2292656600000000    0.5636703100000000 S
   0.7707343400000000    0.2644081500000000    0.9363296900000000 S
   0.2644081500000000    0.7707343400000000    0.4363296900000000 S
   0.2292656600000000    0.7355918500000000    0.0636703100000000 S
   0.1986877200000000    0.0866506400000000    0.8223955500000000 O
   0.9133493600000000    0.8013122800000000    0.6776044500000000 O
   0.8013122800000000    0.9133493600000000    0.1776044500000000 O
   0.0866506400000000    0.1986877200000000    0.3223955500000000 O
