Na1 Li1 Zn1 S2
1.0
   3.8998068400000001    0.0000000100000000    0.0000000000000000
  -1.9499039100000000    3.3773319300000000    0.0000000000000000
   0.0000000000000000    0.0000000000000000    6.6629810599999999
Na Li Zn S
1 1 1 2
direct
   0.0000000000000000    0.0000000000000000    0.0242673300000000 Na
   0.3333330000000000    0.6666670000000000    0.3576583900000000 Li
   0.6666670000000000    0.3333330000000000    0.6124515600000000 Zn
   0.3333330000000000    0.6666670000000000    0.7347437400000000 S
   0.6666670000000000    0.3333330000000000    0.2708769800000000 S
