Al2 Cu2 S4
1.0
  -2.6348477799999999    2.6348477799999999    5.2077759500000003
   2.6348477799999999   -2.6348477799999999    5.2077759500000003
   2.6348477799999999    2.6348477799999999   -5.2077759500000003
Al Cu S
2 2 4
direct
   0.5000000000000000    0.5000000000000000    0.0000000000000000 Al
   0.2500000000000000    0.7500000000000000    0.5000000000000000 Al
   0.0000000000000000    0.0000000000000000    0.0000000000000000 Cu
   0.7500000000000000    0.2500000000000000    0.5000000000000000 Cu
   0.1283483800000000    0.1250000000000000    0.5033483800000000 S
   0.8750000000000000    0.3783483800000000    0.0033483800000000 S
   0.3750000000000000    0.8716516200000000    0.9966516200000000 S
   0.6216516200000000    0.6250000000000000    0.4966516200000000 S
