Cs4 Sb4 S24
1.0
   5.7933970600000002    0.0000000000000000   -0.0099246400000000
   0.0000000000000000   14.4236526900000008    0.0000000000000000
  -3.6146368000000000    0.0000000000000000   10.7781300499999997
Cs Sb S
4 4 24
direct
   0.2709115400000000    0.0819704000000000    0.6841162600000000 Cs
   0.7290884600000000    0.5819704000000000    0.8158837400000000 Cs
   0.7290884600000000    0.9180296000000000    0.3158837400000000 Cs
   0.2709115400000000    0.4180296000000000    0.1841162600000000 Cs
   0.0876259100000000    0.4016131400000000    0.6124333199999999 Sb
   0.9123740900000000    0.9016131400000000    0.8875666800000001 Sb
   0.9123740900000000    0.5983868600000000    0.3875666800000000 Sb
   0.0876259100000000    0.0983868600000000    0.1124333200000000 Sb
   0.6525437800000000    0.3806416500000000    0.6168477500000000 S
   0.3474562200000000    0.8806416500000001    0.8831522500000000 S
   0.3474562200000000    0.6193583499999999    0.3831522500000000 S
   0.6525437800000000    0.1193583500000000    0.1168477500000000 S
   0.7256043500000000    0.2689350500000000    0.7352881900000000 S
   0.2743956500000000    0.7689350500000000    0.7647118100000000 S
   0.2743956500000000    0.7310649500000000    0.2647118100000000 S
   0.7256043500000000    0.2310649500000000    0.2352881900000000 S
   0.8788291100000000    0.0681345900000000    0.8720291999999999 S
   0.1211708900000000    0.5681345900000000    0.6279708000000001 S
   0.1211708900000000    0.9318654100000000    0.1279708000000000 S
   0.8788291100000000    0.4318654100000000    0.3720292000000000 S
   0.2518325100000000    0.0704395300000000    0.3620403100000000 S
   0.7481674900000000    0.5704395300000000    0.1379596900000000 S
   0.7481674900000000    0.9295604700000000    0.6379596900000000 S
   0.2518325100000000    0.4295604700000000    0.8620403100000000 S
   0.4151295600000000    0.1946080400000000    0.4279502300000000 S
   0.5848704400000000    0.6946080400000000    0.0720497700000000 S
   0.5848704400000000    0.8053919600000000    0.5720497700000000 S
   0.4151295600000000    0.3053919600000000    0.9279502300000000 S
   0.7604468000000000    0.1857847200000000    0.4129587900000000 S
   0.2395532000000000    0.6857847200000000    0.0870412100000000 S
   0.2395532000000000    0.8142152800000000    0.5870412100000000 S
   0.7604468000000000    0.3142152800000000    0.9129587900000000 S
