Tl4 Cr4 O14
1.0
   7.2281971900000004    0.0839551700000000   -0.0606480100000000
  -2.6112001199999999    6.9929139700000000    0.0336681400000000
  -0.2848818500000000   -2.6348051500000000    7.1609948799999996
Tl Cr O
4 4 14
direct
   0.3060790400000000    0.5860739300000000    0.7220319600000000 Tl
   0.6939209600000000    0.4139260700000000    0.2779680400000000 Tl
   0.8787224600000000    0.0000887200000000    0.7481747300000000 Tl
   0.1212775400000000    0.9999112800000000    0.2518252700000000 Tl
   0.8035645500000000    0.4955768800000000    0.7601611400000000 Cr
   0.1964354500000000    0.5044231200000000    0.2398388600000000 Cr
   0.4191349500000000    0.1339200200000000    0.7850207700000000 Cr
   0.5808650500000000    0.8660799800000000    0.2149792300000000 Cr
   0.4854119200000000    0.9464094800000000    0.6775708900000000 O
   0.5145880800000000    0.0535905200000000    0.3224291100000000 O
   0.3151259400000000    0.0907096900000000    0.9586365900000000 O
   0.6848740600000000    0.9092903100000000    0.0413634100000000 O
   0.8927221200000000    0.3496419600000000    0.6142758500000000 O
   0.1072778800000000    0.6503580400000000    0.3857241500000000 O
   0.6353547600000000    0.3610950700000000    0.8789589100000000 O
   0.3646452400000000    0.6389049300000000    0.1210410900000000 O
   0.3124009400000000    0.4114490200000000    0.3575645100000000 O
   0.6875990600000000    0.5885509799999999    0.6424354900000000 O
   0.7403761700000000    0.8419404100000000    0.3565971600000000 O
   0.2596238300000000    0.1580595900000000    0.6434028400000000 O
   0.0102891600000000    0.3186409700000000    0.0922799500000000 O
   0.9897108400000000    0.6813590300000000    0.9077200500000000 O
