Rb2 Se1
1.0
   0.0000000000000000    3.9735619999999998    3.9735619999999998
   3.9735619999999998    0.0000000000000000    3.9735619999999998
   3.9735619999999998    3.9735619999999998    0.0000000000000000
Rb Se
2 1
direct
   0.7500000000000000    0.7500000000000000    0.7500000000000000 Rb
   0.2500000000000000    0.2500000000000000    0.2500000000000000 Rb
   0.0000000000000000    0.0000000000000000    0.0000000000000000 Se
