Li4 Cr2 O8
1.0
   6.7289940799999997    0.0000000000000000    0.0000000000000000
   0.0000000000000000    5.2104141400000001    0.0000000000000000
   0.0000000000000000    0.0000000000000000    5.0895333400000000
Li Cr O
4 2 8
direct
   0.7518460900000000    0.3202835300000000    0.9946112900000000 Li
   0.7481539100000000    0.6797164700000000    0.4946112900000000 Li
   0.2518460900000000    0.6797164700000000    0.4946112900000000 Li
   0.2481539100000000    0.3202835300000000    0.9946112900000000 Li
   0.0000000000000000    0.8134557700000000    0.0011948900000000 Cr
   0.5000000000000000    0.1865442300000000    0.5011948899999999 Cr
   0.0000000000000000    0.1247864700000000    0.9369524299999999 O
   0.0000000000000000    0.7649751400000000    0.3223468100000000 O
   0.8002309500000000    0.6766967500000000    0.8750936499999999 O
   0.6997690500000000    0.3233032500000000    0.3750936500000000 O
   0.5000000000000000    0.2350248600000000    0.8223468100000000 O
   0.5000000000000000    0.8752135300000000    0.4369524300000000 O
   0.3002309500000000    0.3233032500000000    0.3750936500000000 O
   0.1997690500000000    0.6766967500000000    0.8750936499999999 O
