Tl8 N8 O24
1.0
  12.1322024899999992    0.0000000000000000    0.0000000000000000
   0.0000000000000000    7.8730889199999998    0.0000000000000000
   0.0000000000000000    0.0000000000000000    6.1719009900000001
Tl N O
8 8 24
direct
   0.6281803600000000    0.9945241800000000    0.2969790500000000 Tl
   0.8718196400000000    0.0054758200000000    0.7969790500000000 Tl
   0.3718196400000000    0.4945241800000000    0.7030209500000000 Tl
   0.1281803600000000    0.5054758200000000    0.2030209500000000 Tl
   0.3718196400000000    0.0054758200000000    0.7030209500000000 Tl
   0.1281803600000000    0.9945241800000000    0.2030209500000000 Tl
   0.6281803600000000    0.5054758200000000    0.2969790500000000 Tl
   0.8718196400000000    0.4945241800000000    0.7969790500000000 Tl
   0.1372245400000000    0.2500000000000000    0.6641558800000000 N
   0.3627754600000000    0.7500000000000000    0.1641558800000000 N
   0.8627754600000000    0.7500000000000000    0.3358441200000000 N
   0.6372245400000000    0.2500000000000000    0.8358441200000000 N
   0.1091365800000000    0.7500000000000000    0.7308923100000000 N
   0.3908634200000000    0.2500000000000000    0.2308923100000000 N
   0.8908634200000000    0.2500000000000000    0.2691076900000000 N
   0.6091365800000000    0.7500000000000000    0.7691076900000000 N
   0.6771813100000000    0.2500000000000000    0.6479324000000000 O
   0.8228186900000000    0.7500000000000000    0.1479324000000000 O
   0.3228186900000000    0.7500000000000000    0.3520676000000000 O
   0.1771813100000000    0.2500000000000000    0.8520676000000000 O
   0.5353798100000000    0.2500000000000000    0.8705185200000000 O
   0.9646201900000000    0.7500000000000000    0.3705185200000000 O
   0.4646201900000000    0.7500000000000000    0.1294814800000000 O
   0.0353798100000000    0.2500000000000000    0.6294814800000000 O
   0.6438133500000000    0.8896011600000000    0.8402944400000000 O
   0.8561866500000000    0.1103988400000000    0.3402944400000000 O
   0.3561866500000000    0.3896011600000000    0.1597055600000000 O
   0.1438133500000000    0.6103988400000000    0.6597055600000000 O
   0.3561866500000000    0.1103988400000000    0.1597055600000000 O
   0.1438133500000000    0.8896011600000000    0.6597055600000000 O
   0.6438133500000000    0.6103988400000000    0.8402944400000000 O
   0.8561866500000000    0.3896011600000000    0.3402944400000000 O
   0.5367322400000000    0.7500000000000000    0.6182165800000000 O
   0.9632677600000000    0.2500000000000000    0.1182165800000000 O
   0.4632677600000000    0.2500000000000000    0.3817834200000000 O
   0.0367322400000000    0.7500000000000000    0.8817834200000000 O
   0.7035709600000000    0.2500000000000000    0.9974555000000001 O
   0.7964290400000000    0.7500000000000000    0.4974555000000000 O
   0.2964290400000000    0.7500000000000000    0.0025445000000000 O
   0.2035709600000000    0.2500000000000000    0.5025444999999999 O
