Ba2 Ta1 Tl1 O6
1.0
   0.0000000000000000    4.2145433600000004    4.2145433600000004
   4.2145433600000004    0.0000000000000000    4.2145433600000004
   4.2145433600000004    4.2145433600000004    0.0000000000000000
Ba Ta Tl O
2 1 1 6
direct
   0.2500000000000000    0.2500000000000000    0.2500000000000000 Ba
   0.7500000000000000    0.7500000000000000    0.7500000000000000 Ba
   0.0000000000000000    0.0000000000000000    0.0000000000000000 Ta
   0.5000000000000000    0.5000000000000000    0.5000000000000000 Tl
   0.7639312100000000    0.2360687900000000    0.2360687900000000 O
   0.2360687900000000    0.7639312100000000    0.7639312100000000 O
   0.2360687900000000    0.7639312100000000    0.2360687900000000 O
   0.7639312100000000    0.2360687900000000    0.7639312100000000 O
   0.2360687900000000    0.2360687900000000    0.7639312100000000 O
   0.7639312100000000    0.7639312100000000    0.2360687900000000 O
