Ba2 Zn2 P4 O14
1.0
   5.2609004400000003   -0.0137797200000000    0.0113091800000000
  -0.5532951000000000    7.3687939099999999   -0.0010225700000000
  -0.4001252700000000   -1.6712606900000000    7.3775130700000000
Ba Zn P O
2 2 4 14
direct
   0.8041742400000000    0.7224252300000000    0.5681278300000000 Ba
   0.1958257600000000    0.2775747700000000    0.4318721700000000 Ba
   0.8032086500000000    0.8902328400000000    0.1048625900000000 Zn
   0.1967913500000000    0.1097671600000000    0.8951374100000000 Zn
   0.7034442600000000    0.3078072300000000    0.1016978300000000 P
   0.2965557400000000    0.6921927700000000    0.8983021700000000 P
   0.3009913500000000    0.7685952600000000    0.2832410900000000 P
   0.6990086500000000    0.2314047400000000    0.7167589100000000 P
   0.7902582000000000    0.4709669000000000    0.2528010900000000 O
   0.2097418000000000    0.5290331000000000    0.7471989100000000 O
   0.5763299400000000    0.7699971400000000    0.8975686500000000 O
   0.4236700600000000    0.2300028600000000    0.1024313500000000 O
   0.2989454400000000    0.6522069500000000    0.4255017400000000 O
   0.7010545600000000    0.3477930500000000    0.5744982600000000 O
   0.7307431800000000    0.3741794400000000    0.9129739200000000 O
   0.2692568200000000    0.6258205600000000    0.0870260800000000 O
   0.4462143300000000    0.1104086800000000    0.7066165200000000 O
   0.5537856700000000    0.8895913200000000    0.2933834800000000 O
   0.9305471400000001    0.1140941700000000    0.7051934500000000 O
   0.0694528600000000    0.8859058300000000    0.2948065500000000 O
   0.1132912300000000    0.8501144200000000    0.9083025200000000 O
   0.8867087700000000    0.1498855800000000    0.0916974800000000 O
