Cs2 Sn2 S6
1.0
   6.7492539999999996    0.0000000000000000    0.0000000000000000
  -2.2183310000000001    7.0901880000000004    0.0000000000000000
  -3.1433960000000001   -2.4508580000000002    6.5044909999999998
Cs Sn S
2 2 6
direct
   0.2286420000000000    0.1879560000000000    0.8529030000000000 Cs
   0.7713580000000000    0.8120440000000000    0.1470970000000000 Cs
   0.2227320000000000    0.5130630000000000    0.4264700000000000 Sn
   0.7772680000000000    0.4869370000000000    0.5735300000000000 Sn
   0.6614330000000000    0.7653440000000000    0.5681130000000000 S
   0.1733460000000000    0.6014580000000000    0.1152410000000000 S
   0.3385670000000000    0.2346560000000000    0.4318870000000000 S
   0.2232250000000000    0.6991690000000000    0.7250070000000000 S
   0.7767750000000000    0.3008310000000000    0.2749930000000000 S
   0.8266540000000000    0.3985420000000000    0.8847590000000000 S
