Na2 Nb2 S12
1.0
   3.7261209800000001   -6.3448485799999998   -0.0150173100000000
   3.7261209800000001    6.3448485799999998   -0.0150173100000000
  -0.9122475100000000    0.0000000000000000    7.0776733399999996
Na Nb S
2 2 12
direct
   0.3259926300000000    0.6647662800000000    0.0025938400000000 Na
   0.6647662800000000    0.3259926300000000    0.5025938400000000 Na
   0.0186837400000000    0.9902797300000000    0.2580941100000000 Nb
   0.9902797300000000    0.0186837400000000    0.7580941100000000 Nb
   0.2434065800000000    0.9665782500000000    0.5288948300000000 S
   0.9665782500000000    0.2434065800000000    0.0288948300000000 S
   0.3666403800000000    0.3061080400000000    0.2036797500000000 S
   0.3061080400000000    0.3666403800000000    0.7036797500000000 S
   0.2691882300000000    0.0449181000000000    0.0128135200000000 S
   0.0449181000000000    0.2691882300000000    0.5128135200000000 S
   0.0954000700000000    0.7003748200000000    0.3373646200000000 S
   0.7003748200000000    0.0954000700000000    0.8373646200000000 S
   0.6613462800000000    0.9454224000000000    0.2859775100000000 S
   0.9454224000000000    0.6613462800000000    0.7859775100000000 S
   0.7232855900000000    0.7750888600000000    0.4732018200000000 S
   0.7750888600000000    0.7232855900000000    0.9732018200000000 S
