La8 Zr4 Se20
1.0
  11.8012179199999991    0.0000000000000000    0.0000000000000000
   0.0000000000000000    8.5640130100000000    0.0000000000000000
   0.0000000000000000    0.0000000000000000    7.6500402500000000
La Zr Se
8 4 20
direct
   0.8291591000000000    0.9996039799999999    0.9355798700000000 La
   0.3291591000000000    0.5003960200000001    0.5644201300000000 La
   0.1708409000000000    0.4996039800000000    0.0644201300000000 La
   0.6708409000000000    0.0003960200000000    0.4355798700000000 La
   0.1708409000000000    0.0003960200000000    0.0644201300000000 La
   0.6708409000000000    0.4996039800000000    0.4355798700000000 La
   0.8291591000000000    0.5003960200000001    0.9355798700000000 La
   0.3291591000000000    0.9996039799999999    0.5644201300000000 La
   0.9892162000000000    0.7500000000000000    0.4268177200000000 Zr
   0.4892162000000000    0.7500000000000000    0.0731822800000000 Zr
   0.0107838000000000    0.2500000000000000    0.5731822800000000 Zr
   0.5107838000000000    0.2500000000000000    0.9268177200000000 Zr
   0.5714683800000000    0.9613992600000000    0.8168661500000000 Se
   0.0714683800000000    0.5386007400000000    0.6831338500000000 Se
   0.4285316200000000    0.4613992600000000    0.1831338500000000 Se
   0.9285316200000000    0.0386007400000000    0.3168661500000000 Se
   0.4285316200000000    0.0386007400000000    0.1831338500000000 Se
   0.9285316200000000    0.4613992600000000    0.3168661500000000 Se
   0.5714683800000000    0.5386007400000000    0.8168661500000000 Se
   0.0714683800000000    0.9613992600000000    0.6831338500000000 Se
   0.8031001000000000    0.7500000000000000    0.6409107900000000 Se
   0.3031001000000000    0.7500000000000000    0.8590892100000000 Se
   0.1968999000000000    0.2500000000000000    0.3590892100000000 Se
   0.6968999000000000    0.2500000000000000    0.1409107900000000 Se
   0.4951392000000000    0.7500000000000000    0.4449723100000000 Se
   0.9951392000000000    0.7500000000000000    0.0550276900000000 Se
   0.5048608000000000    0.2500000000000000    0.5550276900000000 Se
   0.0048608000000000    0.2500000000000000    0.9449723100000000 Se
   0.7129735800000000    0.7500000000000000    0.1577767600000000 Se
   0.2129735800000000    0.7500000000000000    0.3422232400000000 Se
   0.2870264200000000    0.2500000000000000    0.8422232400000000 Se
   0.7870264200000000    0.2500000000000000    0.6577767600000000 Se
