As8 Pb8 O20
1.0
   8.4963219999999993    0.0000000000000000    0.0000000000000000
   0.0000000000000000    5.6436739999999999    0.0000000000000000
  -4.2965039999999997    0.0000000000000000   12.7998499999999993
As Pb O
8 8 20
direct
   0.6132649999999999    0.8643470000000000    0.9398480000000000 As
   0.3867350000000000    0.3643470000000000    0.5601520000000000 As
   0.3867350000000000    0.1356530000000000    0.0601520000000000 As
   0.6132649999999999    0.6356530000000000    0.4398480000000000 As
   0.8852770000000000    0.1375550000000000    0.1293310000000000 As
   0.1147230000000000    0.6375550000000000    0.3706690000000000 As
   0.1147230000000000    0.8624450000000000    0.8706690000000000 As
   0.8852770000000000    0.3624450000000000    0.6293310000000000 As
   0.8604140000000000    0.3398210000000000    0.8785260000000000 Pb
   0.1395860000000000    0.8398210000000000    0.6214740000000000 Pb
   0.1395860000000000    0.6601790000000000    0.1214740000000000 Pb
   0.8604140000000000    0.1601790000000000    0.3785260000000000 Pb
   0.6440970000000000    0.6557750000000000    0.2014940000000000 Pb
   0.3559030000000000    0.1557750000000000    0.2985060000000000 Pb
   0.3559030000000000    0.3442250000000000    0.7985060000000000 Pb
   0.6440970000000000    0.8442250000000000    0.7014940000000000 Pb
   0.6466640000000000    0.6482350000000000    0.8535800000000000 O
   0.3533360000000000    0.1482350000000000    0.6464200000000000 O
   0.3533360000000000    0.3517650000000000    0.1464200000000000 O
   0.6466640000000000    0.8517650000000000    0.3535800000000000 O
   0.6203720000000000    0.1120750000000000    0.8580989999999999 O
   0.3796280000000000    0.6120750000000000    0.6419010000000001 O
   0.3796280000000000    0.8879250000000000    0.1419010000000000 O
   0.6203720000000000    0.3879250000000000    0.3580990000000000 O
   0.8269180000000000    0.8888340000000000    0.0322720000000000 O
   0.1730820000000000    0.3888340000000000    0.4677280000000000 O
   0.1730820000000000    0.1111660000000000    0.9677280000000000 O
   0.8269180000000000    0.6111660000000000    0.5322720000000000 O
   0.7497790000000000    0.0630400000000000    0.2023560000000000 O
   0.2502210000000000    0.5630400000000000    0.2976440000000000 O
   0.2502210000000000    0.9369600000000000    0.7976440000000000 O
   0.7497790000000000    0.4369600000000000    0.7023560000000000 O
   0.0707490000000000    0.0026320000000000    0.2064890000000000 O
   0.9292510000000000    0.5026320000000000    0.2935110000000000 O
   0.9292510000000000    0.9973680000000000    0.7935110000000000 O
   0.0707490000000000    0.4973680000000000    0.7064890000000000 O
