Ba2 W2 O8
1.0
  -2.8147929800000000    2.8147929000000000    6.3189347800000002
   2.8147929800000000   -2.8147929000000000    6.3189347800000002
   2.8147929000000000    2.8147929800000000   -6.3189347800000002
Ba W O
2 2 8
direct
   0.5000000000000000    0.5000000000000000    0.0000000000000000 Ba
   0.2500000000000000    0.7500000000000000    0.5000000000000000 Ba
   0.0000000000000000    0.0000000000000000    0.0000000000000000 W
   0.7500000000000000    0.2500000000000000    0.5000000000000000 W
   0.0605867800000000    0.4575281700000000    0.8596522300000000 O
   0.2075281700000000    0.8478759400000000    0.8969413899999999 O
   0.9509345500000000    0.3105867800000000    0.1030586100000000 O
   0.5978759400000000    0.2009345500000000    0.1403477700000000 O
   0.1521240600000000    0.0490654500000000    0.3596522300000000 O
   0.7990654500000000    0.9394132200000000    0.3969413900000000 O
   0.5424718300000000    0.4021240600000000    0.6030586100000001 O
   0.6894132200000000    0.7924718300000000    0.6403477700000000 O
