Ca4 Sc2 Nb2 O12
1.0
   5.4769536099999998    0.0000005800000000    0.0046841200000000
   0.0000006000000000    5.6650368599999998   -0.0000004500000000
  -5.4700671099999996   -0.0000012000000000    7.8464291800000003
Ca Sc Nb O
4 2 2 12
direct
   0.2347460700000000    0.4466725700000000    0.2484667000000000 Ca
   0.7652539300000000    0.5533274300000000    0.7515333000000000 Ca
   0.7652540700000000    0.9466726100000000    0.2515334000000000 Ca
   0.2347459300000000    0.0533273900000000    0.7484666000000000 Ca
   0.0000000000000000    0.0000000000000000    0.0000000000000000 Sc
   0.0000000000000000    0.5000000000000000    0.5000000000000000 Sc
   0.5000000000000000    0.0000000000000000    0.5000000000000000 Nb
   0.5000000000000000    0.5000000000000000    0.0000000000000000 Nb
   0.3572489200000000    0.0368315600000000    0.2546265300000000 O
   0.6427510800000000    0.9631684400000000    0.7453734700000000 O
   0.6427507900000000    0.5368319600000000    0.2453733000000000 O
   0.3572492100000000    0.4631680400000000    0.7546267000000000 O
   0.8484277800000000    0.6970901200000000    0.0521338200000000 O
   0.1515722200000000    0.3029098800000000    0.9478661800000000 O
   0.1515720900000000    0.1970904400000000    0.4478657400000000 O
   0.8484279100000000    0.8029095600000000    0.5521342600000000 O
   0.7506495399999999    0.2066443600000000    0.0563168400000000 O
   0.2493504600000000    0.7933556400000000    0.9436831600000000 O
   0.2493504100000000    0.7066444700000000    0.4436835100000000 O
   0.7506495900000000    0.2933555300000000    0.5563164900000001 O
