Rb4 Nb2 Si8 O23
1.0
   6.9233714400000004    0.0008565400000000    0.0267426000000000
   2.4810646799999998    7.4510689899999996    0.0391027400000000
   0.2036174700000000    2.7451792600000000   10.7734745299999997
Rb Nb Si O
4 2 8 23
direct
   0.6879352000000000    0.2768230100000000    0.3486639300000000 Rb
   0.3120648000000000    0.7231769900000000    0.6513360700000000 Rb
   0.7031206600000000    0.2292481700000000    0.0052936600000000 Rb
   0.2968793400000000    0.7707518300000000    0.9947063400000000 Rb
   0.2163442800000000    0.2544681000000000    0.1822679600000000 Nb
   0.7836557199999999    0.7455319000000000    0.8177320400000000 Nb
   0.5010164600000000    0.1994527000000000    0.6927596200000000 Si
   0.4989835400000000    0.8005473000000000    0.3072403800000000 Si
   0.0510850500000000    0.8654849100000001    0.2819099200000000 Si
   0.9489149500000000    0.1345150900000000    0.7180900800000000 Si
   0.1580616500000000    0.2977519800000000    0.4978654900000000 Si
   0.8419383499999999    0.7022480200000000    0.5021345100000000 Si
   0.8321442600000000    0.6697844400000000    0.1310509300000000 Si
   0.1678557400000000    0.3302155600000000    0.8689490700000000 Si
   0.5406552600000000    0.9821427600000000    0.7514020100000000 O
   0.4593447400000000    0.0178572400000000    0.2485979900000000 O
   0.3681450000000000    0.3221777800000000    0.7841742700000000 O
   0.6318550000000001    0.6778222200000000    0.2158257300000000 O
   0.3841508800000000    0.2779263500000000    0.5535379600000000 O
   0.6158491200000000    0.7220736500000000    0.4464620400000000 O
   0.7101042200000000    0.2543617200000000    0.6715117300000000 O
   0.2898957800000000    0.7456382800000000    0.3284882700000000 O
   0.0230762900000000    0.0749542300000000    0.2105343100000000 O
   0.9769237100000000    0.9250457700000000    0.7894656900000000 O
   0.9798758300000000    0.7560237400000001    0.1931104100000000 O
   0.0201241700000000    0.2439762600000000    0.8068895900000000 O
   0.9204355100000000    0.8598720900000000    0.4074743200000000 O
   0.0795644900000000    0.1401279100000000    0.5925256800000001 O
   0.0000000000000000    0.5000000000000000    0.5000000000000000 O
   0.1708428800000000    0.2640691000000000    0.3623237100000000 O
   0.8291571200000000    0.7359309000000001    0.6376762900000000 O
   0.9430704600000001    0.4532527600000000    0.1366797800000000 O
   0.0569295400000000    0.5467472400000000    0.8633202200000000 O
   0.7626476500000000    0.7947036700000000    0.9909560300000000 O
   0.2373523500000000    0.2052963300000000    0.0090439700000000 O
   0.3808815200000000    0.3976133100000000    0.1503629100000000 O
   0.6191184800000000    0.6023866900000000    0.8496370900000000 O
