Li6 As2 O8
1.0
   6.2817755399999999    0.0000000000000000    0.0000000000000000
   0.0000000000000000    5.4010030200000001    0.0000000000000000
   0.0000000000000000    0.0000000000000000    4.9671479700000001
Li As O
6 2 8
direct
   0.5000000000000000    0.1648554000000000    0.0051228600000000 Li
   0.0000000000000000    0.8351446000000000    0.5051228600000000 Li
   0.7522987500000000    0.6692204800000000    0.0050265800000000 Li
   0.7477012500000000    0.3307795200000000    0.5050265800000000 Li
   0.2522987500000000    0.3307795200000000    0.5050265800000000 Li
   0.2477012500000000    0.6692204800000000    0.0050265800000000 Li
   0.5000000000000000    0.8296344900000000    0.4975031800000000 As
   0.0000000000000000    0.1703655100000000    0.9975031800000000 As
   0.0000000000000000    0.1753313400000000    0.6521181900000000 O
   0.5000000000000000    0.8246686600000001    0.1521181900000000 O
   0.7763065099999999    0.3207417400000000    0.1101840400000000 O
   0.7236934900000001    0.6792582600000000    0.6101840400000000 O
   0.2763065100000000    0.6792582600000000    0.6101840400000000 O
   0.2236934900000000    0.3207417400000000    0.1101840400000000 O
   0.0000000000000000    0.8696529100000000    0.1080335300000000 O
   0.5000000000000000    0.1303470900000000    0.6080335300000000 O
