Si2 O4
1.0
  -2.5003519399999998    2.5003519399999998    3.6774912500000001
   2.5003519399999998   -2.5003519399999998    3.6774912500000001
   2.5003519399999998    2.5003519399999998   -3.6774912500000001
Si O
2 4
direct
   0.0000000000000000    0.0000000000000000    0.0000000000000000 Si
   0.7500000000000000    0.2500000000000000    0.5000000000000000 Si
   0.3750000000000000    0.2184684900000000    0.3434684900000000 O
   0.7815315100000000    0.1250000000000000    0.1565315100000000 O
   0.9684684900000000    0.6250000000000000    0.8434684900000000 O
   0.8750000000000000    0.0315315100000000    0.6565315100000000 O
