Ba2 Sr2 Ta4 O14
1.0
  -2.0062701299999999    3.9241272299999999   10.1053038500000003
   2.0062701299999999   -3.9241272299999999   10.1053038500000003
   2.0062701299999999    3.9241272299999999  -10.1053038500000003
Ba Sr Ta O
2 2 4 14
direct
   0.2388356600000000    0.7388356600000000    0.5000000000000000 Ba
   0.7611643400000000    0.2611643400000000    0.5000000000000000 Ba
   0.5000000000000000    0.5000000000000000    0.0000000000000000 Sr
   0.0000000000000000    0.5000000000000000    0.5000000000000000 Sr
   0.8545659700000000    0.1025012100000000    0.7520647600000000 Ta
   0.3504364500000000    0.1025012100000000    0.2479352400000000 Ta
   0.1454340300000000    0.8974987900000000    0.2479352400000000 Ta
   0.6495635500000000    0.8974987900000000    0.7520647600000000 Ta
   0.9222534000000000    0.9222534000000000    0.0000000000000000 O
   0.1547805700000000    0.4083384700000000    0.7464421000000000 O
   0.3381046200000000    0.5916615300000000    0.7464421000000000 O
   0.0071226900000000    0.8065956700000000    0.2005270200000000 O
   0.7079016500000000    0.0000000000000000    0.7079016500000000 O
   0.6618953800000000    0.4083384700000000    0.2535579000000000 O
   0.3939313600000000    0.1934043300000000    0.2005270200000000 O
   0.2920983500000000    0.0000000000000000    0.2920983500000000 O
   0.9928773100000000    0.1934043300000000    0.7994729800000000 O
   0.3852402200000000    0.8852402200000000    0.5000000000000000 O
   0.0777466000000000    0.0777466000000000    0.0000000000000000 O
   0.8452194300000000    0.5916615300000000    0.2535579000000000 O
   0.6060686400000000    0.8065956700000000    0.7994729800000000 O
   0.6147597800000000    0.1147597800000000    0.5000000000000000 O
