Mg8 Si8 O24
1.0
   9.3978373800000004    0.0000000000000000   -0.0368788700000000
   0.0000000000000000    8.8189499900000001    0.0000000000000000
  -1.1862129800000001    0.0000000000000000    5.0367674600000001
Mg Si O
8 8 24
direct
   0.2513543300000000    0.3457285500000000    0.0356863900000000 Mg
   0.7486456700000000    0.8457285500000000    0.4643136100000000 Mg
   0.7486456700000000    0.6542714500000000    0.9643136100000000 Mg
   0.2513543300000000    0.1542714500000000    0.5356863900000000 Mg
   0.2563503700000000    0.9863541100000000    0.0437983800000000 Mg
   0.7436496300000000    0.4863541100000000    0.4562016200000000 Mg
   0.7436496300000000    0.0136458900000000    0.9562016200000000 Mg
   0.2563503700000000    0.5136458900000000    0.5437983800000000 Mg
   0.0428397100000000    0.6584238800000000    0.7465088000000000 Si
   0.9571602900000000    0.1584238800000000    0.7534912000000000 Si
   0.9571602900000000    0.3415761200000000    0.2534912000000000 Si
   0.0428397100000000    0.8415761200000000    0.2465088000000000 Si
   0.5539466100000000    0.1626615000000000    0.3267577100000000 Si
   0.4460533900000000    0.6626615000000000    0.1732422900000000 Si
   0.4460533900000000    0.8373385000000000    0.6732422900000000 Si
   0.5539466100000000    0.3373385000000000    0.8267577100000000 Si
   0.6067598600000000    0.1914404600000000    0.6581982800000000 O
   0.3932401400000000    0.6914404600000000    0.8418017200000000 O
   0.3932401400000000    0.8085595400000000    0.3418017200000000 O
   0.6067598600000000    0.3085595400000000    0.1581982800000000 O
   0.6348085700000000    0.4828180800000000    0.7437585900000000 O
   0.3651914300000000    0.9828180800000000    0.7562414100000000 O
   0.3651914300000000    0.5171819200000000    0.2562414100000000 O
   0.6348085700000000    0.0171819200000000    0.2437585900000000 O
   0.3756202100000000    0.3392147700000000    0.7535684800000000 O
   0.6243797900000000    0.8392147700000000    0.7464315200000000 O
   0.6243797900000000    0.6607852300000000    0.2464315200000000 O
   0.3756202100000000    0.1607852300000000    0.2535684800000000 O
   0.1067649100000000    0.7823475900000000    0.9875852899999999 O
   0.8932350900000000    0.2823475900000000    0.5124147100000001 O
   0.8932350900000000    0.2176524100000000    0.0124147100000000 O
   0.1067649100000000    0.7176524100000000    0.4875852900000000 O
   0.8652396900000000    0.6602576600000000    0.6784818900000000 O
   0.1347603100000000    0.1602576600000000    0.8215181100000000 O
   0.1347603100000000    0.3397423400000000    0.3215181100000000 O
   0.8652396900000000    0.8397423400000000    0.1784818900000000 O
   0.1232974300000000    0.4978292400000000    0.8019941300000000 O
   0.8767025700000000    0.9978292400000000    0.6980058700000000 O
   0.8767025700000000    0.5021707600000000    0.1980058700000000 O
   0.1232974300000000    0.0021707600000000    0.3019941300000000 O
