Sn4 W4 O16
1.0
   5.5443400900000004    0.0000000000000000    0.0000000000000000
   0.0000000000000000   11.7791457299999998    0.0000000000000000
   0.0000000000000000    0.0000000000000000    4.9491679499999996
Sn W O
4 4 16
direct
   0.2500000000000000    0.5000000000000000    0.2241475800000000 Sn
   0.2500000000000000    0.0000000000000000    0.2758524200000000 Sn
   0.7500000000000000    0.5000000000000000    0.7758524200000000 Sn
   0.7500000000000000    0.0000000000000000    0.7241475800000000 Sn
   0.6360718000000000    0.7500000000000000    0.2500000000000000 W
   0.8639282000000000    0.2500000000000000    0.2500000000000000 W
   0.3639282000000000    0.2500000000000000    0.7500000000000000 W
   0.1360718000000000    0.7500000000000000    0.7500000000000000 W
   0.5923657000000000    0.6037265000000001    0.0975633600000000 O
   0.9076343000000000    0.3962735000000000    0.0975633600000000 O
   0.5923657000000000    0.8962734999999999    0.4024366400000000 O
   0.9076343000000000    0.1037265000000000    0.4024366400000000 O
   0.4076343000000000    0.3962735000000000    0.9024366400000000 O
   0.0923657000000000    0.6037265000000001    0.9024366400000000 O
   0.4076343000000000    0.1037265000000000    0.5975633600000000 O
   0.0923657000000000    0.8962734999999999    0.5975633600000000 O
   0.3593620900000000    0.7979493900000000    0.0024522300000000 O
   0.1406379100000000    0.2020506100000000    0.0024522300000000 O
   0.3593620900000000    0.7020506100000000    0.4975477700000000 O
   0.1406379100000000    0.2979493900000000    0.4975477700000000 O
   0.6406379100000000    0.2020506100000000    0.9975477699999999 O
   0.8593620900000000    0.7979493900000000    0.9975477699999999 O
   0.6406379100000000    0.2979493900000000    0.5024522300000001 O
   0.8593620900000000    0.7020506100000000    0.5024522300000001 O
