Li2 Ga2 Mo4 O16
1.0
   6.7978004700000003   -0.0000964500000000   -0.0001045600000000
  -2.3987454600000002    6.4489536899999997    0.0000293900000000
  -2.0266527499999998   -0.7983062500000000    6.9461002199999999
Li Ga Mo O
2 2 4 16
direct
   0.7790210400000001    0.2763450900000000    0.4467817100000000 Li
   0.2209789600000000    0.7236549100000000    0.5532182900000000 Li
   0.6085937700000000    0.6840708700000000    0.9043016800000000 Ga
   0.3914062300000000    0.3159291300000000    0.0956983200000000 Ga
   0.1834320800000000    0.7536775800000000    0.0457326400000000 Mo
   0.8165679200000000    0.2463224200000000    0.9542673600000000 Mo
   0.3354727300000000    0.2944605500000000    0.5763818300000000 Mo
   0.6645272700000000    0.7055394500000000    0.4236181700000000 Mo
   0.7801076600000000    0.9765176700000000    0.9435422600000000 O
   0.2198923400000000    0.0234823300000000    0.0564577400000000 O
   0.7552439900000000    0.9746616000000000    0.4392477400000000 O
   0.3253616900000000    0.7385056500000000    0.8734501600000000 O
   0.4069027600000000    0.3789965700000000    0.8438453200000000 O
   0.6914771400000000    0.2702960100000000    0.7110981700000000 O
   0.3085228600000000    0.7297039900000000    0.2889018300000000 O
   0.5312851800000000    0.6441304000000000    0.6283331900000000 O
   0.8822411000000000    0.6175557699999999    0.9630600100000000 O
   0.4687148200000000    0.3558696000000000    0.3716668100000000 O
   0.1177589000000000    0.3824442300000000    0.0369399900000000 O
   0.9015499400000000    0.6483860600000000    0.5155895400000000 O
   0.0984500600000000    0.3516139400000000    0.4844104600000000 O
   0.6746383100000000    0.2614943500000000    0.1265498400000000 O
   0.5930972400000000    0.6210034300000000    0.1561546800000000 O
   0.2447560100000000    0.0253384000000000    0.5607522600000000 O
