Sb4 As4 O12
1.0
   4.4436416200000002    0.0000000000000000    0.0013689700000000
   0.0000000000000000   12.8990878200000001    0.0000000000000000
  -3.9099901400000001    0.0000000000000000    5.4172484699999996
Sb As O
4 4 12
direct
   0.3229223200000000    0.3560846200000000    0.3332856300000000 Sb
   0.6770776800000000    0.8560846200000000    0.1667143700000000 Sb
   0.6770776800000000    0.6439153800000000    0.6667143700000000 Sb
   0.3229223200000000    0.1439153800000000    0.8332856300000000 Sb
   0.2291724300000000    0.0906340200000000    0.2679801600000000 As
   0.7708275700000000    0.5906340200000000    0.2320198400000000 As
   0.7708275700000000    0.9093659800000000    0.7320198400000000 As
   0.2291724300000000    0.4093659800000000    0.7679801600000000 As
   0.8688083500000000    0.3624030000000000    0.4603815200000000 O
   0.1311916500000000    0.8624030000000000    0.0396184800000000 O
   0.1311916500000000    0.6375970000000000    0.5396184800000000 O
   0.8688083500000000    0.1375970000000000    0.9603815200000000 O
   0.5449787800000000    0.0897951500000000    0.1797883100000000 O
   0.4550212200000000    0.5897951500000000    0.3202116900000000 O
   0.4550212200000000    0.9102048500000000    0.8202116900000000 O
   0.5449787800000000    0.4102048500000000    0.6797883100000000 O
   0.3773238900000000    0.2084058100000000    0.4473339000000000 O
   0.6226761100000000    0.7084058100000000    0.0526661000000000 O
   0.6226761100000000    0.7915941900000000    0.5526661000000000 O
   0.3773238900000000    0.2915941900000000    0.9473339000000000 O
