Ba4 Ag4 Sb4 S12
1.0
   4.6510149500000004   -3.9630158999999998   -0.0057236300000000
   4.6510149500000004    3.9630158999999998   -0.0057236300000000
  -3.6264054699999999    0.0000000000000000   16.5798553200000001
Ba Ag Sb S
4 4 4 12
direct
   0.5427236200000000    0.7975954600000000    0.1100748500000000 Ba
   0.2024045400000000    0.4572763800000000    0.3899251500000000 Ba
   0.4572763800000000    0.2024045400000000    0.8899251500000001 Ba
   0.7975954600000000    0.5427236200000000    0.6100748499999999 Ba
   0.0723914000000000    0.9276086000000000    0.2500000000000000 Ag
   0.9276086000000000    0.0723914000000000    0.7500000000000000 Ag
   0.6894592700000000    0.3105407300000000    0.2500000000000000 Ag
   0.3105407300000000    0.6894592700000000    0.7500000000000000 Ag
   0.0186206700000000    0.3222077800000000    0.0767657900000000 Sb
   0.6777922199999999    0.9813793300000000    0.4232342100000000 Sb
   0.9813793300000000    0.6777922199999999    0.9232342100000001 Sb
   0.3222077800000000    0.0186206700000000    0.5767657899999999 Sb
   0.9603341600000000    0.5132298400000000    0.2148305500000000 S
   0.4867701600000000    0.0396658400000000    0.2851694500000000 S
   0.0396658400000000    0.4867701600000000    0.7851694500000000 S
   0.5132298400000000    0.9603341600000000    0.7148305500000000 S
   0.4231113900000000    0.3062824700000000    0.0841426600000000 S
   0.6937175300000000    0.5768886100000000    0.4158573400000000 S
   0.5768886100000000    0.6937175300000000    0.9158573400000000 S
   0.3062824700000000    0.4231113900000000    0.5841426600000000 S
   0.0134520600000000    0.9405582600000000    0.1031600100000000 S
   0.0594417400000000    0.9865479400000000    0.3968399900000000 S
   0.9865479400000000    0.0594417400000000    0.8968399900000000 S
   0.9405582600000000    0.0134520600000000    0.6031600100000000 S
