La8 Ge4 O20
1.0
   9.5653270500000005    0.0000000000000000    0.0397832700000000
   0.0000000000000000    7.4084896599999999    0.0000000000000000
  -2.0749847099999998    0.0000000000000000    6.7953568700000000
La Ge O
8 4 20
direct
   0.3744665400000000    0.6368283000000000    0.0667180000000000 La
   0.3744665400000000    0.8631717000000000    0.5667180000000001 La
   0.9801879500000000    0.3718851600000000    0.7663341700000000 La
   0.6255334600000000    0.3631717000000000    0.9332819999999999 La
   0.9801879500000000    0.1281148400000000    0.2663341700000000 La
   0.0198120500000000    0.6281148400000000    0.2336658300000000 La
   0.6255334600000000    0.1368283000000000    0.4332820000000000 La
   0.0198120500000000    0.8718851600000000    0.7336658300000000 La
   0.3007509900000000    0.4129974400000000    0.5308877500000000 Ge
   0.3007509900000000    0.0870025600000000    0.0308877500000000 Ge
   0.6992490099999999    0.9129974400000000    0.9691122500000000 Ge
   0.6992490099999999    0.5870025600000000    0.4691122500000000 Ge
   0.6064704500000000    0.7856588100000000    0.4912692900000000 O
   0.1091480600000000    0.1314746600000000    0.9925220200000000 O
   0.8908519400000000    0.8685253400000000    0.0074779800000000 O
   0.8889951200000000    0.1187095700000000    0.5568322300000000 O
   0.3935295500000000    0.2143411900000000    0.5087307100000000 O
   0.1091480600000000    0.3685253400000000    0.4925220200000000 O
   0.6126852600000000    0.0525490700000000    0.7641770500000000 O
   0.1110048800000000    0.8812904300000000    0.4431677700000000 O
   0.3873147400000000    0.5525490700000000    0.7358229500000000 O
   0.2868341900000000    0.9145364300000000    0.8438712100000000 O
   0.3935295500000000    0.2856588100000000    0.0087307100000000 O
   0.8889951200000000    0.3812904300000000    0.0568322300000000 O
   0.6126852600000000    0.4474509300000000    0.2641770500000000 O
   0.6064704500000000    0.7143411900000000    0.9912692900000000 O
   0.3873147400000000    0.9474509300000000    0.2358229500000000 O
   0.1110048800000000    0.6187095700000000    0.9431677700000000 O
   0.7131658100000000    0.0854635700000000    0.1561287900000000 O
   0.7131658100000000    0.4145364300000000    0.6561287900000000 O
   0.8908519400000000    0.6314746600000000    0.5074779800000000 O
   0.2868341900000000    0.5854635700000000    0.3438712100000000 O
