Si4 N4 O2
1.0
   4.4649685200000002   -2.7598900799999999    0.0000000000000000
   4.4649685200000002    2.7598900799999999    0.0000000000000000
   0.0000000000000000    0.0000000000000000    4.8674474400000003
Si N O
4 4 2
direct
   0.1724324200000000    0.4740335900000000    0.6088196000000000 Si
   0.5259664100000000    0.8275675800000000    0.6088196000000000 Si
   0.8275675800000000    0.5259664100000000    0.1088196000000000 Si
   0.4740335900000000    0.1724324200000000    0.1088196000000000 Si
   0.1576073200000000    0.4054124300000000    0.2638030600000000 N
   0.5945875700000000    0.8423926800000000    0.2638030600000000 N
   0.8423926800000000    0.5945875700000000    0.7638030600000000 N
   0.4054124300000000    0.1576073200000000    0.7638030600000000 N
   0.7112830200000000    0.2887169800000000    0.1611526700000000 O
   0.2887169800000000    0.7112830200000000    0.6611526700000000 O
