Rb2 Ti1 W3 O12
1.0
   6.2318660699999997   -3.6699141900000001   -0.0121941900000000
   6.2318660699999997    3.6699141900000001   -0.0121941900000000
  -4.1229365199999997    0.0000000000000000    5.9559479599999996
Rb Ti W O
2 1 3 12
direct
   0.1908520700000000    0.0833782600000000    0.3765306100000000 Rb
   0.9166217400000000    0.8091479300000000    0.6234693900000000 Rb
   0.4914006900000000    0.5085993100000000    0.0000000000000000 Ti
   0.0137020200000000    0.4852328600000000    0.0089322400000000 W
   0.5147671400000000    0.9862979800000000    0.9910677600000000 W
   0.5123134700000000    0.4876865300000000    0.5000000000000000 W
   0.8123891300000000    0.8150241900000000    0.0605874500000000 O
   0.4281177900000000    0.4473058000000000    0.6814763800000000 O
   0.8077853400000000    0.4487560300000000    0.0618014900000000 O
   0.4399387100000000    0.8133895200000000    0.6860138400000000 O
   0.4306991600000000    0.8253519400000000    0.0597624600000000 O
   0.8097475600000000    0.4425063500000000    0.6900267800000000 O
   0.1849758100000000    0.1876108700000000    0.9394125500000000 O
   0.5526942000000000    0.5718822099999999    0.3185236200000000 O
   0.1746480600000000    0.5693008400000000    0.9402375400000000 O
   0.5574936500000000    0.1902524400000000    0.3099732200000000 O
   0.5512439700000000    0.1922146600000000    0.9381985100000000 O
   0.1866104800000000    0.5600612900000000    0.3139861600000000 O
