Hf2 Mo4 O16
1.0
   5.7865090800000001   -3.9389118800000000    0.0477114700000000
   5.7865090800000001    3.9389118800000000    0.0477114700000000
  -4.0102988499999999    0.0000000000000000    6.2951903800000002
Hf Mo O
2 4 16
direct
   0.0200820100000000    0.9799179900000000    0.7500000000000000 Hf
   0.9799179900000000    0.0200820100000000    0.2500000000000000 Hf
   0.9429756000000000    0.4964079000000000    0.7589209700000000 Mo
   0.4964079000000000    0.9429756000000000    0.2589209700000000 Mo
   0.0570244000000000    0.5035921000000000    0.2410790300000000 Mo
   0.5035921000000000    0.0570244000000000    0.7410790300000000 Mo
   0.9361969700000000    0.3521660700000000    0.2891241400000000 O
   0.9891671900000000    0.3187011200000000    0.9386966400000000 O
   0.3521660700000000    0.9361969700000000    0.7891241400000000 O
   0.6026590100000000    0.6717298900000001    0.1625141000000000 O
   0.2033891000000000    0.9793088400000000    0.0797254500000000 O
   0.6478339300000000    0.0638030300000000    0.2108758600000000 O
   0.7966109000000000    0.0206911600000000    0.9202745500000000 O
   0.0206911600000000    0.7966109000000000    0.4202745500000000 O
   0.6717298900000001    0.6026590100000000    0.6625141000000000 O
   0.0638030300000000    0.6478339300000000    0.7108758600000000 O
   0.9793088400000000    0.2033891000000000    0.5797254500000000 O
   0.6812988800000001    0.0108328100000000    0.5613033600000000 O
   0.0108328100000000    0.6812988800000001    0.0613033600000000 O
   0.3282701100000000    0.3973409900000000    0.3374859000000000 O
   0.3973409900000000    0.3282701100000000    0.8374859000000000 O
   0.3187011200000000    0.9891671900000000    0.4386966400000000 O
