Rb12 Sb4 S12
1.0
   9.7792078700000005    0.0000000000000000    0.0000000000000000
   0.0000000000000000    9.7792078700000005    0.0000000000000000
   0.0000000000000000    0.0000000000000000    9.7792078700000005
Rb Sb S
12 4 12
direct
   0.3148982500000000    0.3148982500000000    0.3148982500000000 Rb
   0.1851017500000000    0.6851017500000000    0.8148982500000000 Rb
   0.8148982500000000    0.1851017500000000    0.6851017500000000 Rb
   0.6851017500000000    0.8148982500000000    0.1851017500000000 Rb
   0.5734003100000000    0.5734003100000000    0.5734003100000000 Rb
   0.9265996900000000    0.4265996900000000    0.0734003100000000 Rb
   0.0734003100000000    0.9265996900000000    0.4265996900000000 Rb
   0.4265996900000000    0.0734003100000000    0.9265996900000000 Rb
   0.8096445400000000    0.8096445400000000    0.8096445400000000 Rb
   0.6903554600000000    0.1903554600000000    0.3096445400000000 Rb
   0.3096445400000000    0.6903554600000000    0.1903554600000000 Rb
   0.1903554600000000    0.3096445400000000    0.6903554600000000 Rb
   0.0279193700000000    0.0279193700000000    0.0279193700000000 Sb
   0.4720806300000000    0.9720806300000000    0.5279193700000000 Sb
   0.5279193700000000    0.4720806300000000    0.9720806300000000 Sb
   0.9720806300000000    0.5279193700000000    0.4720806300000000 Sb
   0.2105104100000000    0.5974882200000000    0.4951290000000000 S
   0.4951290000000000    0.2105104100000000    0.5974882200000000 S
   0.5974882200000000    0.4951290000000000    0.2105104100000000 S
   0.9025117800000000    0.5048710000000000    0.7105104100000000 S
   0.9951290000000000    0.2894895900000000    0.4025117800000000 S
   0.4025117800000000    0.9951290000000000    0.2894895900000000 S
   0.0048710000000000    0.7894895900000000    0.0974882200000000 S
   0.5048710000000000    0.7105104100000000    0.9025117800000000 S
   0.0974882200000000    0.0048710000000000    0.7894895900000000 S
   0.7105104100000000    0.9025117800000000    0.5048710000000000 S
   0.7894895900000000    0.0974882200000000    0.0048710000000000 S
   0.2894895900000000    0.4025117800000000    0.9951290000000000 S
