Na8 As4 O14
1.0
   2.9736228400000000   -5.0303826000000003    0.0004473400000000
   2.9736228400000000    5.0303826000000003    0.0004473400000000
  -0.5865220000000000    0.0000000000000000   12.2324842599999997
Na As O
8 4 14
direct
   0.9821305200000000    0.3340741300000000    0.3718181400000000 Na
   0.6659258700000000    0.0178694800000000    0.1281818600000000 Na
   0.0178694800000000    0.6659258700000000    0.6281818600000000 Na
   0.3340741300000000    0.9821305200000000    0.8718181400000000 Na
   0.7031132800000000    0.6808870100000000    0.9046349500000000 Na
   0.3191129900000000    0.2968867200000000    0.5953650500000000 Na
   0.2968867200000000    0.3191129900000000    0.0953650500000000 Na
   0.6808870100000000    0.7031132800000000    0.4046349500000000 Na
   0.0085961200000000    0.7012623100000001    0.1378924900000000 As
   0.2987376900000000    0.9914038800000000    0.3621075100000000 As
   0.9914038800000000    0.2987376900000000    0.8621075100000000 As
   0.7012623100000001    0.0085961200000000    0.6378924900000000 As
   0.4395102900000000    0.0233879500000000    0.6858923600000000 O
   0.9766120500000000    0.5604897100000000    0.8141076400000000 O
   0.5604897100000000    0.9766120500000000    0.3141076400000000 O
   0.0233879500000000    0.4395102900000000    0.1858923600000000 O
   0.6401616600000000    0.7086912300000000    0.5922140000000000 O
   0.2913087700000000    0.3598383400000000    0.9077860000000000 O
   0.3598383400000000    0.2913087700000000    0.4077860000000000 O
   0.7086912300000000    0.6401616600000000    0.0922140000000000 O
   0.8895366600000000    0.2486602200000000    0.5544267400000000 O
   0.7513397800000000    0.1104633400000000    0.9455732600000000 O
   0.1104633400000000    0.7513397800000000    0.4455732600000000 O
   0.2486602200000000    0.8895366600000000    0.0544267400000000 O
   0.0648743200000000    0.9351256800000000    0.2500000000000000 O
   0.9351256800000000    0.0648743200000000    0.7500000000000000 O
