Cs4 Si2 S6
1.0
   6.8282684199999997   -3.5423924400000000    0.0289904600000000
   6.8282684199999997    3.5423924400000000    0.0289904600000000
  -5.7961859699999998    0.0000000000000000    8.0125671000000001
Cs Si S
4 2 6
direct
   0.9206277899999999    0.9206277899999999    0.1415044400000000 Cs
   0.0793722100000000    0.0793722100000000    0.8584955600000000 Cs
   0.6981885400000000    0.6981885400000000    0.3139306900000000 Cs
   0.3018114600000000    0.3018114600000000    0.6860693100000000 Cs
   0.6127134200000000    0.6127134200000000    0.6745461400000000 Si
   0.3872865800000000    0.3872865800000000    0.3254538600000000 Si
   0.2711821700000000    0.7288178300000000    0.5000000000000000 S
   0.7288178300000000    0.2711821700000000    0.5000000000000000 S
   0.6101076000000000    0.6101076000000000    0.8825951900000000 S
   0.3898924000000000    0.3898924000000000    0.1174048100000000 S
   0.7824960800000000    0.7824960800000000    0.7210303600000000 S
   0.2175039200000000    0.2175039200000000    0.2789696400000000 S
