Tl4 P2 Au2 S8
1.0
   6.3326663500000002    0.0000000000000000   -0.0144834300000000
   0.0000000000000000    6.6051964700000001    0.0000000000000000
  -0.6910531700000000    0.0000000000000000    9.0534169799999997
Tl P Au S
4 2 2 8
direct
   0.2087084600000000    0.2500000000000000    0.4590590100000000 Tl
   0.7912915400000000    0.7500000000000000    0.5409409900000000 Tl
   0.4306906500000000    0.7500000000000000    0.1494251200000000 Tl
   0.5693093500000000    0.2500000000000000    0.8505748800000000 Tl
   0.2897395900000000    0.7500000000000000    0.7269736700000000 P
   0.7102604100000000    0.2500000000000000    0.2730263300000000 P
   0.0000000000000000    0.5000000000000000    0.0000000000000000 Au
   0.0000000000000000    0.0000000000000000    0.0000000000000000 Au
   0.6990730600000000    0.2500000000000000    0.4944707300000000 S
   0.3009269400000000    0.7500000000000000    0.5055292700000000 S
   0.4224530600000000    0.2500000000000000    0.1565645500000000 S
   0.5775469400000000    0.7500000000000000    0.8434354500000000 S
   0.8797453800000000    0.9887243500000000    0.2312391000000000 S
   0.1202546200000000    0.4887243500000000    0.7687609000000000 S
   0.8797453800000000    0.5112756500000000    0.2312391000000000 S
   0.1202546200000000    0.0112756500000000    0.7687609000000000 S
