Cu4 Si2 Se6
1.0
   3.3130866000000001   -5.8318314999999998    0.0100149500000000
   3.3130866000000001    5.8318314999999998    0.0100149500000000
  -2.0932627699999999    0.0000000000000000    6.2862924099999997
Cu Si Se
4 2 6
direct
   0.2308602900000000    0.7421583100000000    0.4964914500000000 Cu
   0.7421583100000000    0.2308602900000000    0.9964914499999999 Cu
   0.5864134700000000    0.4119758800000000    0.5013144300000000 Cu
   0.4119758800000000    0.5864134700000000    0.0013144300000000 Cu
   0.8849474100000000    0.0547606300000000    0.4752295900000000 Si
   0.0547606300000000    0.8849474100000000    0.9752295900000000 Si
   0.6966536900000000    0.5269209200000000    0.8787466600000000 Se
   0.5269209200000000    0.6966536900000000    0.3787466600000000 Se
   0.8670921200000000    0.3518586600000000    0.3718338800000000 Se
   0.3518586600000000    0.8670921200000000    0.8718338799999999 Se
   0.0324129400000000    0.1897446800000000    0.8548839900000000 Se
   0.1897446800000000    0.0324129400000000    0.3548839900000000 Se
