Sr4 Pb4 O12
1.0
   6.0481719299999996    0.0000000000000000    0.0000000000000000
   0.0000000000000000    8.3629956599999993    0.0000000000000000
   0.0000000000000000    0.0000000000000000    5.8758099100000001
Sr Pb O
4 4 12
direct
   0.0535667100000000    0.7500000000000000    0.4853713900000000 Sr
   0.4464332900000000    0.2500000000000000    0.9853713900000000 Sr
   0.9464332900000000    0.2500000000000000    0.5146286100000000 Sr
   0.5535667100000000    0.7500000000000000    0.0146286100000000 Sr
   0.0000000000000000    0.5000000000000000    0.0000000000000000 Pb
   0.5000000000000000    0.0000000000000000    0.5000000000000000 Pb
   0.5000000000000000    0.5000000000000000    0.5000000000000000 Pb
   0.0000000000000000    0.0000000000000000    0.0000000000000000 Pb
   0.4581818300000000    0.7500000000000000    0.6044914300000001 O
   0.7976779700000000    0.9451295900000000    0.3010404200000000 O
   0.0418181700000000    0.2500000000000000    0.1044914300000000 O
   0.2976779700000000    0.9451295900000000    0.1989595800000000 O
   0.7976779700000000    0.5548704100000000    0.3010404200000000 O
   0.9581818300000000    0.7500000000000000    0.8955085699999999 O
   0.7023220300000000    0.0548704100000000    0.8010404200000000 O
   0.2023220300000000    0.0548704100000000    0.6989595800000000 O
   0.5418181700000000    0.2500000000000000    0.3955085700000000 O
   0.7023220300000000    0.4451295900000000    0.8010404200000000 O
   0.2023220300000000    0.4451295900000000    0.6989595800000000 O
   0.2976779700000000    0.5548704100000000    0.1989595800000000 O
