Ba4 Ge4 O12
1.0
   4.5772510200000003    0.0000000000000000    0.0000000000000000
   0.0000000000000000    5.7647875700000002    0.0000000000000000
   0.0000000000000000    0.0000000000000000   12.9657866300000002
Ba Ge O
4 4 12
direct
   0.2738872100000000    0.8215808700000000    0.8614348700000000 Ba
   0.7738872100000000    0.6784191300000000    0.1385651300000000 Ba
   0.7261127900000000    0.3215808700000000    0.6385651300000000 Ba
   0.2261127900000000    0.1784191300000000    0.3614348700000000 Ba
   0.8217371999999999    0.3095494000000000    0.9231461399999999 Ge
   0.3217372000000000    0.1904506000000000    0.0768538600000000 Ge
   0.1782628000000000    0.8095494000000000    0.5768538600000001 Ge
   0.6782628000000001    0.6904506000000000    0.4231461400000000 Ge
   0.7627400800000000    0.6097968900000000    0.9137285700000000 O
   0.2627400800000000    0.8902031100000000    0.0862714300000000 O
   0.2372599200000000    0.1097968900000000    0.5862714300000000 O
   0.7372599200000000    0.3902031100000000    0.4137285700000000 O
   0.7544111300000000    0.1157140500000000    0.8217527800000000 O
   0.2544111300000000    0.3842859500000000    0.1782472200000000 O
   0.2455888700000000    0.6157140500000000    0.6782472200000000 O
   0.7455888700000000    0.8842859500000000    0.3217527800000000 O
   0.2807034200000000    0.7127596700000000    0.4469399400000000 O
   0.7807034200000000    0.7872403300000000    0.5530600600000000 O
   0.7192965800000000    0.2127596700000000    0.0530600600000000 O
   0.2192965800000000    0.2872403300000000    0.9469399400000000 O
