Ca2 Se2 O8
1.0
  -2.5242600199999998    2.5242599900000000    5.7866570800000003
   2.5242600199999998   -2.5242599900000000    5.7866570800000003
   2.5242599900000000    2.5242600199999998   -5.7866570800000003
Ca Se O
2 2 8
direct
   0.7500000000000000    0.2500000000000000    0.5000000000000000 Ca
   0.0000000000000000    0.0000000000000000    0.0000000000000000 Ca
   0.2500000000000000    0.7500000000000000    0.5000000000000000 Se
   0.5000000000000000    0.5000000000000000    0.0000000000000000 Se
   0.3083461900000000    0.9156543800000000    0.8790048600000000 O
   0.0366495200000000    0.4293413400000000    0.1209951400000000 O
   0.1793413400000000    0.5583461900000000    0.8926918200000000 O
   0.6656543800000000    0.2866495200000000    0.1073081800000000 O
   0.4416538100000000    0.3343456200000000    0.6209951400000000 O
   0.7133504800000000    0.8206586600000000    0.3790048600000000 O
   0.5706586600000000    0.6916538100000000    0.6073081800000000 O
   0.0843456200000000    0.9633504800000000    0.3926918200000000 O
