Sc2 Tl2 S4
1.0
   3.7165018000000001    0.0000000100000000    0.0000000000000000
  -1.8582513899999999    3.2185851599999999    0.0000000000000000
   0.0000000000000000    0.0000000000000000   14.6924229499999992
Sc Tl S
2 2 4
direct
   0.0000000000000000    0.0000000000000000    0.0000000000000000 Sc
   0.0000000000000000    0.0000000000000000    0.5000000000000000 Sc
   0.3333330000000000    0.6666670000000000    0.2500000000000000 Tl
   0.6666670000000000    0.3333330000000000    0.7500000000000000 Tl
   0.6666670000000000    0.3333330000000000    0.4038878200000000 S
   0.3333330000000000    0.6666670000000000    0.9038878200000000 S
   0.6666670000000000    0.3333330000000000    0.0961121800000000 S
   0.3333330000000000    0.6666670000000000    0.5961121800000000 S
