Sr2 Ga1 Sb1 O6
1.0
  -2.7633057600000002    2.7633057900000000    4.0042221900000001
   2.7633057600000002   -2.7633057900000000    4.0042221900000001
   2.7633057900000000    2.7633057600000002   -4.0042221900000001
Sr Ga Sb O
2 1 1 6
direct
   0.7500000000000000    0.2500000000000000    0.5000000000000000 Sr
   0.2500000000000000    0.7500000000000000    0.5000000000000000 Sr
   0.0000000000000000    0.0000000000000000    0.0000000000000000 Ga
   0.5000000000000000    0.5000000000000000    0.0000000000000000 Sb
   0.7926828299999999    0.7091069600000000    0.5017887800000000 O
   0.2908930400000000    0.7926828299999999    0.0835758700000000 O
   0.7091069600000000    0.2073171700000000    0.9164241300000000 O
   0.2073171700000000    0.2908930400000000    0.4982112200000000 O
   0.7487716300000000    0.7487716300000000    0.0000000000000000 O
   0.2512283700000000    0.2512283700000000    0.0000000000000000 O
