Ba3 P2 O8
1.0
   2.7979288300000000    1.6153850700000001    7.0021706899999998
  -2.7979288300000000    1.6153850700000001    7.0021706899999998
   0.0000000000000000   -3.2307701500000001    7.0021706899999998
Ba P O
3 2 8
direct
   0.7914050100000000    0.7914050100000000    0.7914050100000000 Ba
   0.2085949900000000    0.2085949900000000    0.2085949900000000 Ba
   0.0000000000000000    0.0000000000000000    0.0000000000000000 Ba
   0.5923054700000000    0.5923054700000000    0.5923054700000000 P
   0.4076945300000000    0.4076945300000000    0.4076945300000000 P
   0.2642467400000000    0.7183111599999999    0.7183111599999999 O
   0.7183111599999999    0.7183111599999999    0.2642467400000000 O
   0.7183111599999999    0.2642467400000000    0.7183111599999999 O
   0.2816888400000000    0.7357532600000000    0.2816888400000000 O
   0.7357532600000000    0.2816888400000000    0.2816888400000000 O
   0.3341625900000000    0.3341625900000000    0.3341625900000000 O
   0.6658374100000000    0.6658374100000000    0.6658374100000000 O
   0.2816888400000000    0.2816888400000000    0.7357532600000000 O
