Sr4 Se4 O12
1.0
  12.4877125499999995    0.0000000000000000    0.0000000000000000
   0.0000000000000000    5.4907635499999996    0.0000000000000000
   0.0000000000000000    0.0000000000000000    4.4103813399999998
Sr Se O
4 4 12
direct
   0.3483548900000000    0.2500000000000000    0.5250357500000000 Sr
   0.8483548900000000    0.2500000000000000    0.9749642500000000 Sr
   0.6516451100000000    0.7500000000000000    0.4749642500000000 Sr
   0.1516451100000000    0.7500000000000000    0.0250357500000000 Sr
   0.0767046100000000    0.2500000000000000    0.4975979700000000 Se
   0.4232953900000000    0.7500000000000000    0.9975979699999999 Se
   0.5767046100000000    0.2500000000000000    0.0024020300000000 Se
   0.9232953900000000    0.7500000000000000    0.5024020300000001 Se
   0.6641781900000000    0.0088451000000000    0.9701266500000000 O
   0.6641781900000000    0.4911549000000000    0.9701266500000000 O
   0.0517698100000000    0.2500000000000000    0.1146621400000000 O
   0.5517698100000000    0.2500000000000000    0.3853378600000000 O
   0.3358218100000000    0.9911548999999999    0.0298733500000000 O
   0.1641781900000000    0.4911549000000000    0.5298733500000000 O
   0.4482301900000000    0.7500000000000000    0.6146621400000000 O
   0.1641781900000000    0.0088451000000000    0.5298733500000000 O
   0.9482301900000000    0.7500000000000000    0.8853378600000000 O
   0.3358218100000000    0.5088451000000001    0.0298733500000000 O
   0.8358218100000000    0.9911548999999999    0.4701266500000000 O
   0.8358218100000000    0.5088451000000001    0.4701266500000000 O
