Li4 Bi4 O8
1.0
  -2.6420927399999998    9.0704052599999994    2.3396491199999998
   2.6420927399999998   -9.0704052599999994    2.3396491199999998
   2.6420927399999998    9.0704052599999994   -2.3396491199999998
Li Bi O
4 4 8
direct
   0.0009235300000000    0.2500000000000000    0.7509235300000000 Li
   0.4990764700000000    0.2500000000000000    0.2490764700000000 Li
   0.9990764700000000    0.7500000000000000    0.2490764700000000 Li
   0.5009235300000000    0.7500000000000000    0.7509235300000000 Li
   0.9121569300000000    0.2444853700000000    0.1566423000000000 Bi
   0.0878430700000000    0.7555146300000000    0.8433577000000000 Bi
   0.5878430700000000    0.7444853700000000    0.3323284400000000 Bi
   0.4121569300000000    0.2555146300000000    0.6676715600000001 Bi
   0.7982712500000000    0.2517415900000000    0.0500128400000000 O
   0.2017287500000000    0.7482584100000000    0.9499871600000001 O
   0.7017287500000000    0.7517415900000000    0.4534703400000000 O
   0.2982712500000000    0.2482584100000000    0.5465296600000000 O
   0.9208866900000000    0.8405716600000001    0.7614583500000000 O
   0.0791133100000000    0.1594283400000000    0.2385416500000000 O
   0.5791133100000000    0.3405716600000000    0.9196849700000000 O
   0.4208866900000000    0.6594283399999999    0.0803150300000000 O
