La2 Tl4 P4 S14
1.0
  10.2725498700000006   -3.2773973000000001    0.0264726000000000
  10.2725498700000006    3.2773973000000001    0.0264726000000000
  -2.9240222100000000    0.0000000000000000    8.7166528299999992
La Tl P S
2 4 4 14
direct
   0.6540222600000000    0.6540222600000000    0.8381178500000001 La
   0.3459777400000000    0.3459777400000000    0.1618821500000000 La
   0.9923835200000000    0.9923835200000000    0.7464228600000000 Tl
   0.0076164800000000    0.0076164800000000    0.2535771400000000 Tl
   0.6813709900000000    0.6813709900000000    0.3208226200000000 Tl
   0.3186290100000000    0.3186290100000000    0.6791773800000001 Tl
   0.5464936500000001    0.5464936500000001    0.4656118000000000 P
   0.4535063500000000    0.4535063500000000    0.5343882000000000 P
   0.8350943800000000    0.8350943800000000    0.9298693300000000 P
   0.1649056200000000    0.1649056200000000    0.0701306700000000 P
   0.4906480600000000    0.4906480600000000    0.7644483100000000 S
   0.5093519399999999    0.5093519399999999    0.2355516900000000 S
   0.7662029500000000    0.7662029500000000    0.7153524800000000 S
   0.2337970500000000    0.2337970500000000    0.2846475200000000 S
   0.1475274100000000    0.6531309100000000    0.4385204700000000 S
   0.6531309100000000    0.1475274100000000    0.4385204700000000 S
   0.8524725900000000    0.3468690900000000    0.5614795299999999 S
   0.3468690900000000    0.8524725900000000    0.5614795299999999 S
   0.1453357000000000    0.6504276700000000    0.9594544000000000 S
   0.6504276700000000    0.1453357000000000    0.9594544000000000 S
   0.8546643000000000    0.3495723300000000    0.0405456000000000 S
   0.3495723300000000    0.8546643000000000    0.0405456000000000 S
   0.2130659400000000    0.2130659400000000    0.9037993100000000 S
   0.7869340600000000    0.7869340600000000    0.0962006900000000 S
