Na1 Bi1 Se2
1.0
   2.0829673199999998    1.2026016799999999    6.9748758799999999
  -2.0829673199999998    1.2026016799999999    6.9748758799999999
   0.0000000000000000   -2.4052033599999998    6.9748758799999999
Na Bi Se
1 1 2
direct
   0.5000000000000000    0.5000000000000000    0.5000000000000000 Na
   0.0000000000000000    0.0000000000000000    0.0000000000000000 Bi
   0.2527058700000000    0.2527058700000000    0.2527058700000000 Se
   0.7472941300000000    0.7472941300000000    0.7472941300000000 Se
