Cs6 B6 Se20
1.0
   7.5773872999999998   -0.0023738100000000    0.0007425000000000
   1.6058283000000000    8.2583753000000009   -0.0015655300000000
   1.3857142600000001    3.7622661700000002   14.5781127799999997
Cs B Se
6 6 20
direct
   0.6697260500000000    0.6807208400000000    0.4841143800000000 Cs
   0.3302739500000000    0.3192791600000000    0.5158856200000000 Cs
   0.2529067000000000    0.3370334900000000    0.1423287000000000 Cs
   0.7470933000000000    0.6629665100000000    0.8576713000000000 Cs
   0.0467351800000000    0.8432403300000000    0.2162311700000000 Cs
   0.9532648200000000    0.1567596700000000    0.7837688300000000 Cs
   0.6119162100000000    0.8045238800000000    0.0939570200000000 B
   0.3880837900000000    0.1954761200000000    0.9060429800000001 B
   0.7316407000000000    0.4547729800000000    0.2359404800000000 B
   0.2683593000000000    0.5452270200000000    0.7640595200000000 B
   0.9008884400000000    0.1951550200000000    0.4097931200000000 B
   0.0991115600000000    0.8048449800000000    0.5902068800000000 B
   0.7716259800000000    0.9649665400000000    0.0182183600000000 Se
   0.2283740200000000    0.0350334600000000    0.9817816400000000 Se
   0.4104646600000000    0.7636896600000000    0.0268907400000000 Se
   0.5895353400000000    0.2363103400000000    0.9731092600000000 Se
   0.5413456800000001    0.8437961000000000    0.2218867400000000 Se
   0.4586543200000000    0.1562039000000000    0.7781132600000000 Se
   0.7968284100000000    0.5859541400000000    0.1063812000000000 Se
   0.2031715900000000    0.4140458600000000    0.8936188000000000 Se
   0.4874997700000000    0.5659022500000001    0.2829855500000000 Se
   0.5125002300000000    0.4340977500000000    0.7170144500000000 Se
   0.7125470600000000    0.2266865500000000    0.2186895200000000 Se
   0.2874529400000000    0.7733134500000000    0.7813104800000000 Se
   0.9283890700000000    0.4284512500000000    0.3294914800000000 Se
   0.0716109300000000    0.5715487500000000    0.6705085200000001 Se
   0.6850714300000000    0.1110673200000000    0.3788553900000000 Se
   0.3149285700000000    0.8889326800000000    0.6211446100000000 Se
   0.8523748200000000    0.2158321200000000    0.5416558500000000 Se
   0.1476251800000000    0.7841678800000000    0.4583441500000000 Se
   0.1475627200000000    0.0730680500000000    0.3777992400000000 Se
   0.8524372800000000    0.9269319499999999    0.6222007600000000 Se
