Rb4 Hg6 Ge4 S16
1.0
   9.9140389500000001    0.0000000000000000   -0.0024842100000000
   0.0000000000000000    6.4071690800000001    0.0000000000000000
  -1.4834203500000001    0.0000000000000000   13.0643367700000006
Rb Hg Ge S
4 6 4 16
direct
   0.7725116300000000    0.6536153000000000    0.1810016300000000 Rb
   0.2274883700000000    0.3463847000000000    0.8189983700000000 Rb
   0.2274883700000000    0.1536153000000000    0.3189983700000000 Rb
   0.7725116300000000    0.8463847000000000    0.6810016300000000 Rb
   0.5040257100000000    0.7105724900000000    0.3870405600000000 Hg
   0.4959742900000000    0.2894275100000000    0.6129594400000000 Hg
   0.4959742900000000    0.2105724900000000    0.1129594400000000 Hg
   0.5040257100000000    0.7894275100000000    0.8870405600000000 Hg
   0.0000000000000000    0.0000000000000000    0.0000000000000000 Hg
   0.0000000000000000    0.5000000000000000    0.5000000000000000 Hg
   0.2815711800000000    0.6939645300000000    0.0827964000000000 Ge
   0.7184288200000000    0.3060354700000000    0.9172036000000000 Ge
   0.7184288200000000    0.1939645300000000    0.4172036000000000 Ge
   0.2815711800000000    0.8060354700000000    0.5827964000000000 Ge
   0.2659326800000000    0.3455005800000000    0.0830318800000000 S
   0.7340673200000000    0.6544994200000001    0.9169681200000001 S
   0.7340673200000000    0.8455005799999999    0.4169681200000000 S
   0.2659326800000000    0.1544994200000000    0.5830318799999999 S
   0.4593130100000000    0.8189353500000000    0.1781644300000000 S
   0.5406869900000000    0.1810646500000000    0.8218355700000000 S
   0.5406869900000000    0.3189353500000000    0.3218355700000000 S
   0.4593130100000000    0.6810646500000000    0.6781644300000000 S
   0.0862951800000000    0.7994049500000000    0.1422979100000000 S
   0.9137048200000000    0.2005950500000000    0.8577020900000000 S
   0.9137048200000000    0.2994049500000000    0.3577020900000000 S
   0.0862951800000000    0.7005950500000000    0.6422979100000000 S
   0.2684382500000000    0.6813235800000000    0.4228660500000000 S
   0.7315617500000000    0.3186764200000000    0.5771339500000000 S
   0.7315617500000000    0.1813235800000000    0.0771339500000000 S
   0.2684382500000000    0.8186764200000000    0.9228660500000000 S
