Rb3 Ag9 Sb4 S12
1.0
  -5.3291131199999997    5.3291124700000001    5.8566970800000000
   5.3291131199999997   -5.3291124700000001    5.8566970800000000
   5.3291124700000001    5.3291131199999997   -5.8566970800000000
Rb Ag Sb S
3 9 4 12
direct
   0.0000000000000000    0.0000000000000000    0.0000000000000000 Rb
   0.6734825500000000    0.6734825500000000    0.0000000000000000 Rb
   0.3265174500000000    0.3265174500000000    0.0000000000000000 Rb
   0.2500000000000000    0.7500000000000000    0.5000000000000000 Ag
   0.3475074500000000    0.4824837300000000    0.4836814800000000 Ag
   0.9988022500000000    0.8638249600000000    0.5163185200000000 Ag
   0.5006497600000001    0.0004057500000000    0.1682346200000000 Ag
   0.8321711300000000    0.3324161400000000    0.8317653800000000 Ag
   0.6675838600000000    0.4993502400000000    0.4997549900000000 Ag
   0.9995942500000000    0.1678288700000000    0.5002450100000000 Ag
   0.5175162700000000    0.0011977500000000    0.8650227200000000 Ag
   0.1361750400000000    0.6524925499999999    0.1349772800000000 Ag
   0.1158792600000000    0.5911015500000000    0.7360884000000000 Sb
   0.8550131500000000    0.3797908600000000    0.2639116000000000 Sb
   0.6202091400000000    0.8841207400000000    0.4752222900000000 Sb
   0.4088984500000000    0.1449868500000000    0.5247777100000000 Sb
   0.2116804500000000    0.8766275800000000    0.7799739400000000 S
   0.0966546400000000    0.4317075100000000    0.2200260600000000 S
   0.9113809400000000    0.1114811900000000    0.6959277200000000 S
   0.4155534700000000    0.2154532200000000    0.3040722800000000 S
   0.7845467800000000    0.0886190600000000    0.2001002500000000 S
   0.8885188100000000    0.5844465300000000    0.7998997500000000 S
   0.1233724200000000    0.9033453600000000    0.3350528600000000 S
   0.5682924900000000    0.7883195500000000    0.6649471400000000 S
   0.3395296000000000    0.6867520800000000    0.0328108200000000 S
   0.6539412600000000    0.3067187800000000    0.9671891800000000 S
   0.6932812200000000    0.6604704000000000    0.3472224800000000 S
   0.3132479200000000    0.3460587400000000    0.6527775200000000 S
