Tl4 Sn4 P4 S16
1.0
  11.8083080200000001    0.0000000000000000    0.0000000000000000
   0.0000000000000000    8.6279149400000001    0.0000000000000000
   0.0000000000000000    0.0000000000000000    6.5386645400000001
Tl Sn P S
4 4 4 16
direct
   0.8927383000000000    0.6318196300000000    0.9960791500000000 Tl
   0.1072617000000000    0.3681803700000000    0.4960791500000000 Tl
   0.3927383000000000    0.8681803700000000    0.9960791500000000 Tl
   0.6072617000000000    0.1318196300000000    0.4960791500000000 Tl
   0.8670923100000000    0.1118488800000000    0.0365353600000000 Sn
   0.1329076900000000    0.8881511200000000    0.5365353600000000 Sn
   0.3670923100000000    0.3881511200000000    0.0365353600000000 Sn
   0.6329076900000000    0.6118488800000000    0.5365353600000000 Sn
   0.1546491400000000    0.1274358800000000    0.9803543800000000 P
   0.8453508600000000    0.8725641200000001    0.4803543800000000 P
   0.6546491400000000    0.3725641200000000    0.9803543800000000 P
   0.3453508600000000    0.6274358799999999    0.4803543800000000 P
   0.5449187800000000    0.1885084500000000    0.9902847299999999 S
   0.4550812200000000    0.8114915500000000    0.4902847300000000 S
   0.0449187800000000    0.3114915500000000    0.9902847299999999 S
   0.9550812200000000    0.6885084500000000    0.4902847300000000 S
   0.7466913100000000    0.8733885000000000    0.7372639200000000 S
   0.2533086900000000    0.1266115000000000    0.2372639200000000 S
   0.2466913100000000    0.6266115000000000    0.7372639200000000 S
   0.7533086900000000    0.3733885000000000    0.2372639200000000 S
   0.0640989600000000    0.9234835600000000    0.9543640799999999 S
   0.9359010400000000    0.0765164400000000    0.4543640800000000 S
   0.5640989600000000    0.5765164400000000    0.9543640799999999 S
   0.4359010400000000    0.4234835600000000    0.4543640800000000 S
   0.7389376500000000    0.8533027500000000    0.2365203900000000 S
   0.2610623500000000    0.1466972500000000    0.7365203900000000 S
   0.2389376500000000    0.6466972500000000    0.2365203900000000 S
   0.7610623500000000    0.3533027500000000    0.7365203900000000 S
