Zr2 S2 O2
1.0
   3.6013775099999998    0.0000000000000000    0.0000000000000000
   0.0000000000000000    3.6013775099999998    0.0000000000000000
   0.0000000000000000    0.0000000000000000    6.4005214300000004
Zr S O
2 2 2
direct
   0.0000000000000000    0.5000000000000000    0.8031040200000000 Zr
   0.5000000000000000    0.0000000000000000    0.1968959800000000 Zr
   0.5000000000000000    0.0000000000000000    0.6274532300000000 S
   0.0000000000000000    0.5000000000000000    0.3725467700000000 S
   0.0000000000000000    0.0000000000000000    0.0000000000000000 O
   0.5000000000000000    0.5000000000000000    0.0000000000000000 O
