Tl8 Ge4 Pb4 S16
1.0
  10.3893863100000008    0.0000000000000000    0.0255573600000000
   0.0000000000000000    8.9426799399999997    0.0000000000000000
  -0.6192084500000000    0.0000000000000000    8.8034106600000008
Tl Ge Pb S
8 4 4 16
direct
   0.9417838800000000    0.3101606900000000    0.4317179800000000 Tl
   0.9417838800000000    0.1898393100000000    0.9317179799999999 Tl
   0.0582161200000000    0.6898393100000000    0.5682820200000001 Tl
   0.2253620700000000    0.3889549900000000    0.9037808200000000 Tl
   0.7746379300000000    0.8889549900000000    0.5962191800000000 Tl
   0.7746379300000000    0.6110450100000000    0.0962191800000000 Tl
   0.0582161200000000    0.8101606900000000    0.0682820200000000 Tl
   0.2253620700000000    0.1110450100000000    0.4037808200000000 Tl
   0.2600848900000000    0.5255422000000000    0.2939679700000000 Ge
   0.2600848900000000    0.9744578000000000    0.7939679700000000 Ge
   0.7399151100000000    0.4744578000000000    0.7060320300000000 Ge
   0.7399151100000000    0.0255422000000000    0.2060320300000000 Ge
   0.4495315800000000    0.6982348600000000    0.5988255800000000 Pb
   0.5504684200000000    0.1982348600000000    0.9011744200000000 Pb
   0.4495315800000000    0.8017651400000000    0.0988255800000000 Pb
   0.5504684200000000    0.3017651400000000    0.4011744200000000 Pb
   0.7036529000000000    0.9337667300000000    0.9718871400000000 S
   0.0750099600000000    0.0330734100000000    0.6721149400000000 S
   0.7036529000000000    0.5662332700000000    0.4718871400000000 S
   0.2677912600000000    0.7768863400000000    0.3235401700000000 S
   0.4249564300000000    0.4671472100000000    0.1553097600000000 S
   0.9249900400000000    0.9669265900000000    0.3278850600000000 S
   0.5750435699999999    0.5328527900000000    0.8446902400000000 S
   0.9249900400000000    0.5330734100000000    0.8278850600000000 S
   0.2963471000000000    0.0662332700000000    0.0281128600000000 S
   0.7322087400000000    0.2768863400000000    0.1764598300000000 S
   0.2677912600000000    0.7231136600000000    0.8235401700000000 S
   0.7322087400000000    0.2231136600000000    0.6764598300000000 S
   0.5750435699999999    0.9671472100000000    0.3446902400000000 S
   0.0750099600000000    0.4669265900000000    0.1721149400000000 S
   0.2963471000000000    0.4337667300000000    0.5281128600000000 S
   0.4249564300000000    0.0328527900000000    0.6553097600000000 S
