In8 Pb4 S16
1.0
  11.6749607900000001    0.0000000000000000    0.0000000000000000
   0.0000000000000000    3.8603428100000001    0.0000000000000000
   0.0000000000000000    0.0000000000000000   13.7335555100000004
In Pb S
8 4 16
direct
   0.0662113100000000    0.2500000000000000    0.8896971800000000 In
   0.5662113100000000    0.2500000000000000    0.6103028200000000 In
   0.9337886900000000    0.7500000000000000    0.1103028200000000 In
   0.4337886900000000    0.7500000000000000    0.3896971800000000 In
   0.5808370899999999    0.2500000000000000    0.0982449100000000 In
   0.0808370900000000    0.2500000000000000    0.4017550900000000 In
   0.4191629100000000    0.7500000000000000    0.9017550900000000 In
   0.9191629100000001    0.7500000000000000    0.5982449100000000 In
   0.7455650700000001    0.2500000000000000    0.8344461600000000 Pb
   0.2455650700000000    0.2500000000000000    0.6655538400000000 Pb
   0.2544349300000000    0.7500000000000000    0.1655538400000000 Pb
   0.7544349299999999    0.7500000000000000    0.3344461600000000 Pb
   0.5908984900000001    0.2500000000000000    0.4251307300000000 S
   0.0908984900000000    0.2500000000000000    0.0748692700000000 S
   0.4091015100000000    0.7500000000000000    0.5748692700000000 S
   0.9091015099999999    0.7500000000000000    0.9251307300000000 S
   0.9661461000000000    0.2500000000000000    0.7184377500000000 S
   0.4661461000000000    0.2500000000000000    0.7815622500000000 S
   0.0338539000000000    0.7500000000000000    0.2815622500000000 S
   0.5338539000000000    0.7500000000000000    0.2184377500000000 S
   0.7941486400000000    0.2500000000000000    0.1663720100000000 S
   0.2941486400000000    0.2500000000000000    0.3336279900000000 S
   0.2058513600000000    0.7500000000000000    0.8336279900000000 S
   0.7058513600000000    0.7500000000000000    0.6663720100000000 S
   0.8734541500000000    0.2500000000000000    0.4707163200000000 S
   0.3734541500000000    0.2500000000000000    0.0292836800000000 S
   0.1265458500000000    0.7500000000000000    0.5292836800000000 S
   0.6265458500000000    0.7500000000000000    0.9707163200000000 S
