Zn4 Se4 O16
1.0
   8.9774998000000004    0.0000000000000000    0.0000000000000000
   0.0000000000000000    6.6304746999999997    0.0000000000000000
   0.0000000000000000    0.0000000000000000    4.8872914500000002
Zn Se O
4 4 16
direct
   0.0000000000000000    0.0000000000000000    0.0000000000000000 Zn
   0.0000000000000000    0.5000000000000000    0.0000000000000000 Zn
   0.5000000000000000    0.0000000000000000    0.5000000000000000 Zn
   0.5000000000000000    0.5000000000000000    0.5000000000000000 Zn
   0.8194541600000000    0.2500000000000000    0.4688341400000000 Se
   0.6805458400000000    0.7500000000000000    0.9688341400000000 Se
   0.3194541600000000    0.2500000000000000    0.0311658600000000 Se
   0.1805458400000000    0.7500000000000000    0.5311658600000000 Se
   0.8755682500000000    0.0391176900000000    0.3204275000000000 O
   0.8777705400000000    0.2500000000000000    0.7942217900000000 O
   0.8755682500000000    0.4608823100000000    0.3204275000000000 O
   0.8685109200000000    0.7500000000000000    0.9292498700000000 O
   0.6314890800000000    0.2500000000000000    0.4292498700000000 O
   0.6222294600000000    0.7500000000000000    0.2942217900000000 O
   0.6244317500000000    0.9608823100000000    0.8204275000000000 O
   0.6244317500000000    0.5391176900000000    0.8204275000000000 O
   0.3755682500000000    0.0391176900000000    0.1795725000000000 O
   0.3777705400000000    0.2500000000000000    0.7057782100000000 O
   0.3755682500000000    0.4608823100000000    0.1795725000000000 O
   0.3685109200000000    0.7500000000000000    0.5707501300000000 O
   0.1314890800000000    0.2500000000000000    0.0707501300000000 O
   0.1244317500000000    0.5391176900000000    0.6795725000000000 O
   0.1222294600000000    0.7500000000000000    0.2057782100000000 O
   0.1244317500000000    0.9608823100000000    0.6795725000000000 O
