Rb3 N3 O6
1.0
   5.6201035900000003   -0.0000000200000000    0.0000000000000000
  -2.8100513199999999    4.8671521400000000    0.0000000000000000
   0.0000000000000000    0.0000000000000000    7.5233113600000001
Rb N O
3 3 6
direct
   0.0000000000000000    0.6955353800000000    0.6666670000000000 Rb
   0.3044646200000000    0.3044646200000000    0.0000000000000000 Rb
   0.6955353800000000    1.0000000000000000    0.3333330000000000 Rb
   1.0000000000000000    0.6984758000000000    0.1666670000000000 N
   0.3015242000000000    0.3015242000000000    0.5000000000000000 N
   0.6984758000000000    0.0000000000000000    0.8333330000000000 N
   0.1092005500000000    0.6318911699999999    0.2896704400000000 O
   0.5226906100000001    0.8907994500000000    0.9563374400000000 O
   0.3681088300000000    0.4773093900000000    0.6230034400000000 O
   0.4773093900000000    0.3681088300000000    0.3769965600000000 O
   0.6318911699999999    0.1092005500000000    0.7103295600000000 O
   0.8907994500000000    0.5226906100000001    0.0436625600000000 O
