Na4 W4 O14
1.0
   1.9092832500000001  -13.2804603599999993    0.0000000000000000
   1.9092832500000001   13.2804603599999993    0.0000000000000000
   0.0000000000000000    0.0000000000000000    5.4033403800000004
Na W O
4 4 14
direct
   0.7151465299999999    0.2848534700000000    0.4307599200000000 Na
   0.2848534700000000    0.7151465299999999    0.9307599200000000 Na
   0.4466877300000000    0.5533122700000001    0.3879430800000000 Na
   0.5533122700000001    0.4466877300000000    0.8879430800000000 Na
   0.1591387600000000    0.8408612400000000    0.9060043700000000 W
   0.8408612400000000    0.1591387600000000    0.4060043700000000 W
   0.0533851200000000    0.9466148800000000    0.3934361500000000 W
   0.9466148800000000    0.0533851200000000    0.8934361500000000 W
   0.1933428700000000    0.8066571300000001    0.1834557900000000 O
   0.8066571300000001    0.1933428700000000    0.6834557900000000 O
   0.5471474100000000    0.4528525900000000    0.3900928800000000 O
   0.4528525900000000    0.5471474100000000    0.8900928800000000 O
   0.2104900500000000    0.7895099500000000    0.6965690100000000 O
   0.7895099500000000    0.2104900500000000    0.1965690100000000 O
   0.6470417100000000    0.3529582900000000    0.8907013200000000 O
   0.3529582900000000    0.6470417100000000    0.3907013200000000 O
   0.8925063200000000    0.1074936800000000    0.0976769900000000 O
   0.1074936800000000    0.8925063200000000    0.5976769900000000 O
   0.0091720600000000    0.9908279400000000    0.6834670000000000 O
   0.0896205500000000    0.9103794500000000    0.0984134900000000 O
   0.9103794500000000    0.0896205500000000    0.5984134900000000 O
   0.9908279400000000    0.0091720600000000    0.1834670000000000 O
