Cs2 Ga2 S4
1.0
   3.6951315500000002   -6.0221568300000001   -0.0399958700000000
   3.6951315500000002    6.0221568300000001   -0.0399958700000000
  -2.2501193300000000    0.0000000000000000    5.4398419000000002
Cs Ga S
2 2 4
direct
   0.6429108000000000    0.3570892000000000    0.2500000000000000 Cs
   0.3570892000000000    0.6429108000000000    0.7500000000000000 Cs
   0.9962361600000000    0.0037638400000000    0.7500000000000000 Ga
   0.0037638400000000    0.9962361600000000    0.2500000000000000 Ga
   0.7148699200000000    0.9188906500000000    0.4038084000000000 S
   0.0811093500000000    0.2851300800000000    0.0961916000000000 S
   0.9188906500000000    0.7148699200000000    0.9038084000000000 S
   0.2851300800000000    0.0811093500000000    0.5961916000000000 S
