Pb8 O12
1.0
   7.5545755600000000    0.0000000000000000    0.0080248000000000
   0.0000000000000000    5.6679256599999999    0.0000000000000000
  -3.0244407000000000    0.0000000000000000    7.1684767300000001
Pb O
8 12
direct
   0.0921855000000000    0.7545093899999999    0.1171450000000000 Pb
   0.9078145000000000    0.2545093900000000    0.3828550000000000 Pb
   0.9078145000000000    0.2454906100000000    0.8828549999999999 Pb
   0.0921855000000000    0.7454906100000001    0.6171450000000001 Pb
   0.6112846300000000    0.7393185600000000    0.1379283800000000 Pb
   0.3887153700000000    0.2393185600000000    0.3620716200000000 Pb
   0.3887153700000000    0.2606814400000000    0.8620716200000000 Pb
   0.6112846300000000    0.7606814400000000    0.6379283800000000 Pb
   0.3761419100000000    0.6281874100000000    0.2735998600000000 O
   0.6238580900000000    0.1281874100000000    0.2264001400000000 O
   0.6238580900000000    0.3718125900000000    0.7264001400000000 O
   0.3761419100000000    0.8718125900000000    0.7735998600000000 O
   0.8073810800000000    0.9052614900000000    0.9505646900000000 O
   0.1926189200000000    0.4052614900000000    0.5494353100000000 O
   0.1926189200000000    0.0947385100000000    0.0494353100000000 O
   0.8073810800000000    0.5947385100000000    0.4505646900000000 O
   0.9250346800000000    0.4389374900000000    0.1376162300000000 O
   0.0749653200000000    0.9389374900000000    0.3623837700000000 O
   0.0749653200000000    0.5610625100000000    0.8623837700000000 O
   0.9250346800000000    0.0610625100000000    0.6376162300000000 O
