Na6 Sc4 P6 O24
1.0
   7.6798400800000000   -4.4535317200000000    0.0049422900000000
   7.6798400800000000    4.4535317200000000    0.0049422900000000
  -5.0106488200000001    0.0000000000000000    7.5561157999999997
Na Sc P O
6 4 6 24
direct
   0.6647284700000000    0.9594152900000000    0.4373216700000000 Na
   0.9594152900000000    0.6647284700000000    0.9373216700000000 Na
   0.6166907000000000    0.3953691900000000    0.7629713600000000 Na
   0.3953691900000000    0.6166907000000000    0.2629713600000000 Na
   0.2464496600000000    0.0985044400000000    0.6772228900000000 Na
   0.0985044400000000    0.2464496600000000    0.1772228900000000 Na
   0.6515395000000000    0.1458552300000000    0.9426358400000000 Sc
   0.1458552300000000    0.6515395000000000    0.4426358400000000 Sc
   0.3506348000000000    0.8449168200000000    0.0499048900000000 Sc
   0.8449168200000000    0.3506348000000000    0.5499048900000000 Sc
   0.2484008100000000    0.4687367300000000    0.7600626400000000 P
   0.4687367300000000    0.2484008100000000    0.2600626400000000 P
   0.7497269500000000    0.5296696900000000    0.2375131000000000 P
   0.5296696900000000    0.7497269500000000    0.7375131000000000 P
   0.9566413700000000    0.0475070100000000    0.7491984100000000 P
   0.0475070100000000    0.9566413700000000    0.2491984100000000 P
   0.9439268500000000    0.2236705100000000    0.7403075600000000 O
   0.2236705100000000    0.9439268500000000    0.2403075600000000 O
   0.0773539600000000    0.7708285800000000    0.2533172600000000 O
   0.7708285800000000    0.0773539600000000    0.7533172600000000 O
   0.2600713300000000    0.6248801200000000    0.9404040000000000 O
   0.6248801200000000    0.2600713300000000    0.4404040000000000 O
   0.7379207900000000    0.3717295400000000    0.0600996400000000 O
   0.3717295400000000    0.7379207900000000    0.5600996400000000 O
   0.2507151600000000    0.5193196300000000    0.6213651400000000 O
   0.5193196300000000    0.2507151600000000    0.1213651400000000 O
   0.7389585400000001    0.4839256700000000    0.3753742000000000 O
   0.4839256700000000    0.7389585400000001    0.8753742000000000 O
   0.0726032500000000    0.4322868600000000    0.7042990099999999 O
   0.4322868600000000    0.0726032500000000    0.2042990100000000 O
   0.9322473300000000    0.5544964000000000    0.2980122100000000 O
   0.5544964000000000    0.9322473300000000    0.7980122100000000 O
   0.4143720800000000    0.2913028300000000    0.7807316900000000 O
   0.2913028300000000    0.4143720800000000    0.2807316900000000 O
   0.5869106800000000    0.7093400700000000    0.2190576500000000 O
   0.7093400700000000    0.5869106800000000    0.7190576500000000 O
   0.1148988700000000    0.0085360000000000    0.9156919700000000 O
   0.0085360000000000    0.1148988700000000    0.4156919700000000 O
   0.8877816400000000    0.9879376500000000    0.0797078800000000 O
   0.9879376500000000    0.8877816400000000    0.5797078800000000 O
