Nb1 Sb3 P6 O24
1.0
   4.2970855500000003    2.4809239100000000    7.4620929299999998
  -4.2970860200000001    2.4809230900000001    7.4620929299999998
   0.0000004700000000   -4.9618470099999996    7.4620929299999998
Nb Sb P O
1 3 6 24
direct
   0.1379437700000000    0.1379437700000000    0.1379437700000000 Nb
   0.8562112000000000    0.8562112000000000    0.8562112000000000 Sb
   0.6377586800000000    0.6377586800000000    0.6377586800000000 Sb
   0.3525010200000000    0.3525010200000000    0.3525010200000000 Sb
   0.9943116200000000    0.2211121500000000    0.5342218000000000 P
   0.5342218000000000    0.9943116200000000    0.2211121500000000 P
   0.2211121500000000    0.5342218000000000    0.9943116200000000 P
   0.7378524200000000    0.4697945900000000    0.0403714100000000 P
   0.4697945900000000    0.0403714100000000    0.7378524200000000 P
   0.0403714100000000    0.7378524200000000    0.4697945900000000 P
   0.8537728000000000    0.7661748700000000    0.4800831800000000 O
   0.7661748700000000    0.4800831800000000    0.8537728000000000 O
   0.9130703900000000    0.0885124400000000    0.7362725200000000 O
   0.4800831800000000    0.8537728000000000    0.7661748700000000 O
   0.8599507600000000    0.4216442000000000    0.4925455700000000 O
   0.0416948500000000    0.1373744100000000    0.3955083100000000 O
   0.7362725200000000    0.9130703900000000    0.0885124400000000 O
   0.4925455700000000    0.8599507600000000    0.4216442000000000 O
   0.4216442000000000    0.4925455700000000    0.8599507600000000 O
   0.7729283600000000    0.6334472500000000    0.0208886600000000 O
   0.8779861200000000    0.2759664600000000    0.1255472800000000 O
   0.6334472500000000    0.0208886600000000    0.7729283600000000 O
   0.3955083100000000    0.0416948500000000    0.1373744100000000 O
   0.0885124400000000    0.7362725200000000    0.9130703900000000 O
   0.1373744100000000    0.3955083100000000    0.0416948500000000 O
   0.5337013100000000    0.4894890500000000    0.1906288400000000 O
   0.4894890500000000    0.1906288400000000    0.5337013100000000 O
   0.2759664600000000    0.1255472800000000    0.8779861200000000 O
   0.0208886600000000    0.7729283600000000    0.6334472500000000 O
   0.1906288400000000    0.5337013100000000    0.4894890500000000 O
   0.5257673600000000    0.1838123900000000    0.2011519800000000 O
   0.1255472800000000    0.8779861200000000    0.2759664600000000 O
   0.2011519800000000    0.5257673600000000    0.1838123900000000 O
   0.1838123900000000    0.2011519800000000    0.5257673600000000 O
