Rb16 Zn8 O16
1.0
   9.4225665299999992    0.0000000000000000   -0.0134446500000000
   0.0000000000000000    6.2752598700000002    0.0000000000000000
  -7.4365470299999998    0.0000000000000000   13.8180812399999997
Rb Zn O
16 8 16
direct
   0.3216387700000000    0.5829417500000000    0.2395950600000000 Rb
   0.0804252300000000    0.3697581400000000    0.3371104900000000 Rb
   0.9195747700000000    0.6302418600000000    0.6628895100000000 Rb
   0.9195747700000000    0.8697581400000000    0.1628895100000000 Rb
   0.8567360700000000    0.3231771800000000    0.0268230300000000 Rb
   0.6783612300000000    0.4170582500000000    0.7604049400000000 Rb
   0.5678964600000000    0.5669841400000000    0.1202048100000000 Rb
   0.8567360700000000    0.1768228200000000    0.5268230300000000 Rb
   0.4321035400000000    0.0669841400000000    0.3797951900000000 Rb
   0.5678964600000000    0.9330158600000000    0.6202048100000001 Rb
   0.1432639300000000    0.6768228200000000    0.9731769700000000 Rb
   0.6783612300000000    0.0829417500000000    0.2604049400000000 Rb
   0.0804252300000000    0.1302418600000000    0.8371104900000000 Rb
   0.1432639300000000    0.8231771800000000    0.4731769700000000 Rb
   0.4321035400000000    0.4330158600000000    0.8797951899999999 Rb
   0.3216387700000000    0.9170582500000000    0.7395950600000000 Rb
   0.5868649500000001    0.5519345800000000    0.4598315600000000 Zn
   0.7564454300000000    0.8714607800000000    0.8713438900000000 Zn
   0.4131350500000000    0.4480654200000000    0.5401684400000000 Zn
   0.2435545700000000    0.1285392200000000    0.1286561100000000 Zn
   0.7564454300000000    0.6285392200000000    0.3713438900000000 Zn
   0.5868649500000001    0.9480654200000000    0.9598315600000000 Zn
   0.4131350500000000    0.0519345800000000    0.0401684400000000 Zn
   0.2435545700000000    0.3714607800000000    0.6286561100000000 Zn
   0.3666713000000000    0.8706308500000000    0.9280365100000000 O
   0.2613686700000000    0.2207571400000000    0.5285641900000000 O
   0.1420789100000000    0.1932471400000000    0.1980759300000000 O
   0.1420789100000000    0.3067528600000000    0.6980759300000000 O
   0.7386313300000000    0.7207571400000000    0.9714358100000000 O
   0.6183051500000000    0.3991524000000000    0.3590439000000000 O
   0.3816948500000000    0.6008476000000000    0.6409561000000000 O
   0.6333287000000000    0.1293691500000000    0.0719634900000000 O
   0.2613686700000000    0.2792428600000000    0.0285641900000000 O
   0.8579210900000001    0.8067528600000000    0.8019240700000000 O
   0.3816948500000000    0.8991524000000000    0.1409561000000000 O
   0.8579210900000001    0.6932471400000000    0.3019240700000000 O
   0.6183051500000000    0.1008476000000000    0.8590439000000000 O
   0.7386313300000000    0.7792428600000000    0.4714358100000000 O
   0.6333287000000000    0.3706308500000000    0.5719634900000000 O
   0.3666713000000000    0.6293691500000000    0.4280365100000000 O
