Cs2 Sb2 Te2 O12
1.0
  -3.6127730699999998    3.6407567799999998    5.1366246899999997
   3.6127730699999998   -3.6407567799999998    5.1366246899999997
   3.6127730699999998    3.6407567799999998   -5.1366246899999997
Cs Sb Te O
2 2 2 12
direct
   0.3739500300000000    0.6239500300000000    0.7500000000000000 Cs
   0.6260499700000000    0.3760499700000000    0.2500000000000000 Cs
   0.0000000000000000    0.0000000000000000    0.5000000000000000 Sb
   0.0000000000000000    0.5000000000000000    0.0000000000000000 Sb
   0.0000000000000000    0.0000000000000000    0.0000000000000000 Te
   0.5000000000000000    0.0000000000000000    0.5000000000000000 Te
   0.3203400000000000    0.0703400000000000    0.2500000000000000 O
   0.9247720500000000    0.6747720500000000    0.2500000000000000 O
   0.3280524900000000    0.6825603000000000    0.2568261100000000 O
   0.9257341900000000    0.0712273800000000    0.2431738900000000 O
   0.3280524900000000    0.0712273800000000    0.6454931900000000 O
   0.9257341900000000    0.6825603000000000    0.8545068100000000 O
   0.6796600000000000    0.9296600000000000    0.7500000000000000 O
   0.0752279500000000    0.3252279500000000    0.7500000000000000 O
   0.6719475100000000    0.3174397000000000    0.7431738900000000 O
   0.0742658100000000    0.9287726200000000    0.7568261100000000 O
   0.6719475100000000    0.9287726200000000    0.3545068100000000 O
   0.0742658100000000    0.3174397000000000    0.1454931900000000 O
