Be2 O2
1.0
   2.6958009800000000    0.0000000000000000    0.0000000000000000
  -1.3479004900000000    2.3346324300000001    0.0000000000000000
   0.0000000000000000    0.0000000000000000    4.3781266800000003
Be O
2 2
direct
   0.6666670000000000    0.3333330000000000    0.0000289000000000 Be
   0.3333330000000000    0.6666670000000000    0.5000289000000000 Be
   0.6666670000000000    0.3333330000000000    0.6222711000000000 O
   0.3333330000000000    0.6666670000000000    0.1222711000000000 O
