Rb1 In5 S8
1.0
   9.5539567099999996   -1.9337471399999999   -0.0375738900000000
   9.5539567099999996    1.9337471399999999   -0.0375738900000000
  -2.0205520300000002    0.0000000000000000    9.0092649300000005
Rb In S
1 5 8
direct
   0.5000000000000000    0.5000000000000000    0.5000000000000000 Rb
   0.2906449100000000    0.2906449100000000    0.6597340700000000 In
   0.3498057400000000    0.3498057400000000    0.0712379300000000 In
   0.6501942600000000    0.6501942600000000    0.9287620700000000 In
   0.7093550900000000    0.7093550900000000    0.3402659300000000 In
   0.0000000000000000    0.0000000000000000    0.0000000000000000 In
   0.1648606900000000    0.1648606900000000    0.4856697400000000 S
   0.0753569000000000    0.0753569000000000    0.7942588300000000 S
   0.9246431000000001    0.9246431000000001    0.2057411700000000 S
   0.4180644100000000    0.4180644100000000    0.8619188200000000 S
   0.5819355899999999    0.5819355899999999    0.1380811800000000 S
   0.2327096300000000    0.2327096300000000    0.1483853600000000 S
   0.7672903700000000    0.7672903700000000    0.8516146400000000 S
   0.8351393100000000    0.8351393100000000    0.5143302600000000 S
