Na4 Zn4 P4 O16
1.0
   5.1766088300000002    0.0000000000000000    0.0002587000000000
   0.0000000000000000    9.8984432200000008    0.0000000000000000
  -5.1421288900000004    0.0000000000000000    7.2743471199999998
Na Zn P O
4 4 4 16
direct
   0.6981375900000000    0.8812860500000000    0.4817279600000000 Na
   0.6981375900000000    0.6187139500000000    0.9817279600000000 Na
   0.3018624100000000    0.3812860500000000    0.0182720400000000 Na
   0.3018624100000000    0.1187139500000000    0.5182720400000000 Na
   0.1958986100000000    0.8292286400000000    0.9910884900000000 Zn
   0.1958986100000000    0.6707713600000000    0.4910884900000000 Zn
   0.8041013900000000    0.1707713600000000    0.0089115100000000 Zn
   0.8041013900000000    0.3292286400000000    0.5089115100000000 Zn
   0.9193568800000000    0.5979827400000000    0.7174167600000000 P
   0.0806431200000000    0.0979827400000000    0.7825832400000000 P
   0.9193568800000000    0.9020172600000000    0.2174167600000000 P
   0.0806431200000000    0.4020172600000000    0.2825832400000000 P
   0.6072394300000000    0.6274721100000000    0.6975188300000000 O
   0.1965280500000000    0.6454362300000001    0.9144695300000000 O
   0.0824491700000000    0.3262956500000000    0.4341552200000000 O
   0.3927605700000000    0.1274721100000000    0.8024811700000000 O
   0.3927605700000000    0.3725278900000000    0.3024811700000000 O
   0.9175508300000000    0.8262956500000000    0.0658447800000000 O
   0.9730517800000000    0.4447941100000000    0.7147260800000000 O
   0.6072394300000000    0.8725278900000000    0.1975188300000000 O
   0.1965280500000000    0.8545637699999999    0.4144695300000000 O
   0.8034719500000000    0.1454362300000000    0.5855304700000000 O
   0.9730517800000000    0.0552058900000000    0.2147260800000000 O
   0.0824491700000000    0.1737043500000000    0.9341552200000000 O
   0.0269482200000000    0.5552058900000000    0.2852739200000000 O
   0.8034719500000000    0.3545637700000000    0.0855304700000000 O
   0.0269482200000000    0.9447941100000000    0.7852739200000000 O
   0.9175508300000000    0.6737043500000000    0.5658447800000000 O
