La4 Cu4 S8
1.0
   6.5223354300000000    0.0000000000000000   -0.0478787900000000
   0.0000000000000000    7.2177132300000002    0.0000000000000000
  -0.9435995300000000    0.0000000000000000    6.7320283200000004
La Cu S
4 4 8
direct
   0.3098713400000000    0.5540321000000000    0.6981204800000000 La
   0.6901286599999999    0.0540321000000000    0.8018795200000000 La
   0.6901286599999999    0.4459679000000000    0.3018795200000000 La
   0.3098713400000000    0.9459679000000000    0.1981204800000000 La
   0.9224495700000001    0.8404446500000000    0.4418144700000000 Cu
   0.0775504300000000    0.1595553500000000    0.5581855300000000 Cu
   0.9224495700000001    0.6595553500000000    0.9418144700000000 Cu
   0.0775504300000000    0.3404446500000000    0.0581855300000000 Cu
   0.5920782100000000    0.7266819700000000    0.0009429000000000 S
   0.5920782100000000    0.7733180300000000    0.5009429000000000 S
   0.4079217900000000    0.2266819700000000    0.4990571000000000 S
   0.4079217900000000    0.2733180300000000    0.9990571000000000 S
   0.0873189100000000    0.6136666200000001    0.2742131100000000 S
   0.9126810900000000    0.1136666200000000    0.2257868900000000 S
   0.9126810900000000    0.3863333800000000    0.7257868900000000 S
   0.0873189100000000    0.8863333799999999    0.7742131100000000 S
