Sb4 As4 O20
1.0
   4.9352413300000002    0.0000000000000000    0.0000000000000000
   0.0000000000000000    8.8225265999999998    0.0000000000000000
   0.0000000000000000    0.0000000000000000    9.2526637600000008
Sb As O
4 4 20
direct
   0.8827696800000000    0.6526129200000000    0.1025961400000000 Sb
   0.3827696800000000    0.8473870800000000    0.8974038600000001 Sb
   0.1172303200000000    0.1526129200000000    0.3974038600000000 Sb
   0.6172303200000000    0.3473870800000000    0.6025961399999999 Sb
   0.8933862600000000    0.0286631900000000    0.7118075300000000 As
   0.3933862600000000    0.4713368100000000    0.2881924700000000 As
   0.1066137400000000    0.5286631899999999    0.7881924700000000 As
   0.6066137400000000    0.9713368100000001    0.2118075300000000 As
   0.0528264500000000    0.4993670200000000    0.9697983400000000 O
   0.5528264500000000    0.0006329800000000    0.0302016600000000 O
   0.9471735500000000    0.9993670200000000    0.5302016600000000 O
   0.4471735500000000    0.5006329800000000    0.4697983400000000 O
   0.2222932200000000    0.7073045400000000    0.7471888800000001 O
   0.7222932200000000    0.7926954600000000    0.2528111200000000 O
   0.7777067800000000    0.2073045400000000    0.7528111199999999 O
   0.2777067800000000    0.2926954600000000    0.2471888800000000 O
   0.9256150500000000    0.3280965600000000    0.4721649200000000 O
   0.4256150500000000    0.1719034400000000    0.5278350800000000 O
   0.0743849500000000    0.8280965600000000    0.0278350800000000 O
   0.5743849500000000    0.6719034400000000    0.9721649200000000 O
   0.1803118500000000    0.6168008699999999    0.2462299500000000 O
   0.6803118500000001    0.8831991300000001    0.7537700500000000 O
   0.8196881499999999    0.1168008700000000    0.2537700500000000 O
   0.3196881500000000    0.3831991300000000    0.7462299500000000 O
   0.6927636400000000    0.4776429000000000    0.1946112100000000 O
   0.1927636400000000    0.0223571000000000    0.8053887900000000 O
   0.3072363600000000    0.9776429000000000    0.3053887900000000 O
   0.8072363600000000    0.5223571000000000    0.6946112100000000 O
