Tl2 In10 S14
1.0
   9.0715075499999998    0.0000000000000000   -0.0046993200000000
   0.0000000000000000    3.8926286800000001    0.0000000000000000
  -3.6776054199999999    0.0000000000000000   16.9146190400000016
Tl In S
2 10 14
direct
   0.0416258200000000    0.7500000000000000    0.7293311700000000 Tl
   0.9583741800000000    0.2500000000000000    0.2706688300000000 Tl
   0.8546803800000000    0.7500000000000000    0.0445932900000000 In
   0.4725380900000000    0.7500000000000000    0.3968111100000000 In
   0.1453196200000000    0.2500000000000000    0.9554067100000000 In
   0.5513026100000000    0.2500000000000000    0.1133045400000000 In
   0.8265487800000000    0.2500000000000000    0.4663647800000000 In
   0.6798069700000000    0.7500000000000000    0.8059469600000000 In
   0.3201930300000000    0.2500000000000000    0.1940530400000000 In
   0.1734512200000000    0.7500000000000000    0.5336352200000000 In
   0.5274619100000000    0.2500000000000000    0.6031888900000000 In
   0.4486973900000000    0.7500000000000000    0.8866954600000000 In
   0.0362750100000000    0.2500000000000000    0.5908486500000000 S
   0.6702729200000000    0.7500000000000000    0.5311803400000000 S
   0.3407754000000000    0.7500000000000000    0.0122696900000000 S
   0.9457289800000001    0.7500000000000000    0.9090033400000000 S
   0.3297270800000000    0.2500000000000000    0.4688196600000000 S
   0.7525874500000000    0.2500000000000000    0.7253032800000000 S
   0.2658369500000000    0.2500000000000000    0.8317984700000000 S
   0.2474125500000000    0.7500000000000000    0.2746967200000000 S
   0.9637249900000000    0.7500000000000000    0.4091513500000000 S
   0.6097794700000000    0.2500000000000000    0.3436091900000000 S
   0.3902205300000000    0.7500000000000000    0.6563908100000000 S
   0.6592246000000000    0.2500000000000000    0.9877303100000000 S
   0.7341630500000000    0.7500000000000000    0.1682015300000000 S
   0.0542710200000000    0.2500000000000000    0.0909966600000000 S
