Na12 Sb4 S12
1.0
   8.5376058599999993    0.0000000000000000    0.0000000000000000
   0.0000000000000000    8.5376058599999993    0.0000000000000000
   0.0000000000000000    0.0000000000000000    8.5376058599999993
Na Sb S
12 4 12
direct
   0.9243239400000000    0.4243239400000000    0.0756760600000000 Na
   0.4243239400000000    0.0756760600000000    0.9243239400000000 Na
   0.0756760600000000    0.9243239400000000    0.4243239400000000 Na
   0.5756760600000000    0.5756760600000000    0.5756760600000000 Na
   0.1798079400000000    0.6798079400000000    0.8201920600000000 Na
   0.6798079400000000    0.8201920600000000    0.1798079400000000 Na
   0.8201920600000000    0.1798079400000000    0.6798079400000000 Na
   0.3201920600000000    0.3201920600000000    0.3201920600000000 Na
   0.6879905200000000    0.1879905200000000    0.3120094800000000 Na
   0.1879905200000000    0.3120094800000000    0.6879905200000000 Na
   0.3120094800000000    0.6879905200000000    0.1879905200000000 Na
   0.8120094800000000    0.8120094800000000    0.8120094800000000 Na
   0.4607485500000000    0.9607485500000000    0.5392514500000000 Sb
   0.9607485500000000    0.5392514500000000    0.4607485500000000 Sb
   0.5392514500000000    0.4607485500000000    0.9607485500000000 Sb
   0.0392514500000000    0.0392514500000000    0.0392514500000000 Sb
   0.9997655200000000    0.7639043000000000    0.1122330300000000 S
   0.8877669700000000    0.4997655200000000    0.7360957000000000 S
   0.2639043000000000    0.3877669700000000    0.0002344800000000 S
   0.4997655200000000    0.7360957000000000    0.8877669700000000 S
   0.3877669700000000    0.0002344800000000    0.2639043000000000 S
   0.7639043000000000    0.1122330300000000    0.9997655200000000 S
   0.0002344800000000    0.2639043000000000    0.3877669700000000 S
   0.1122330300000000    0.9997655200000000    0.7639043000000000 S
   0.7360957000000000    0.8877669700000000    0.4997655200000000 S
   0.5002344800000000    0.2360957000000000    0.6122330300000000 S
   0.6122330300000000    0.5002344800000000    0.2360957000000000 S
   0.2360957000000000    0.6122330300000000    0.5002344800000000 S
