In2 Ag2 O4
1.0
   3.3076217500000000    0.0000000000000000    0.0000000000000000
  -1.6538108800000000    2.8644843099999999    0.0000000000000000
   0.0000000000000000    0.0000000000000000   12.5780311999999999
In Ag O
2 2 4
direct
   0.0000000000000000    0.0000000000000000    0.5000000000000000 In
   0.0000000000000000    0.0000000000000000    0.0000000000000000 In
   0.3333330000000000    0.6666670000000000    0.2500000000000000 Ag
   0.6666670000000000    0.3333330000000000    0.7500000000000000 Ag
   0.3333330000000000    0.6666670000000000    0.4129752200000000 O
   0.6666670000000000    0.3333330000000000    0.9129752200000000 O
   0.6666670000000000    0.3333330000000000    0.5870247800000000 O
   0.3333330000000000    0.6666670000000000    0.0870247800000000 O
