Ba4 Na4 V4 S16
1.0
   6.3642395799999996    0.0000000000000000    0.0548725200000000
   0.0000000000000000    9.6480598600000000    0.0000000000000000
  -3.8605333700000002    0.0000000000000000   11.1818139300000006
Ba Na V S
4 4 4 16
direct
   0.3790768700000000    0.8859217800000000    0.6569243800000000 Ba
   0.3790768700000000    0.6140782200000000    0.1569243800000000 Ba
   0.6209231300000000    0.1140782200000000    0.3430756200000000 Ba
   0.6209231300000000    0.3859217800000000    0.8430756200000000 Ba
   0.2064131100000000    0.1513610200000000    0.9957559900000000 Na
   0.2064131100000000    0.3486389800000000    0.4957559900000000 Na
   0.7935868900000000    0.8486389800000000    0.0042440100000000 Na
   0.7935868900000000    0.6513610200000000    0.5042440100000000 Na
   0.1178601200000000    0.6173851100000000    0.8121962200000000 V
   0.1178601200000000    0.8826148900000000    0.3121962200000000 V
   0.8821398800000000    0.3826148900000000    0.1878037800000000 V
   0.8821398800000000    0.1173851100000000    0.6878037800000000 V
   0.3191057900000000    0.7857450200000000    0.9091046900000000 S
   0.3191057900000000    0.7142549800000000    0.4091046900000000 S
   0.6808942100000001    0.2142549800000000    0.0908953100000000 S
   0.6808942100000001    0.2857450200000000    0.5908953100000000 S
   0.8253081799999999    0.9355372000000000    0.5783976800000000 S
   0.8253081799999999    0.5644628000000000    0.0783976800000000 S
   0.1746918200000000    0.0644628000000000    0.4216023200000000 S
   0.1746918200000000    0.4355372000000000    0.9216023200000000 S
   0.2166162400000000    0.5707783100000000    0.6573230200000000 S
   0.2166162400000000    0.9292216900000000    0.1573230200000000 S
   0.7833837600000000    0.4292216900000000    0.3426769800000000 S
   0.7833837600000000    0.0707783100000000    0.8426769800000000 S
   0.2266231800000000    0.1690950600000000    0.7376949900000001 S
   0.2266231800000000    0.3309049400000000    0.2376949900000000 S
   0.7733768200000000    0.8309049400000000    0.2623050100000000 S
   0.7733768200000000    0.6690950600000000    0.7623050099999999 S
