Hf2 S2 O2
1.0
   3.5823149100000000    0.0000000000000000    0.0000000000000000
   0.0000000000000000    3.5823149100000000    0.0000000000000000
   0.0000000000000000    0.0000000000000000    6.3938561399999996
Hf S O
2 2 2
direct
   0.5000000000000000    0.0000000000000000    0.1970087600000000 Hf
   0.0000000000000000    0.5000000000000000    0.8029912400000000 Hf
   0.5000000000000000    0.0000000000000000    0.6280756800000000 S
   0.0000000000000000    0.5000000000000000    0.3719243200000000 S
   0.0000000000000000    0.0000000000000000    0.0000000000000000 O
   0.5000000000000000    0.5000000000000000    0.0000000000000000 O
