Ca4 Sc8 O16
1.0
   9.3496656999999992    0.0000000000000000    0.0000000000000000
   0.0000000000000000    3.1160720099999999    0.0000000000000000
   0.0000000000000000    0.0000000000000000   11.0236330299999992
Ca Sc O
4 8 16
direct
   0.7553449200000000    0.7500000000000000    0.3466265700000000 Ca
   0.2446550800000000    0.2500000000000000    0.6533734300000000 Ca
   0.2553449200000000    0.7500000000000000    0.1533734300000000 Ca
   0.7446550800000000    0.2500000000000000    0.8466265700000000 Ca
   0.0798434100000000    0.2500000000000000    0.3932303200000000 Sc
   0.9201565900000001    0.7500000000000000    0.6067696800000000 Sc
   0.5798434099999999    0.2500000000000000    0.1067696800000000 Sc
   0.4201565900000000    0.7500000000000000    0.8932303200000000 Sc
   0.4286859900000000    0.7500000000000000    0.3882490500000000 Sc
   0.5713140100000000    0.2500000000000000    0.6117509500000000 Sc
   0.9286859900000000    0.7500000000000000    0.1117509500000000 Sc
   0.0713140100000000    0.2500000000000000    0.8882490500000000 Sc
   0.0793744400000000    0.2500000000000000    0.0764468700000000 O
   0.9206255600000000    0.7500000000000000    0.9235531300000001 O
   0.5793744400000000    0.2500000000000000    0.4235531300000000 O
   0.4206255600000000    0.7500000000000000    0.5764468699999999 O
   0.9789240200000000    0.2500000000000000    0.7161441800000000 O
   0.0210759800000000    0.7500000000000000    0.2838558200000000 O
   0.4789240200000000    0.2500000000000000    0.7838558200000000 O
   0.5210759800000000    0.7500000000000000    0.2161441800000000 O
   0.3755253200000000    0.2500000000000000    0.0235653900000000 O
   0.6244746799999999    0.7500000000000000    0.9764346100000000 O
   0.8755253200000001    0.2500000000000000    0.4764346100000000 O
   0.1244746800000000    0.7500000000000000    0.5235653900000000 O
   0.2081368900000000    0.7500000000000000    0.8274275500000000 O
   0.7918631100000000    0.2500000000000000    0.1725724500000000 O
   0.7081368900000000    0.7500000000000000    0.6725724500000000 O
   0.2918631100000000    0.2500000000000000    0.3274275500000000 O
