Ba3 Ta6 Si4 O26
1.0
   9.0510392700000004    0.0000000000000000    0.0000000000000000
  -4.5255201300000003    7.8384301499999998    0.0000000000000000
   0.0000000000000000    0.0000000000000000    7.7668447000000000
Ba Ta Si O
3 6 4 26
direct
   0.3949451600000000    0.3949451600000000    0.5000000000000000 Ba
   1.0000000000000000    0.6050548400000000    0.5000000000000000 Ba
   0.6050548400000000    1.0000000000000000    0.5000000000000000 Ba
   0.0000000000000000    0.2388561900000000    0.7551978800000000 Ta
   0.7611438100000000    0.7611438100000000    0.7551978800000000 Ta
   0.2388561900000000    0.0000000000000000    0.2448021200000000 Ta
   0.7611438100000000    0.7611438100000000    0.2448021200000000 Ta
   0.2388561900000000    0.0000000000000000    0.7551978800000000 Ta
   0.0000000000000000    0.2388561900000000    0.2448021200000000 Ta
   0.6666670000000000    0.3333330000000000    0.2070913500000000 Si
   0.6666670000000000    0.3333330000000000    0.7929086500000000 Si
   0.3333330000000000    0.6666670000000000    0.7929086500000000 Si
   0.3333330000000000    0.6666670000000000    0.2070913500000000 Si
   0.0000000000000000    0.2242817600000000    0.5000000000000000 O
   0.7757182400000000    0.7757182400000000    0.5000000000000000 O
   0.2242817600000000    0.0000000000000000    0.5000000000000000 O
   0.5117236900000000    0.6929702300000000    0.2865642400000000 O
   0.3070297700000000    0.8187544600000000    0.2865642400000000 O
   0.1812455400000000    0.4882763100000000    0.2865642400000000 O
   0.4882763100000000    0.1812455400000000    0.7134357600000000 O
   0.1812455400000000    0.4882763100000000    0.7134357600000000 O
   0.5117236900000000    0.6929702300000000    0.7134357600000000 O
   0.3070297700000000    0.8187544600000000    0.7134357600000000 O
   0.6929702300000000    0.5117236900000000    0.2865642400000000 O
   0.8187544600000000    0.3070297700000000    0.2865642400000000 O
   0.8187544600000000    0.3070297700000000    0.7134357600000000 O
   0.3333330000000000    0.6666670000000000    0.0000000000000000 O
   0.6666670000000000    0.3333330000000000    0.0000000000000000 O
   0.2786835200000000    1.0000000000000000    0.0000000000000000 O
   0.7213164800000000    0.7213164800000000    0.0000000000000000 O
   1.0000000000000000    0.2786835200000000    0.0000000000000000 O
   0.8188283300000000    0.0000000000000000    0.2325117300000000 O
   0.1811716700000000    0.1811716700000000    0.7674882700000000 O
   0.0000000000000000    0.8188283300000000    0.7674882700000000 O
   0.0000000000000000    0.8188283300000000    0.2325117300000000 O
   0.1811716700000000    0.1811716700000000    0.2325117300000000 O
   0.8188283300000000    0.0000000000000000    0.7674882700000000 O
   0.4882763100000000    0.1812455400000000    0.2865642400000000 O
   0.6929702300000000    0.5117236900000000    0.7134357600000000 O
