Li4 Si2 O6
1.0
   4.6999261600000004   -2.6937972200000000    0.0000000000000000
   4.6999261600000004    2.6937972200000000    0.0000000000000000
   0.0000000000000000    0.0000000000000000    4.6710589300000001
Li Si O
4 2 6
direct
   0.8302756300000000    0.5176313400000000    0.4952618000000000 Li
   0.1697243700000000    0.4823686600000000    0.9952618000000000 Li
   0.5176313400000000    0.8302756300000000    0.9952618000000000 Li
   0.4823686600000000    0.1697243700000000    0.4952618000000000 Li
   0.8278644800000000    0.1721355200000000    0.9987733800000000 Si
   0.1721355200000000    0.8278644800000000    0.4987733800000000 Si
   0.8833463900000000    0.1166536100000000    0.6424018400000000 O
   0.5441737700000000    0.1644795500000000    0.0817515900000000 O
   0.8355204500000000    0.4558262300000000    0.0817515900000000 O
   0.1166536100000000    0.8833463900000000    0.1424018400000000 O
   0.1644795500000000    0.5441737700000000    0.5817515900000000 O
   0.4558262300000000    0.8355204500000000    0.5817515900000000 O
