Na4 Te4 O14
1.0
  -3.6393144500000001    5.0757962200000000    3.7263647500000001
   3.6393144500000001   -5.0757962200000000    3.7263647500000001
   3.6393144500000001    5.0757962200000000   -3.7263647500000001
Na Te O
4 4 14
direct
   0.5000000000000000    0.5000000000000000    0.0000000000000000 Na
   0.0000000000000000    0.5000000000000000    0.5000000000000000 Na
   0.0000000000000000    0.5000000000000000    0.0000000000000000 Na
   0.0000000000000000    0.0000000000000000    0.5000000000000000 Na
   0.0000000000000000    0.0000000000000000    0.0000000000000000 Te
   0.5000000000000000    0.0000000000000000    0.5000000000000000 Te
   0.5000000000000000    0.0000000000000000    0.0000000000000000 Te
   0.5000000000000000    0.5000000000000000    0.5000000000000000 Te
   0.1864098900000000    0.8567296100000000    0.9117224700000000 O
   0.8135901100000000    0.7253125800000000    0.6703197300000000 O
   0.4450071500000000    0.2746874200000000    0.5882775300000000 O
   0.5549928500000000    0.1432703900000000    0.8296802700000000 O
   0.8135901100000000    0.1432703900000000    0.0882775300000000 O
   0.1864098900000000    0.2746874200000000    0.3296802700000000 O
   0.5549928500000000    0.7253125800000000    0.4117224700000000 O
   0.4450071500000000    0.8567296100000000    0.1703197300000000 O
   0.4066203900000000    0.6566203900000001    0.7500000000000000 O
   0.5933796099999999    0.3433796100000000    0.2500000000000000 O
   0.1394301100000000    0.2209283800000000    0.9185017200000000 O
   0.8605698899999999    0.7790716200000000    0.0814982800000000 O
   0.8024266600000000    0.2209283800000000    0.5814982800000000 O
   0.1975733400000000    0.7790716200000000    0.4185017200000000 O
