Sr2 B8 O14
1.0
  10.7287737399999994    0.0000000000000000    0.0000000000000000
   0.0000000000000000    4.4267799700000001    0.0000000000000000
   0.0000000000000000    0.0000000000000000    4.2356926499999998
Sr B O
2 8 14
direct
   0.5000000000000000    0.2878903100000000    0.5018994600000000 Sr
   0.0000000000000000    0.7121096900000000    0.0018994600000000 Sr
   0.2490092400000000    0.3223479600000000    0.0068024000000000 B
   0.2509907600000000    0.6776520400000000    0.5068024000000000 B
   0.3784903700000000    0.8254700200000000    0.0299343100000000 B
   0.1215096300000000    0.1745299800000000    0.5299343100000000 B
   0.8784903700000000    0.1745299800000000    0.5299343100000000 B
   0.6215096300000000    0.8254700200000000    0.0299343100000000 B
   0.7490092400000000    0.6776520400000000    0.5068024000000000 B
   0.7509907600000000    0.3223479600000000    0.0068024000000000 B
   0.3591826800000000    0.1437555900000000    0.9585952599999999 O
   0.8650694700000000    0.2270985900000000    0.8676195200000000 O
   0.6349305300000000    0.7729014100000000    0.3676195200000000 O
   0.3650694700000000    0.7729014100000000    0.3676195200000000 O
   0.7774290800000000    0.3672537500000000    0.3637448900000000 O
   0.7225709200000000    0.6327462500000000    0.8637448900000000 O
   0.2774290800000000    0.6327462500000000    0.8637448900000000 O
   0.2225709200000000    0.3672537500000000    0.3637448900000000 O
   0.8591826800000000    0.8562444100000000    0.4585952600000000 O
   0.6408173200000000    0.1437555900000000    0.9585952599999999 O
   0.5000000000000000    0.7258984900000000    0.9227047800000000 O
   0.0000000000000000    0.2741015100000000    0.4227047800000000 O
   0.1349305300000000    0.2270985900000000    0.8676195200000000 O
   0.1408173200000000    0.8562444100000000    0.4585952600000000 O
