Ga4 S6
1.0
   5.5477088999999999   -3.1919190099999999   -0.0161441100000000
   5.5477088999999999    3.1919190099999999   -0.0161441100000000
  -3.5868957400000001    0.0000000000000000    6.0021437999999998
Ga S
4 6
direct
   0.2691172800000000    0.1360529500000000    0.6194275800000000 Ga
   0.1360529500000000    0.2691172800000000    0.1194275800000000 Ga
   0.6403779100000000    0.4468321600000000    0.6283328600000000 Ga
   0.4468321600000000    0.6403779100000000    0.1283328600000000 Ga
   0.2436437000000000    0.4378030400000000    0.5053343900000000 S
   0.4378030400000000    0.2436437000000000    0.0053343900000000 S
   0.5941607500000000    0.7616088100000000    0.5133627700000000 S
   0.7616088100000000    0.5941607500000000    0.0133627700000000 S
   0.0829065200000000    0.9094948899999999    0.9825423900000000 S
   0.9094948899999999    0.0829065200000000    0.4825423900000000 S
