Na2 Sb2 O6
1.0
   2.6621995400000000    1.5370218400000000    5.2678976799999999
  -2.6621995300000001    1.5370218600000001    5.2678976799999999
  -0.0000000100000000   -3.0740427299999999    5.2678976799999999
Na Sb O
2 2 6
direct
   0.3613097400000000    0.3613097400000000    0.3613097400000000 Na
   0.6386902600000000    0.6386902600000000    0.6386902600000000 Na
   0.1604283800000000    0.1604283800000000    0.1604283800000000 Sb
   0.8395716200000000    0.8395716200000000    0.8395716200000000 Sb
   0.0403729100000000    0.8048704000000000    0.4395826900000000 O
   0.8048704000000000    0.4395826900000000    0.0403729100000000 O
   0.4395826900000000    0.0403729100000000    0.8048704000000000 O
   0.9596270900000000    0.1951296000000000    0.5604173099999999 O
   0.5604173099999999    0.9596270900000000    0.1951296000000000 O
   0.1951296000000000    0.5604173099999999    0.9596270900000000 O
