Ba3 In2 Mo1 O9
1.0
   5.9191840899999999   -0.0000000000000000    0.0000000000000000
  -2.9595925400000000    5.1261637799999997    0.0000000000000000
   0.0000000000000000    0.0000000000000000    7.2359225599999997
Ba In Mo O
3 2 1 9
direct
   0.0000000000000000    0.0000000000000000    0.5000000000000000 Ba
   0.6666670000000000    0.3333330000000000    0.8096284700000000 Ba
   0.3333330000000000    0.6666670000000000    0.1903715300000000 Ba
   0.6666670000000000    0.3333330000000000    0.3288865200000000 In
   0.3333330000000000    0.6666670000000000    0.6711134800000000 In
   0.0000000000000000    0.0000000000000000    0.0000000000000000 Mo
   0.6896269400000000    0.8448134700000000    0.8475328200000000 O
   0.3103730600000000    0.1551865300000000    0.1524671800000000 O
   0.0000000000000000    0.5000000000000000    0.5000000000000000 O
   0.5000000000000000    0.0000000000000000    0.5000000000000000 O
   0.1551865300000000    0.3103730600000000    0.8475328200000000 O
   0.8448134700000000    0.6896269400000000    0.1524671800000000 O
   0.5000000000000000    0.5000000000000000    0.5000000000000000 O
   0.1551865300000000    0.8448134700000000    0.8475328200000000 O
   0.8448134700000000    0.1551865300000000    0.1524671800000000 O
