Na10 In2 S8
1.0
   6.6911201000000000    0.0000000000000000   -0.0089591100000000
   0.0000000000000000    8.7221522500000006    0.0000000000000000
  -0.1443248800000000    0.0000000000000000    7.7976801800000004
Na In S
10 2 8
direct
   0.3425467900000000    0.4809027700000000    0.3347973700000000 Na
   0.6574532100000000    0.9809027700000000    0.6652026300000000 Na
   0.6574532100000000    0.5190972300000000    0.6652026300000000 Na
   0.3425467900000000    0.0190972300000000    0.3347973700000000 Na
   0.0245487900000000    0.7500000000000000    0.4734174700000000 Na
   0.9754512100000000    0.2500000000000000    0.5265825300000000 Na
   0.3304467200000000    0.7500000000000000    0.8394225100000000 Na
   0.6695532800000000    0.2500000000000000    0.1605774900000000 Na
   0.0000000000000000    0.0000000000000000    0.0000000000000000 Na
   0.0000000000000000    0.5000000000000000    0.0000000000000000 Na
   0.3607578100000000    0.2500000000000000    0.8239809200000000 In
   0.6392421900000000    0.7500000000000000    0.1760190800000000 In
   0.2370574400000000    0.2500000000000000    0.1230560400000000 S
   0.7629425600000000    0.7500000000000000    0.8769439600000000 S
   0.7694113100000000    0.9834226200000000    0.3300333700000000 S
   0.2305886900000000    0.4834226200000000    0.6699666300000000 S
   0.2305886900000000    0.0165773800000000    0.6699666300000000 S
   0.7694113100000000    0.5165773800000000    0.3300333700000000 S
   0.2649832200000000    0.7500000000000000    0.1773824100000000 S
   0.7350167800000000    0.2500000000000000    0.8226175900000000 S
