Cu4 Si2 S6
1.0
   3.1322741000000001   -5.5163711099999997    0.0098285100000000
   3.1322741000000001    5.5163711099999997    0.0098285100000000
  -1.9750159199999999    0.0000000000000000    5.9194457700000003
Cu Si S
4 2 6
direct
   0.2350333700000000    0.7447767800000000    0.4977886600000000 Cu
   0.7447767800000000    0.2350333700000000    0.9977886600000000 Cu
   0.5818616599999999    0.4067092800000000    0.4976699600000000 Cu
   0.4067092800000000    0.5818616599999999    0.9976699600000000 Cu
   0.8845238500000000    0.0546501100000000    0.4751840500000000 Si
   0.0546501100000000    0.8845238500000000    0.9751840500000000 Si
   0.7018298600000000    0.5333718800000000    0.8793105600000000 S
   0.5333718800000000    0.7018298600000000    0.3793105600000000 S
   0.8702701100000000    0.3496183700000000    0.3768023700000000 S
   0.3496183700000000    0.8702701100000000    0.8768023700000001 S
   0.0303510500000000    0.1828026800000000    0.8517443900000000 S
   0.1828026800000000    0.0303510500000000    0.3517443900000000 S
