Ca4 Ga8 O16
1.0
   9.1055965299999997    0.0000000000000000    0.0000000000000000
   0.0000000000000000    2.9937940500000000    0.0000000000000000
   0.0000000000000000    0.0000000000000000   10.5601423499999996
Ca Ga O
4 8 16
direct
   0.7573492200000000    0.7500000000000000    0.3456171600000000 Ca
   0.2426507800000000    0.2500000000000000    0.6543828400000000 Ca
   0.2573492200000000    0.7500000000000000    0.1543828400000000 Ca
   0.7426507800000000    0.2500000000000000    0.8456171600000000 Ca
   0.0649296700000000    0.2500000000000000    0.8883651100000000 Ga
   0.9350703299999999    0.7500000000000000    0.1116348900000000 Ga
   0.5649296700000001    0.2500000000000000    0.6116348900000000 Ga
   0.4350703300000000    0.7500000000000000    0.3883651100000000 Ga
   0.4177185200000000    0.7500000000000000    0.8955890200000000 Ga
   0.5822814800000000    0.2500000000000000    0.1044109800000000 Ga
   0.9177185200000000    0.7500000000000000    0.6044109800000000 Ga
   0.0822814800000000    0.2500000000000000    0.3955890200000000 Ga
   0.0828541800000000    0.2500000000000000    0.0723691200000000 O
   0.9171458200000000    0.7500000000000000    0.9276308800000000 O
   0.5828541800000000    0.2500000000000000    0.4276308800000000 O
   0.4171458200000000    0.7500000000000000    0.5723691200000000 O
   0.9728903100000000    0.2500000000000000    0.7165870000000000 O
   0.0271096900000000    0.7500000000000000    0.2834130000000000 O
   0.4728903100000000    0.2500000000000000    0.7834130000000000 O
   0.5271096900000000    0.7500000000000000    0.2165870000000000 O
   0.3815345800000000    0.2500000000000000    0.0228900600000000 O
   0.6184654200000000    0.7500000000000000    0.9771099400000000 O
   0.8815345800000000    0.2500000000000000    0.4771099400000000 O
   0.1184654200000000    0.7500000000000000    0.5228900600000000 O
   0.2043703600000000    0.7500000000000000    0.8376308700000000 O
   0.7956296400000000    0.2500000000000000    0.1623691300000000 O
   0.7043703600000000    0.7500000000000000    0.6623691300000000 O
   0.2956296400000000    0.2500000000000000    0.3376308700000000 O
