Ca2 B8 O14
1.0
  10.5992279200000006    0.0000000000000000    0.0000000000000000
   0.0000000000000000    4.3658625600000001    0.0000000000000000
   0.0000000000000000    0.0000000000000000    4.1901201900000000
Ca B O
2 8 14
direct
   0.5000000000000000    0.8069495500000000    0.5939134400000000 Ca
   0.0000000000000000    0.1930504500000000    0.0939134400000000 Ca
   0.2506398000000000    0.1777683600000000    0.6138387199999999 B
   0.2493602000000000    0.8222316400000000    0.1138387200000000 B
   0.1204535100000000    0.6733089500000000    0.5920340700000000 B
   0.3795464900000000    0.3266910500000000    0.0920340700000000 B
   0.6204535100000000    0.3266910500000000    0.0920340700000000 B
   0.8795464900000000    0.6733089500000000    0.5920340700000000 B
   0.7506398000000000    0.8222316400000000    0.1138387200000000 B
   0.7493602000000000    0.1777683600000000    0.6138387199999999 B
   0.6373222400000000    0.6485610000000001    0.1696571000000000 O
   0.1373222400000000    0.3514390000000000    0.6696571000000000 O
   0.3626777600000000    0.6485610000000001    0.1696571000000000 O
   0.6331236900000000    0.2766359000000000    0.7502821300000000 O
   0.3668763100000000    0.2766359000000000    0.7502821300000000 O
   0.1331236900000000    0.7233641000000000    0.2502821300000000 O
   0.0000000000000000    0.7845759300000000    0.7032429000000000 O
   0.5000000000000000    0.2154240700000000    0.2032429000000000 O
   0.2252235900000000    0.8621438800000000    0.7545093100000000 O
   0.2747764100000000    0.1378561200000000    0.2545093100000000 O
   0.7252235900000000    0.1378561200000000    0.2545093100000000 O
   0.7747764100000000    0.8621438800000000    0.7545093100000000 O
   0.8668763100000000    0.7233641000000000    0.2502821300000000 O
   0.8626777600000000    0.3514390000000000    0.6696571000000000 O
