Rb16 Ge4 O16
1.0
  10.9345560200000005    0.0000000000000000   -0.0095932200000000
   0.0000000000000000    6.8163605599999997    0.0000000000000000
  -4.0470968699999998    0.0000000000000000   10.0845779600000007
Rb Ge O
16 4 16
direct
   0.9229625900000000    0.3123875000000000    0.2931221200000000 Rb
   0.0770374100000000    0.8123875000000000    0.2068778800000000 Rb
   0.0770374100000000    0.6876125000000000    0.7068778800000000 Rb
   0.9229625900000000    0.1876125000000000    0.7931221200000000 Rb
   0.5631378300000000    0.0878160800000000    0.2001673300000000 Rb
   0.4368621700000000    0.5878160800000000    0.2998326700000000 Rb
   0.4368621700000000    0.9121839200000000    0.7998326700000000 Rb
   0.5631378300000000    0.4121839200000000    0.7001673300000000 Rb
   0.8702363000000000    0.8304223700000000    0.3899902900000000 Rb
   0.1297637000000000    0.3304223700000000    0.1100097100000000 Rb
   0.1297637000000000    0.1695776300000000    0.6100097100000000 Rb
   0.8702363000000000    0.6695776300000000    0.8899902900000000 Rb
   0.3414224300000000    0.1106188600000000    0.4187543600000000 Rb
   0.6585775699999999    0.6106188600000000    0.0812456400000000 Rb
   0.6585775699999999    0.8893811400000000    0.5812456400000000 Rb
   0.3414224300000000    0.3893811400000000    0.9187543600000000 Rb
   0.7402058100000000    0.1302155200000000    0.9891955099999999 Ge
   0.2597941900000000    0.6302155200000000    0.5108044900000001 Ge
   0.2597941900000000    0.8697844800000000    0.0108044900000000 Ge
   0.7402058100000000    0.3697844800000000    0.4891955100000000 Ge
   0.7175004699999999    0.9959815900000000    0.8387882600000000 O
   0.2824995300000000    0.4959815900000000    0.6612117400000000 O
   0.2824995300000000    0.0040184100000000    0.1612117400000000 O
   0.7175004699999999    0.5040184100000000    0.3387882600000000 O
   0.5829507000000000    0.2645190600000000    0.4704856500000000 O
   0.4170493000000000    0.7645190600000000    0.0295143500000000 O
   0.4170493000000000    0.7354809400000000    0.5295143500000000 O
   0.5829507000000000    0.2354809400000000    0.9704856500000000 O
   0.8044113400000000    0.9721312800000000    0.1339059300000000 O
   0.1955886600000000    0.4721312800000000    0.3660940700000000 O
   0.1955886600000000    0.0278687200000000    0.8660940700000000 O
   0.8044113400000000    0.5278687200000000    0.6339059300000000 O
   0.8565578900000000    0.3296080000000000    0.0109591600000000 O
   0.1434421100000000    0.8296080000000000    0.4890408400000000 O
   0.1434421100000000    0.6703920000000000    0.9890408400000000 O
   0.8565578900000000    0.1703920000000000    0.5109591600000000 O
