Hg4 Mo4 O14
1.0
   7.1486732899999996    0.0401262300000000    0.0726446700000000
   2.9914637599999998    6.5389542499999997    0.0093642300000000
   3.3072821000000001    2.4089552400000001    7.0589990399999998
Hg Mo O
4 4 14
direct
   0.1802511600000000    0.3237846700000000    0.3701270400000000 Hg
   0.3766450200000000    0.1716745000000000    0.6216245400000000 Hg
   0.8197488400000000    0.6762153300000000    0.6298729600000000 Hg
   0.6233549800000000    0.8283255000000000    0.3783754600000000 Hg
   0.8157524200000000    0.3686922600000000    0.1340527600000000 Mo
   0.1842475800000000    0.6313077400000000    0.8659472400000000 Mo
   0.6933764100000001    0.1263104400000000    0.8794240800000001 Mo
   0.3066235900000000    0.8736895600000000    0.1205759200000000 Mo
   0.5406392400000000    0.9904679800000000    0.8363756700000000 O
   0.2338231200000000    0.8189993000000000    0.6404237200000000 O
   0.4593607600000000    0.0095320200000000    0.1636243300000000 O
   0.7018541800000000    0.2898047100000000    0.0076346000000000 O
   0.1747781800000000    0.7516633000000000    0.3526412100000000 O
   0.7661768799999999    0.1810007000000000    0.3595762800000000 O
   0.9717537000000001    0.5458210200000000    0.8458145200000000 O
   0.5937679200000000    0.6031172800000000    0.1620431500000000 O
   0.0282463000000000    0.4541789800000000    0.1541854800000000 O
   0.2981458200000000    0.7101952900000000    0.9923654000000000 O
   0.0998552300000000    0.1127297800000000    0.0500259800000000 O
   0.4062320800000000    0.3968827200000000    0.8379568500000000 O
   0.9001447700000000    0.8872702200000000    0.9499740200000000 O
   0.8252218200000000    0.2483367000000000    0.6473587900000000 O
