Ca4 Te4 O16
1.0
   5.2209401800000004    0.0000000000000000    0.0000000000000000
   0.0000000000000000   12.6694413400000006    0.0000000000000000
   0.0000000000000000    0.0000000000000000    5.0145188500000000
Ca Te O
4 4 16
direct
   0.0000000000000000    0.6700036000000000    0.7500000000000000 Ca
   0.5000000000000000    0.8299964000000000    0.2500000000000000 Ca
   0.0000000000000000    0.3299964000000000    0.2500000000000000 Ca
   0.5000000000000000    0.1700036000000000    0.7500000000000000 Ca
   0.5000000000000000    0.4274119700000000    0.7500000000000000 Te
   0.0000000000000000    0.0725880300000000    0.2500000000000000 Te
   0.5000000000000000    0.5725880300000000    0.2500000000000000 Te
   0.0000000000000000    0.9274119700000000    0.7500000000000000 Te
   0.2787877800000000    0.6746786700000000    0.1146273000000000 O
   0.2212122200000000    0.8253213300000000    0.6146273000000000 O
   0.7787877800000000    0.8253213300000000    0.8853727000000000 O
   0.7212122200000000    0.6746786700000000    0.3853727000000000 O
   0.7212122200000000    0.3253213300000000    0.8853727000000000 O
   0.7787877800000000    0.1746786700000000    0.3853727000000000 O
   0.2212122200000000    0.1746786700000000    0.1146273000000000 O
   0.2787877800000000    0.3253213300000000    0.6146273000000000 O
   0.2949288500000000    0.5442177300000000    0.5726907500000000 O
   0.2050711500000000    0.9557822700000000    0.0726907500000000 O
   0.7949288500000000    0.9557822700000000    0.4273092500000000 O
   0.7050711500000000    0.5442177300000000    0.9273092500000000 O
   0.7050711500000000    0.4557822700000000    0.4273092500000000 O
   0.7949288500000000    0.0442177300000000    0.9273092500000000 O
   0.2050711500000000    0.0442177300000000    0.5726907500000000 O
   0.2949288500000000    0.4557822700000000    0.0726907500000000 O
