La3 Ti1 Ga5 O14
1.0
   8.2088756800000002    0.0000000000000000    0.0000000000000000
  -4.1044383399999997    7.1090950900000003    0.0000000000000000
   0.0000000000000000    0.0000000000000000    5.1054916900000000
La Ti Ga O
3 1 5 14
direct
   0.5766322800000000    0.0000000000000000    0.0000000000000000 La
   0.0000000000000000    0.5766322800000000    0.0000000000000000 La
   0.4233677200000000    0.4233677200000000    0.0000000000000000 La
   0.0000000000000000    0.0000000000000000    0.0000000000000000 Ti
   0.3333330000000000    0.6666670000000000    0.5315419400000000 Ga
   0.6666670000000000    0.3333330000000000    0.4684580600000000 Ga
   0.2398411500000000    1.0000000000000000    0.5000000000000000 Ga
   0.0000000000000000    0.2398411500000000    0.5000000000000000 Ga
   0.7601588500000001    0.7601588500000001    0.5000000000000000 Ga
   0.1439830000000000    0.2195702100000000    0.2373763500000000 O
   0.7804297900000000    0.9244137900000000    0.2373763500000000 O
   0.2195702100000000    0.1439830000000000    0.7626236500000000 O
   0.0755862100000000    0.8560170000000000    0.2373763500000000 O
   0.9244137900000000    0.7804297900000000    0.7626236500000000 O
   0.8560170000000000    0.0755862100000000    0.7626236500000000 O
   0.3333330000000000    0.6666670000000000    0.1775410400000000 O
   0.6666670000000000    0.3333330000000000    0.8224589600000000 O
   0.4559333500000000    0.1462395900000000    0.2999087300000000 O
   0.8537604100000000    0.3096927600000000    0.2999087300000000 O
   0.1462395900000000    0.4559333500000000    0.7000912700000000 O
   0.6903072400000000    0.5440666500000000    0.2999087300000000 O
   0.3096927600000000    0.8537604100000000    0.7000912700000000 O
   0.5440666500000000    0.6903072400000000    0.7000912700000000 O
