Bi4 B4 Pb4 O16
1.0
   7.5589741100000003    0.0000000000000000    0.0065404500000000
   0.0000000000000000    7.3314606199999997    0.0000000000000000
  -7.1469686100000001    0.0000000000000000    7.6450372599999996
Bi B Pb O
4 4 4 16
direct
   0.1819415100000000    0.0019240900000000    0.3436457900000000 Bi
   0.1819415100000000    0.4980759100000000    0.8436457900000000 Bi
   0.8180584900000000    0.9980759100000000    0.6563542100000000 Bi
   0.8180584900000000    0.5019240900000000    0.1563542100000000 Bi
   0.0026800800000000    0.2450540700000000    0.0126209800000000 B
   0.9973199200000000    0.7549459300000000    0.9873790200000000 B
   0.0026800800000000    0.2549459300000000    0.5126209800000000 B
   0.9973199200000000    0.7450540700000000    0.4873790200000000 B
   0.5055461400000000    0.9003028100000000    0.8167426300000000 Pb
   0.5055461400000000    0.5996971900000000    0.3167426300000000 Pb
   0.4944538600000000    0.4003028100000000    0.6832573700000000 Pb
   0.4944538600000000    0.0996971900000000    0.1832573700000000 Pb
   0.4961680500000000    0.9010049800000000    0.3902079200000000 O
   0.2112754900000000    0.7891086500000000    0.5308095800000000 O
   0.5038319500000000    0.4010049800000000    0.1097920800000000 O
   0.2112754900000000    0.7108913500000000    0.0308095800000000 O
   0.7889321600000000    0.7136970600000000    0.3127829100000000 O
   0.0156189000000000    0.2672028500000000    0.3880956800000000 O
   0.9843811000000000    0.7672028500000000    0.1119043200000000 O
   0.5038319500000000    0.0989950200000000    0.6097920800000000 O
   0.7887245100000000    0.2891086500000000    0.9691904200000000 O
   0.7887245100000000    0.2108913500000000    0.4691904200000000 O
   0.0156189000000000    0.2327971500000000    0.8880956800000001 O
   0.2110678400000000    0.2136970600000000    0.1872170900000000 O
   0.2110678400000000    0.2863029400000000    0.6872170900000000 O
   0.9843811000000000    0.7327971500000000    0.6119043199999999 O
   0.7889321600000000    0.7863029400000000    0.8127829100000000 O
   0.4961680500000000    0.5989950200000000    0.8902079200000000 O
