Na2 Ca2 V2 O8
1.0
   2.9357604400000001   -4.6296641100000002    0.0000000000000000
   2.9357604400000001    4.6296641100000002    0.0000000000000000
   0.0000000000000000    0.0000000000000000    7.0723641400000004
Na Ca V O
2 2 2 8
direct
   0.1773683500000000    0.8226316500000000    0.7500000000000000 Na
   0.8226316500000000    0.1773683500000000    0.2500000000000000 Na
   0.5000000000000000    0.5000000000000000    0.5000000000000000 Ca
   0.5000000000000000    0.5000000000000000    0.0000000000000000 Ca
   0.8526833200000000    0.1473166800000000    0.7500000000000000 V
   0.1473166800000000    0.8526833200000000    0.2500000000000000 V
   0.2543816800000000    0.7456183199999999    0.0545011700000000 O
   0.7456183199999999    0.2543816800000000    0.5545011700000000 O
   0.7456183199999999    0.2543816800000000    0.9454988300000000 O
   0.2543816800000000    0.7456183199999999    0.4454988300000000 O
   0.2059193000000000    0.2765729100000000    0.7500000000000000 O
   0.7940807000000000    0.7234270900000001    0.2500000000000000 O
   0.7234270900000001    0.7940807000000000    0.7500000000000000 O
   0.2765729100000000    0.2059193000000000    0.2500000000000000 O
