Tl9 Sb1 Se6
1.0
  -4.1511426900000004    4.1511432299999997    6.3057776199999998
   4.1511426900000004   -4.1511432299999997    6.3057776199999998
   4.1511432299999997    4.1511426900000004   -6.3057776199999998
Tl Sb Se
9 1 6
direct
   0.9932555000000000    0.4941403900000000    0.7990972500000000 Tl
   0.8058407500000000    0.0067445000000000    0.5008838900000000 Tl
   0.0000000000000000    0.0000000000000000    0.0000000000000000 Tl
   0.6950431400000000    0.1941592500000000    0.2009027500000000 Tl
   0.5058596100000000    0.3049568600000000    0.4991161100000000 Tl
   0.4941403900000000    0.6950431400000000    0.5008838900000000 Tl
   0.3049568600000000    0.8058407500000000    0.7990972500000000 Tl
   0.1941592500000000    0.9932555000000000    0.4991161100000000 Tl
   0.0067445000000000    0.5058596100000000    0.2009027500000000 Tl
   0.5000000000000000    0.5000000000000000    0.0000000000000000 Sb
   0.7302231300000001    0.7302231300000001    0.0000000000000000 Se
   0.8219165700000000    0.6441020900000000    0.4660186600000000 Se
   0.6441020900000000    0.1780834300000000    0.8221855200000000 Se
   0.2697768700000000    0.2697768700000000    0.0000000000000000 Se
   0.3558979100000000    0.8219165700000000    0.1778144800000000 Se
   0.1780834300000000    0.3558979100000000    0.5339813400000000 Se
