Ge2 Se4 O12
1.0
   5.0967176800000003    0.0000000000000000    0.0025974500000000
   0.0000000000000000    6.7698997500000004    0.0000000000000000
  -4.9713501100000004    0.0000000000000000    7.3460718099999998
Ge Se O
2 4 12
direct
   0.0000000000000000    0.0000000000000000    0.0000000000000000 Ge
   0.0000000000000000    0.5000000000000000    0.5000000000000000 Ge
   0.3187362100000000    0.8243171300000000    0.8029544900000000 Se
   0.3187362100000000    0.6756828700000000    0.3029544900000000 Se
   0.6812637900000000    0.1756828700000000    0.1970455100000000 Se
   0.6812637900000000    0.3243171300000000    0.6970455100000000 Se
   0.2975195600000000    0.8360138700000000    0.9931077699999999 O
   0.2975195600000000    0.6639861300000000    0.4931077700000000 O
   0.7024804400000000    0.1639861300000000    0.0068922300000000 O
   0.7024804400000000    0.3360138700000000    0.5068922300000001 O
   0.1936592200000000    0.5809988000000000    0.7467513900000000 O
   0.1936592200000000    0.9190012000000000    0.2467513900000000 O
   0.8063407800000000    0.4190012000000000    0.2532486100000000 O
   0.8063407800000000    0.0809988000000000    0.7532486100000000 O
   0.7197704300000000    0.7763757600000000    0.9181394000000000 O
   0.7197704300000000    0.7236242400000000    0.4181394000000000 O
   0.2802295700000000    0.2236242400000000    0.0818606000000000 O
   0.2802295700000000    0.2763757600000000    0.5818606000000000 O
