Mg8 B8 O20
1.0
   9.2134408800000003    0.0000000000000000    0.0024657500000000
   0.0000000000000000    3.1078705900000001    0.0000000000000000
  -3.0812793100000002    0.0000000000000000   11.9503167200000000
Mg B O
8 8 20
direct
   0.3546042700000000    0.2933120500000000    0.1054353000000000 Mg
   0.6453957299999999    0.7933120500000000    0.3945647000000000 Mg
   0.6453957299999999    0.7066879500000000    0.8945647000000000 Mg
   0.3546042700000000    0.2066879500000000    0.6054353000000000 Mg
   0.8977026000000000    0.2145762800000000    0.8135438600000000 Mg
   0.1022974000000000    0.7145762800000000    0.6864561400000000 Mg
   0.1022974000000000    0.7854237200000000    0.1864561400000000 Mg
   0.8977026000000000    0.2854237200000000    0.3135438600000000 Mg
   0.8304748300000000    0.3451204600000000    0.0601822500000000 B
   0.1695251700000000    0.8451204600000000    0.4398177500000000 B
   0.1695251700000000    0.6548795400000000    0.9398177500000000 B
   0.8304748300000000    0.1548795400000000    0.5601822500000000 B
   0.6433410300000000    0.7737931600000000    0.6591166800000000 B
   0.3566589700000000    0.2737931600000000    0.8408833200000000 B
   0.3566589700000000    0.2262068400000000    0.3408833200000000 B
   0.6433410300000000    0.7262068400000000    0.1591166800000000 B
   0.5049025700000001    0.3025759600000000    0.3623915300000000 O
   0.4950974300000000    0.8025759600000000    0.1376084700000000 O
   0.4950974300000000    0.6974240400000000    0.6376084700000000 O
   0.5049025700000001    0.1974240400000000    0.8623915300000000 O
   0.7424232900000000    0.7760618000000000    0.2617825400000000 O
   0.2575767100000000    0.2760618000000000    0.2382174600000000 O
   0.2575767100000000    0.2239382000000000    0.7382174600000000 O
   0.7424232900000000    0.7239382000000000    0.7617825400000000 O
   0.8193940100000000    0.2795260000000000    0.4527592200000000 O
   0.1806059900000000    0.7795260000000001    0.0472407800000000 O
   0.1806059900000000    0.7204739999999999    0.5472407800000000 O
   0.8193940100000000    0.2204740000000000    0.9527592200000000 O
   0.0536437600000000    0.7846413300000000    0.3475725000000000 O
   0.9463562400000000    0.2846413300000000    0.1524275000000000 O
   0.9463562400000000    0.2153586700000000    0.6524275000000000 O
   0.0536437600000000    0.7153586700000000    0.8475725000000000 O
   0.6994994700000000    0.9247707700000000    0.5687882700000000 O
   0.3005005300000000    0.4247707700000000    0.9312117300000000 O
   0.3005005300000000    0.0752292300000000    0.4312117300000000 O
   0.6994994700000000    0.5752292300000000    0.0687882700000000 O
