Ca2 Sn2 P4 O14
1.0
   6.4648940000000001    0.0000000000000000    0.0000000000000000
   0.1857220000000000    6.9174140000000000    0.0000000000000000
   2.7462000000000000    0.2779750000000000    6.3536409999999997
Ca Sn P O
2 2 4 14
direct
   0.6914570000000000    0.3672790000000000    0.2894230000000000 Ca
   0.3085430000000000    0.6327210000000000    0.7105770000000000 Ca
   0.7342100000000000    0.8529250000000000    0.8896460000000000 Sn
   0.2657900000000000    0.1470750000000000    0.1103540000000000 Sn
   0.8163080000000000    0.8531790000000000    0.3385880000000000 P
   0.1836920000000000    0.1468210000000000    0.6614120000000000 P
   0.7731470000000000    0.3961430000000000    0.7636370000000000 P
   0.2268530000000000    0.6038570000000000    0.2363630000000000 P
   0.8735150000000000    0.0626080000000000    0.2509190000000000 O
   0.1264850000000000    0.9373920000000000    0.7490810000000000 O
   0.7797680000000000    0.7236870000000000    0.1806180000000000 O
   0.2202320000000000    0.2763130000000000    0.8193820000000001 O
   0.6364860000000000    0.8367660000000000    0.5603860000000001 O
   0.3635140000000000    0.1632340000000000    0.4396140000000000 O
   0.3567760000000000    0.5647170000000000    0.3742040000000000 O
   0.6432240000000000    0.4352830000000000    0.6257960000000000 O
   0.9070000000000000    0.5734089999999999    0.7787230000000001 O
   0.0930000000000000    0.4265910000000000    0.2212770000000000 O
   0.9524670000000000    0.2308800000000000    0.6447460000000000 O
   0.3709410000000000    0.6843250000000000    0.0137270000000000 O
   0.6290590000000000    0.3156750000000000    0.9862730000000000 O
   0.0475330000000000    0.7691200000000000    0.3552540000000000 O
