Na2 Ti2 P2 O10
1.0
   3.3176230000000002   -4.2677129999999996    0.0000000000000000
   3.3176230000000002    4.2677129999999996    0.0000000000000000
  -2.9721570000000002    0.0000000000000000    6.4255120000000003
Na Ti P O
2 2 2 10
direct
   0.1699760000000000    0.8300240000000000    0.2500000000000000 Na
   0.8300240000000000    0.1699760000000000    0.7500000000000000 Na
   0.5000000000000000    0.5000000000000000    0.0000000000000000 Ti
   0.5000000000000000    0.5000000000000000    0.5000000000000000 Ti
   0.1793690000000000    0.8206310000000000    0.7500000000000000 P
   0.8206310000000000    0.1793690000000000    0.2500000000000000 P
   0.5712699999999999    0.4287300000000000    0.7500000000000000 O
   0.4287300000000000    0.5712699999999999    0.2500000000000000 O
   0.3789480000000000    0.8147400000000000    0.6269250000000000 O
   0.1852600000000000    0.6210520000000000    0.8730750000000000 O
   0.6210520000000000    0.1852600000000000    0.3730750000000000 O
   0.8147400000000000    0.3789480000000000    0.1269250000000000 O
   0.7502330000000000    0.8893140000000000    0.0966410000000000 O
   0.1106860000000000    0.2497670000000000    0.4033590000000000 O
   0.2497670000000000    0.1106860000000000    0.9033590000000000 O
   0.8893140000000000    0.7502330000000000    0.5966410000000000 O
