Cd4 Mo4 P4 O24
1.0
   4.9473657199999996    0.0000000000000000   -0.0105252200000000
   0.0000000000000000    8.6207946999999994    0.0000000000000000
  -3.8183743200000002    0.0000000000000000   10.7407912700000008
Cd Mo P O
4 4 4 24
direct
   0.3446498800000000    0.3381759300000000    0.9177867600000000 Cd
   0.6553501200000000    0.8381759300000000    0.5822132400000000 Cd
   0.3446498800000000    0.1618240700000000    0.4177867600000000 Cd
   0.6553501200000000    0.6618240700000000    0.0822132400000000 Cd
   0.0208556600000000    0.4256711400000000    0.6011510500000000 Mo
   0.9791443399999999    0.5743288600000001    0.3988489500000000 Mo
   0.9791443399999999    0.9256711399999999    0.8988489500000000 Mo
   0.0208556600000000    0.0743288600000000    0.1011510500000000 Mo
   0.3034746800000000    0.0648018200000000    0.7086653700000000 P
   0.6965253200000000    0.9351981800000000    0.2913346300000000 P
   0.6965253200000000    0.5648018200000000    0.7913346300000000 P
   0.3034746800000000    0.4351981800000000    0.2086653700000000 P
   0.8481282000000000    0.8734191700000000    0.0394167800000000 O
   0.4162992400000000    0.5280451800000000    0.6855351700000000 O
   0.9546091500000000    0.0249023700000000    0.2731129200000000 O
   0.0453908500000000    0.9750976300000000    0.7268870800000000 O
   0.3249274400000000    0.4818283400000000    0.0816098200000000 O
   0.0453908500000000    0.5249023700000000    0.2268870800000000 O
   0.1518718000000000    0.1265808300000000    0.9605832200000000 O
   0.6750725600000000    0.9818283400000000    0.4183901800000000 O
   0.4162992400000000    0.9719548200000000    0.1855351700000000 O
   0.5837007600000000    0.4719548200000000    0.3144648300000000 O
   0.5837007600000000    0.0280451800000000    0.8144648300000000 O
   0.8481282000000000    0.6265808300000000    0.5394167800000000 O
   0.7239167300000000    0.1942627100000000    0.0528090300000000 O
   0.7421626099999999    0.7425666800000000    0.7834783400000001 O
   0.3249274400000000    0.0181716600000000    0.5816098200000001 O
   0.7421626099999999    0.7574333200000000    0.2834783400000000 O
   0.2578373900000000    0.2574333200000000    0.2165216600000000 O
   0.2760832700000000    0.8057372900000001    0.9471909700000000 O
   0.2578373900000000    0.2425666800000000    0.7165216599999999 O
   0.9546091500000000    0.4750976300000000    0.7731129200000000 O
   0.1518718000000000    0.3734191700000000    0.4605832200000000 O
   0.6750725600000000    0.5181716600000000    0.9183901799999999 O
   0.2760832700000000    0.6942627099999999    0.4471909700000000 O
   0.7239167300000000    0.3057372900000000    0.5528090300000000 O
