Rb2 Sc2 W4 O16
1.0
   5.4096073400000000   -5.0347469900000004   -0.0064394800000000
   5.4096073400000000    5.0347469900000004   -0.0064394800000000
  -4.7497786099999999    0.0000000000000000    5.5376972599999998
Rb Sc W O
2 2 4 16
direct
   0.8011647200000001    0.1988352800000000    0.7500000000000000 Rb
   0.1988352800000000    0.8011647200000001    0.2500000000000000 Rb
   0.2223510200000000    0.7776489800000000    0.7500000000000000 Sc
   0.7776489800000000    0.2223510200000000    0.2500000000000000 Sc
   0.2998302900000000    0.3070048600000000    0.7895401399999999 W
   0.7001697099999999    0.6929951400000000    0.2104598600000000 W
   0.6929951400000000    0.7001697099999999    0.7104598600000001 W
   0.3070048600000000    0.2998302900000000    0.2895401400000000 W
   0.3813513700000000    0.2446762100000000    0.5624909000000000 O
   0.6186486300000000    0.7553237900000001    0.4375091000000000 O
   0.7553237900000001    0.6186486300000000    0.9375091000000000 O
   0.2446762100000000    0.3813513700000000    0.0624909000000000 O
   0.6679631700000001    0.9597243700000000    0.8973913200000000 O
   0.3320368300000000    0.0402756300000000    0.1026086800000000 O
   0.0402756300000000    0.3320368300000000    0.6026086800000000 O
   0.9597243700000000    0.6679631700000001    0.3973913200000000 O
   0.3921363100000000    0.6244190800000000    0.9475470300000000 O
   0.6078636900000000    0.3755809200000000    0.0524529700000000 O
   0.3755809200000000    0.6078636900000000    0.5524529700000000 O
   0.6244190800000000    0.3921363100000000    0.4475470300000000 O
   0.2513566800000000    0.0369013700000000    0.7147231800000000 O
   0.7486433200000000    0.9630986300000000    0.2852768200000000 O
   0.9630986300000000    0.7486433200000000    0.7852768200000000 O
   0.0369013700000000    0.2513566800000000    0.2147231800000000 O
