Na2 La2 C4 O12
1.0
   5.1464223999999996    0.0000000000000000    0.0000000000000000
   0.0000000000000000    6.4078267599999998    0.0000000000000000
   0.0000000000000000    0.0000000000000000    7.1199089400000002
Na La C O
2 2 4 12
direct
   0.5000000000000000    0.0213375400000000    0.7040333000000000 Na
   0.5000000000000000    0.9786624600000000    0.2040333000000000 Na
   0.0000000000000000    0.6347547400000000    0.5014431499999999 La
   0.0000000000000000    0.3652452600000000    0.0014431500000000 La
   0.5000000000000000    0.5331135900000000    0.1718702900000000 C
   0.0000000000000000    0.9137420000000001    0.9196971300000000 C
   0.5000000000000000    0.4668864100000000    0.6718702900000000 C
   0.0000000000000000    0.0862580000000000    0.4196971300000000 C
   0.5000000000000000    0.3543605100000000    0.0881582700000000 O
   0.5000000000000000    0.6456394900000000    0.5881582700000000 O
   0.7857118400000001    0.9905755300000000    0.4567747500000000 O
   0.7199553600000000    0.3773403800000000    0.7081826500000000 O
   0.7199553600000000    0.6226596200000000    0.2081826500000000 O
   0.2142881600000000    0.9905755300000000    0.4567747500000000 O
   0.0000000000000000    0.7305638800000001    0.8408840600000000 O
   0.2142881600000000    0.0094244700000000    0.9567747500000000 O
   0.2800446400000000    0.3773403800000000    0.7081826500000000 O
   0.2800446400000000    0.6226596200000000    0.2081826500000000 O
   0.0000000000000000    0.2694361200000000    0.3408840600000000 O
   0.7857118400000001    0.0094244700000000    0.9567747500000000 O
