Cs12 Ge4 Se12
1.0
   8.0572097500000002   -6.8714349400000003   -0.0649983900000000
   8.0572097500000002    6.8714349400000003   -0.0649983900000000
  -1.1201661599999999    0.0000000000000000    9.5457879899999991
Cs Ge Se
12 4 12
direct
   0.2481746400000000    0.2317659900000000    0.7302106300000000 Cs
   0.7682340100000000    0.7518253600000000    0.7697893700000000 Cs
   0.7518253600000000    0.7682340100000000    0.2697893700000000 Cs
   0.2317659900000000    0.2481746400000000    0.2302106300000000 Cs
   0.6417228900000000    0.1754700000000000    0.3776241100000000 Cs
   0.8245300000000000    0.3582771100000000    0.1223758900000000 Cs
   0.3582771100000000    0.8245300000000000    0.6223758900000000 Cs
   0.1754700000000000    0.6417228900000000    0.8776241100000000 Cs
   0.4156372300000000    0.5843627700000000    0.2500000000000000 Cs
   0.5843627700000000    0.4156372300000000    0.7500000000000000 Cs
   0.9184074300000000    0.0815925700000000    0.7500000000000000 Cs
   0.0815925700000000    0.9184074300000000    0.2500000000000000 Cs
   0.0755142300000000    0.5707350200000000    0.4620132600000000 Ge
   0.4292649800000000    0.9244857700000000    0.0379867400000000 Ge
   0.9244857700000000    0.4292649800000000    0.5379867400000000 Ge
   0.5707350200000000    0.0755142300000000    0.9620132600000000 Ge
   0.0628023000000000    0.5716567600000000    0.2123098400000000 Se
   0.4283432400000000    0.9371977000000000    0.2876901600000000 Se
   0.9371977000000000    0.4283432400000000    0.7876901600000000 Se
   0.5716567600000000    0.0628023000000000    0.7123098400000000 Se
   0.2906263800000000    0.4905983700000000    0.5454548900000000 Se
   0.5094016300000000    0.7093736200000000    0.9545451100000000 Se
   0.7093736200000000    0.5094016300000000    0.4545451100000000 Se
   0.4905983700000000    0.2906263800000000    0.0454548900000000 Se
   0.0192186200000000    0.7849614100000000    0.5613343800000000 Se
   0.2150385900000000    0.9807813800000000    0.9386656200000000 Se
   0.9807813800000000    0.2150385900000000    0.4386656200000000 Se
   0.7849614100000000    0.0192186200000000    0.0613343800000000 Se
