Li5 Re1 O6
1.0
   2.5228450699999998   -4.3515447500000004    0.0028906300000000
   2.5228450699999998    4.3515447500000004    0.0028906300000000
  -1.7205269900000000    0.0000000000000000    4.7089306999999998
Li Re O
5 1 6
direct
   0.6662654800000000    0.3337345200000000    0.0000000000000000 Li
   0.3337345200000000    0.6662654800000000    0.0000000000000000 Li
   0.5000000000000000    0.5000000000000000    0.5000000000000000 Li
   0.8234408000000000    0.1765592000000000    0.5000000000000000 Li
   0.1765592000000000    0.8234408000000000    0.5000000000000000 Li
   0.0000000000000000    0.0000000000000000    0.0000000000000000 Re
   0.6143193600000000    0.9223844300000000    0.7651379900000000 O
   0.9223844300000000    0.6143193600000000    0.7651379900000000 O
   0.0776155700000000    0.3856806400000000    0.2348620100000000 O
   0.3856806400000000    0.0776155700000000    0.2348620100000000 O
   0.7706312500000000    0.7706312500000000    0.2284348200000000 O
   0.2293687500000000    0.2293687500000000    0.7715651800000000 O
