Tl8 Te4 S12
1.0
   7.7814593700000003    0.0000000000000000    0.0000000000000000
   0.0000000000000000   13.4206327699999992    0.0000000000000000
   0.0000000000000000    0.0000000000000000    5.8741130600000000
Tl Te S
8 4 12
direct
   0.3229831900000000    0.5774611400000000    0.1872225800000000 Tl
   0.6770168100000000    0.0774611400000000    0.8127774200000000 Tl
   0.8229831900000000    0.9225388600000000    0.3127774200000000 Tl
   0.1770168100000000    0.4225388600000000    0.6872225800000000 Tl
   0.1770168100000000    0.0774611400000000    0.6872225800000000 Tl
   0.3229831900000000    0.9225388600000000    0.1872225800000000 Tl
   0.6770168100000000    0.4225388600000000    0.8127774200000000 Tl
   0.8229831900000000    0.5774611400000000    0.3127774200000000 Tl
   0.1250409400000000    0.7500000000000000    0.7404123700000000 Te
   0.6250409400000000    0.7500000000000000    0.7595876300000000 Te
   0.3749590600000000    0.2500000000000000    0.2404123700000000 Te
   0.8749590600000000    0.2500000000000000    0.2595876300000000 Te
   0.9376911400000000    0.8902457700000000    0.8290166600000000 S
   0.5623088600000000    0.1097542300000000    0.3290166600000000 S
   0.4376911400000000    0.6097542300000000    0.6709833400000000 S
   0.0623088600000000    0.3902457700000000    0.1709833400000000 S
   0.0623088600000000    0.1097542300000000    0.1709833400000000 S
   0.4376911400000000    0.8902457700000000    0.6709833400000000 S
   0.5623088600000000    0.3902457700000000    0.3290166600000000 S
   0.0776476900000000    0.7500000000000000    0.3366366600000000 S
   0.9223523100000000    0.2500000000000000    0.6633633400000000 S
   0.5776476900000000    0.7500000000000000    0.1633633400000000 S
   0.4223523100000000    0.2500000000000000    0.8366366600000000 S
   0.9376911400000000    0.6097542300000000    0.8290166600000000 S
