Na8 Sn2 O6
1.0
   2.8834761800000002   -8.2581696800000000    0.0013782500000000
   2.8834761800000002    8.2581696800000000    0.0013782500000000
  -1.9970540699999999    0.0000000000000000    5.4861023500000003
Na Sn O
8 2 6
direct
   0.4763250100000000    0.5437435200000000    0.2520260100000000 Na
   0.0363372200000000    0.9503468800000000    0.2173424000000000 Na
   0.4017972000000000    0.6826729200000000    0.6931104300000001 Na
   0.6826729200000000    0.4017972000000000    0.1931104300000000 Na
   0.2471113600000000    0.7402069800000000    0.2490541800000000 Na
   0.7402069800000000    0.2471113600000000    0.7490541800000000 Na
   0.9503468800000000    0.0363372200000000    0.7173424000000000 Na
   0.5437435200000000    0.4763250100000000    0.7520260100000000 Na
   0.1326063000000000    0.8459945300000000    0.7491272900000000 Sn
   0.8459945300000000    0.1326063000000000    0.2491272900000000 Sn
   0.9496886300000000    0.6267450200000000    0.9736127400000000 O
   0.6267450200000000    0.9496886300000000    0.4736127400000000 O
   0.8193677400000000    0.6883744100000000    0.5109090700000000 O
   0.6883744100000000    0.8193677400000000    0.0109090700000000 O
   0.2971252600000000    0.1735580200000000    0.9623188800000000 O
   0.1735580200000000    0.2971252600000000    0.4623188800000000 O
