Ca4 Bi2 As2 O12
1.0
   4.4333466599999998   -5.8892343599999997    0.0000000000000000
   4.4333466599999998    5.8892343599999997    0.0000000000000000
   0.0000000000000000    0.0000000000000000    5.5488465700000003
Ca Bi As O
4 2 2 12
direct
   0.3022445700000000    0.0925094200000000    0.7625512600000000 Ca
   0.9074905800000000    0.6977554300000000    0.7625512600000000 Ca
   0.0925094200000000    0.3022445700000000    0.2625512600000000 Ca
   0.6977554300000000    0.9074905800000000    0.2625512600000000 Ca
   0.5922240800000000    0.4077759200000000    0.2482265400000000 Bi
   0.4077759200000000    0.5922240800000000    0.7482265400000000 Bi
   0.8170512300000000    0.1829487700000000    0.8054969100000000 As
   0.1829487700000000    0.8170512300000000    0.3054969100000000 As
   0.3499232700000000    0.3415926300000000    0.5092300300000000 O
   0.5960569400000000    0.0879461700000000    0.9246916400000000 O
   0.0879461700000000    0.5960569400000000    0.4246916400000000 O
   0.6584073700000000    0.6500767300000000    0.5092300300000000 O
   0.1874867000000000    0.8125133000000000    0.9972689700000000 O
   0.6500767300000000    0.6584073700000000    0.0092300300000000 O
   0.8125133000000000    0.1874867000000000    0.4972689700000000 O
   0.3415926300000000    0.3499232700000000    0.0092300300000000 O
   0.0484567800000000    0.9515432200000000    0.4300597300000000 O
   0.4039430600000000    0.9120538300000000    0.4246916400000000 O
   0.9515432200000000    0.0484567800000000    0.9300597300000000 O
   0.9120538300000000    0.4039430600000000    0.9246916400000000 O
