Ba4 Sc4 O10
1.0
   5.9355037700000004    0.0000000000000000    0.0000000000000000
   0.0000000000000000   11.7463583299999996    0.0000000000000000
   0.0000000000000000    0.0000000000000000    3.9766734600000002
Ba Sc O
4 4 10
direct
   0.2330839500000000    0.8725553100000000    0.5000000000000000 Ba
   0.2669160500000000    0.3725553100000000    0.5000000000000000 Ba
   0.7330839500000000    0.6274446900000000    0.5000000000000000 Ba
   0.7669160500000000    0.1274446900000000    0.5000000000000000 Ba
   0.2630330000000000    0.6318992600000000    0.0000000000000000 Sc
   0.2369670000000000    0.1318992600000000    0.0000000000000000 Sc
   0.7630330000000000    0.8681007400000000    0.0000000000000000 Sc
   0.7369670000000000    0.3681007400000000    0.0000000000000000 Sc
   0.0000000000000000    0.0000000000000000    0.0000000000000000 O
   0.0188806200000000    0.2575839900000000    0.0000000000000000 O
   0.1921406300000000    0.5987310700000000    0.5000000000000000 O
   0.3078593700000000    0.0987310700000000    0.5000000000000000 O
   0.4811193800000000    0.7575839900000000    0.0000000000000000 O
   0.5000000000000000    0.5000000000000000    0.0000000000000000 O
   0.5188806200000000    0.2424160100000000    0.0000000000000000 O
   0.6921406300000000    0.9012689300000000    0.5000000000000000 O
   0.8078593700000000    0.4012689300000000    0.5000000000000000 O
   0.9811193800000000    0.7424160100000000    0.0000000000000000 O
