Li4 Cr4 P4 O20
1.0
   6.7797324200000002    0.0640320200000000   -0.0091773000000000
   3.0376309400000001    6.2421986800000004   -0.0094466600000000
   0.1520949400000000    0.0071732700000000    7.8193423700000002
Li Cr P O
4 4 4 20
direct
   0.6885822800000000    0.8065881600000000    0.4306729100000000 Li
   0.2023087700000000    0.7276801700000000    0.9283214400000001 Li
   0.3114177200000000    0.1934118400000000    0.5693270900000000 Li
   0.7976912300000000    0.2723198300000000    0.0716785600000000 Li
   0.2455909800000000    0.4815034800000000    0.2590618900000000 Cr
   0.2483028500000000    0.9787363700000000    0.2371369600000000 Cr
   0.7544090200000000    0.5184965200000000    0.7409381100000000 Cr
   0.7516971500000000    0.0212636300000000    0.7628630400000000 Cr
   0.2289010600000000    0.2480328700000000    0.9056185200000000 P
   0.7313550400000000    0.2445896200000000    0.4078891400000000 P
   0.7710989400000000    0.7519671300000000    0.0943814800000000 P
   0.2686449600000000    0.7554103800000000    0.5921108600000000 P
   0.5553603700000000    0.9101515200000000    0.1817621900000000 O
   0.6442611200000000    0.1144209100000000    0.5249662400000000 O
   0.0738954300000000    0.3437492200000000    0.7504004800000000 O
   0.7287729200000000    0.2617630100000000    0.8225804799999999 O
   0.9413958800000000    0.0947215500000000    0.3102784100000000 O
   0.7470592300000000    0.5746611400000000    0.9920568700000000 O
   0.0586041200000000    0.9052784500000000    0.6897215900000000 O
   0.4446396300000000    0.0898484800000000    0.8182378100000000 O
   0.1310188200000000    0.1290248900000000    0.0236428300000000 O
   0.2712270800000000    0.7382369900000000    0.1774195200000000 O
   0.7675093900000000    0.7469239100000000    0.6875352900000000 O
   0.2324906100000000    0.2530760900000000    0.3124647100000000 O
   0.4330068400000000    0.6472102700000000    0.7392192000000000 O
   0.5669931600000000    0.3527897300000000    0.2607808000000000 O
   0.7646375500000000    0.4130601700000000    0.5128487800000000 O
   0.2353624500000000    0.5869398300000001    0.4871512200000000 O
   0.3557388800000000    0.8855790900000000    0.4750337600000000 O
   0.8689811800000000    0.8709751100000001    0.9763571700000000 O
   0.2529407700000000    0.4253388600000000    0.0079431300000000 O
   0.9261045700000000    0.6562507800000000    0.2495995200000000 O
