Tl2 Sb2 P4 S12
1.0
   6.4742639000000004    0.0000000000000000    0.0214459000000000
   0.0000000000000000    7.5266957600000000    0.0000000000000000
  -0.2049559200000000    0.0000000000000000    9.5613377300000000
Tl Sb P S
2 2 4 12
direct
   0.8132331400000000    0.7855572000000000    0.9946879500000000 Tl
   0.1867668600000000    0.2855572000000000    0.0053120500000000 Tl
   0.6901638100000000    0.5037244300000000    0.5144314300000000 Sb
   0.3098361900000000    0.0037244300000000    0.4855685700000000 Sb
   0.6974867900000000    0.2917778100000000    0.8055065800000000 P
   0.3025132100000000    0.7917778100000000    0.1944934200000000 P
   0.8098566600000000    0.0698590600000000    0.6721854200000000 P
   0.1901433400000000    0.5698590600000000    0.3278145800000000 P
   0.9191996900000000    0.4844509700000000    0.2474465400000000 S
   0.0808003100000000    0.9844509700000000    0.7525534600000000 S
   0.8396799500000000    0.1874250600000000    0.4776042400000000 S
   0.1603200500000000    0.6874250600000000    0.5223957600000000 S
   0.9116068500000000    0.4822905200000000    0.7691059400000000 S
   0.0883931500000000    0.9822905199999999    0.2308940600000000 S
   0.3333841300000000    0.7050899600000000    0.0014807100000000 S
   0.6666158700000000    0.2050899600000000    0.9985192899999999 S
   0.4356390000000000    0.3650217200000000    0.6939025100000000 S
   0.5643610000000000    0.8650217200000000    0.3060974900000000 S
   0.5870621900000000    0.8761332800000000    0.6744255800000000 S
   0.4129378100000000    0.3761332800000000    0.3255744200000000 S
