Ca4 Se6 O16
1.0
   5.4851647200000002   -0.0239597900000000   -0.0227467700000000
  -1.0947476199999999    8.1471129399999995    0.0085241500000000
  -0.9178983700000000   -0.5357191800000000    8.6401405400000009
Ca Se O
4 6 16
direct
   0.2927133200000000    0.1608913200000000    0.9608974500000000 Ca
   0.7072866799999999    0.8391086800000001    0.0391025500000000 Ca
   0.2417929000000000    0.9557456500000000    0.3471750700000000 Ca
   0.7582071000000000    0.0442543500000000    0.6528249300000000 Ca
   0.8289253800000000    0.1932259500000000    0.2379612400000000 Se
   0.1710746200000000    0.8067740500000000    0.7620387600000000 Se
   0.2144819700000000    0.5567485300000000    0.1770606500000000 Se
   0.7855180300000000    0.4432514700000000    0.8229393500000000 Se
   0.2784037000000000    0.3223353700000000    0.5766970900000000 Se
   0.7215963000000000    0.6776646300000000    0.4233029100000000 Se
   0.5452569000000000    0.8188220700000000    0.4787194600000000 O
   0.4547431000000000    0.1811779300000000    0.5212805400000000 O
   0.8685232000000001    0.7653950400000000    0.2792089700000000 O
   0.1314768000000000    0.2346049600000000    0.7207910300000000 O
   0.5089467100000000    0.4793182500000000    0.6871854700000000 O
   0.4910532900000000    0.5206817500000001    0.3128145300000000 O
   0.6850308899999999    0.2509773900000000    0.8737951100000000 O
   0.3149691100000000    0.7490226100000000    0.1262048900000000 O
   0.7552932000000000    0.5737714500000000    0.9697761000000000 O
   0.2447068000000000    0.4262285500000000    0.0302239000000000 O
   0.0783653600000000    0.8668695700000000    0.5816081800000000 O
   0.9216346399999999    0.1331304300000000    0.4183918200000000 O
   0.4528377000000000    0.9262169900000000    0.8209654100000000 O
   0.5471623000000000    0.0737830100000000    0.1790345900000000 O
   0.9865871400000000    0.9189562600000000    0.8605808100000000 O
   0.0134128600000000    0.0810437400000000    0.1394191900000000 O
