Sn2 Sb2 Pb4 O13
1.0
  -3.7296749600000001    3.7598634600000000    5.2970301400000004
   3.7296749600000001   -3.7598634600000000    5.2970301400000004
   3.7296749600000001    3.7598634600000000   -5.2970301400000004
Sn Sb Pb O
2 2 4 13
direct
   0.2500737900000000    0.5005358500000000    0.2504620600000000 Sn
   0.2500737900000000    0.9996127299999999    0.7495379400000000 Sn
   0.2500273300000000    0.5006714500000000    0.7493548799999999 Sb
   0.7513165700000000    0.5006714500000000    0.2506451200000000 Sb
   0.7482090900000000    0.0023319800000000    0.2541228900000000 Pb
   0.7482090900000000    0.4940861900000000    0.7458771100000000 Pb
   0.7497435000000000    0.0005823200000000    0.7491611800000000 Pb
   0.2514201300000000    0.0005823200000000    0.2508388200000000 Pb
   0.1683741800000000    0.1683741800000000    0.0000000000000000 O
   0.5699325500000000    0.5699325500000000    0.0000000000000000 O
   0.1696309800000000    0.5723083300000000    0.9891713400000000 O
   0.5831369900000000    0.1804586400000000    0.0108286600000000 O
   0.1696309800000000    0.1804586400000000    0.5973226600000000 O
   0.5831369900000000    0.5723083300000000    0.4026773400000000 O
   0.3297064400000000    0.8297064400000000    0.5000000000000000 O
   0.9327005800000000    0.4327005800000000    0.5000000000000000 O
   0.3291268100000000    0.4309462000000000    0.5108685100000000 O
   0.9200776899999999    0.8182583000000000    0.4891314900000000 O
   0.3291268100000000    0.8182583000000000    0.8981806100000000 O
   0.9200776899999999    0.4309462000000000    0.1018193900000000 O
   0.8712700100000000    0.8712700100000000    0.0000000000000000 O
