Cs1 Sc1 W2 O8
1.0
   5.8530602800000002    0.0000000000000000    0.0000000000000000
  -2.9265301400000001    5.0688985000000004    0.0000000000000000
   0.0000000000000000    0.0000000000000000    7.9843320499999999
Cs Sc W O
1 1 2 8
direct
   0.0000000000000000    0.0000000000000000    0.0000000000000000 Cs
   0.0000000000000000    0.0000000000000000    0.5000000000000000 Sc
   0.3333330000000000    0.6666670000000000    0.2768643400000000 W
   0.6666670000000000    0.3333330000000000    0.7231356600000000 W
   0.1643401700000000    0.8356598300000000    0.3457060100000000 O
   0.8356598300000000    0.1643401700000000    0.6542939900000000 O
   0.1643401700000000    0.3286803300000000    0.3457060100000000 O
   0.8356598300000000    0.6713196700000000    0.6542939900000000 O
   0.6713196700000000    0.8356598300000000    0.3457060100000000 O
   0.3286803300000000    0.1643401700000000    0.6542939900000000 O
   0.3333330000000000    0.6666670000000000    0.0584129500000000 O
   0.6666670000000000    0.3333330000000000    0.9415870500000000 O
