Ta4 Tl8 S22
1.0
   7.6510709500000003    0.0015473500000000   -0.0011051000000000
   0.5559967900000000    8.7488571499999992    0.0319734900000000
   0.2438686900000000    3.7871559000000001   12.6529497299999996
Ta Tl S
4 8 22
direct
   0.3333174500000000    0.1096909700000000    0.1908674300000000 Ta
   0.6666825500000000    0.8903090299999999    0.8091325700000001 Ta
   0.1172679300000000    0.3676643700000000    0.2988817800000000 Ta
   0.8827320700000000    0.6323356300000000    0.7011182200000000 Ta
   0.0599998100000000    0.7610988700000000    0.9832462199999999 Tl
   0.9400001900000000    0.2389011300000000    0.0167537800000000 Tl
   0.2164026600000000    0.9775590300000000    0.5699366400000000 Tl
   0.7835973400000000    0.0224409700000000    0.4300633600000000 Tl
   0.5066282900000000    0.2736988200000000    0.8875800200000000 Tl
   0.4933717100000000    0.7263011800000000    0.1124199800000000 Tl
   0.2440130300000000    0.4147954500000000    0.5805715500000000 Tl
   0.7559869700000000    0.5852045500000000    0.4194284500000000 Tl
   0.2696015000000000    0.0399678100000000    0.0392093800000000 S
   0.7303985000000000    0.9600321900000000    0.9607906200000000 S
   0.4700753000000000    0.6761901400000000    0.8836240900000000 S
   0.5299247000000000    0.3238098600000000    0.1163759100000000 S
   0.2673048300000000    0.4031503700000000    0.1089661000000000 S
   0.7326951700000000    0.5968496300000000    0.8910339000000000 S
   0.0251470400000000    0.1304645900000000    0.2493232700000000 S
   0.9748529600000000    0.8695354100000000    0.7506767300000000 S
   0.4067245400000000    0.0738710200000000    0.7496544500000000 S
   0.5932754600000000    0.9261289800000000    0.2503455500000000 S
   0.3612103500000000    0.8553733300000000    0.3313482400000000 S
   0.6387896500000000    0.1446266700000000    0.6686517600000000 S
   0.4010652400000000    0.4380260500000000    0.3459449200000000 S
   0.5989347600000000    0.5619739500000001    0.6540550800000000 S
   0.1216222600000000    0.4808239800000000    0.8149657400000000 S
   0.8783777400000000    0.5191760200000000    0.1850342600000000 S
   0.0432959800000000    0.6555656900000000    0.2442915000000000 S
   0.9567040200000000    0.3444343100000000    0.7557085000000000 S
   0.3912678600000000    0.1933601800000000    0.3670879300000000 S
   0.6087321400000000    0.8066398200000000    0.6329120700000000 S
   0.0193328700000000    0.7075053300000000    0.5352759400000000 S
   0.9806671300000001    0.2924946700000000    0.4647240600000000 S
