Ca2 In4 O8
1.0
   0.0000000000000000    4.6586357200000004    4.6586357200000004
   4.6586357200000004    0.0000000000000000    4.6586357200000004
   4.6586357200000004    4.6586357200000004    0.0000000000000000
Ca In O
2 4 8
direct
   0.2500000000000000    0.2500000000000000    0.2500000000000000 Ca
   0.0000000000000000    0.0000000000000000    0.0000000000000000 Ca
   0.6250000000000000    0.6250000000000000    0.6250000000000000 In
   0.6250000000000000    0.1250000000000000    0.6250000000000000 In
   0.6250000000000000    0.6250000000000000    0.1250000000000000 In
   0.1250000000000000    0.6250000000000000    0.6250000000000000 In
   0.4131115900000000    0.8622964700000000    0.8622964700000000 O
   0.8622964700000000    0.8622964700000000    0.4131115900000000 O
   0.8622964700000000    0.8622964700000000    0.8622964700000000 O
   0.8368884100000000    0.3877035300000000    0.3877035300000000 O
   0.3877035300000000    0.8368884100000000    0.3877035300000000 O
   0.3877035300000000    0.3877035300000000    0.8368884100000000 O
   0.8622964700000000    0.4131115900000000    0.8622964700000000 O
   0.3877035300000000    0.3877035300000000    0.3877035300000000 O
