Na4 Y4 Si4 O16
1.0
  11.1272807500000006    0.0000000000000000    0.0000000000000000
   0.0000000000000000    6.3822799500000000    0.0000000000000000
   0.0000000000000000    0.0000000000000000    5.1040024500000003
Na Y Si O
4 4 4 16
direct
   0.0000000000000000    0.5000000000000000    0.5000000000000000 Na
   0.0000000000000000    0.0000000000000000    0.5000000000000000 Na
   0.5000000000000000    0.0000000000000000    0.0000000000000000 Na
   0.5000000000000000    0.5000000000000000    0.0000000000000000 Na
   0.7202751800000000    0.2500000000000000    0.4995591800000000 Y
   0.2797248200000000    0.7500000000000000    0.5004408200000000 Y
   0.2202751800000000    0.2500000000000000    0.0004408200000000 Y
   0.7797248200000000    0.7500000000000000    0.9995591800000000 Y
   0.5983941900000000    0.7500000000000000    0.5619967900000000 Si
   0.0983941900000000    0.7500000000000000    0.9380032100000000 Si
   0.4016058100000000    0.2500000000000000    0.4380032100000000 Si
   0.9016058100000000    0.2500000000000000    0.0619967900000000 Si
   0.8889844200000000    0.2500000000000000    0.7455853700000000 O
   0.1110155800000000    0.7500000000000000    0.2544146300000000 O
   0.3889844200000000    0.2500000000000000    0.7544146300000000 O
   0.6110155800000000    0.7500000000000000    0.2455853700000000 O
   0.9606614400000000    0.7500000000000000    0.8278724600000000 O
   0.0393385600000000    0.2500000000000000    0.1721275400000000 O
   0.4606614400000000    0.7500000000000000    0.6721275400000000 O
   0.5393385600000000    0.2500000000000000    0.3278724600000000 O
   0.6706828500000001    0.5502805600000000    0.7035312600000000 O
   0.3293171500000000    0.0502805600000000    0.2964687400000000 O
   0.1706828500000000    0.5502805600000000    0.7964687400000000 O
   0.8293171499999999    0.0502805600000000    0.2035312600000000 O
   0.8293171499999999    0.4497194400000000    0.2035312600000000 O
   0.1706828500000000    0.9497194400000000    0.7964687400000000 O
   0.3293171500000000    0.4497194400000000    0.2964687400000000 O
   0.6706828500000001    0.9497194400000000    0.7035312600000000 O
