Zn1 Cu2 Si1 Se4
1.0
  -2.7602079599999998    2.7602079300000000    5.4130848900000004
   2.7602079599999998   -2.7602079300000000    5.4130848900000004
   2.7602079300000000    2.7602079599999998   -5.4130848900000004
Zn Cu Si Se
1 2 1 4
direct
   0.7500000000000000    0.2500000000000000    0.5000000000000000 Zn
   0.0000000000000000    0.0000000000000000    0.0000000000000000 Cu
   0.2500000000000000    0.7500000000000000    0.5000000000000000 Cu
   0.5000000000000000    0.5000000000000000    0.0000000000000000 Si
   0.1391680700000000    0.1328274000000000    0.5158451600000000 Se
   0.6169832400000000    0.6233229100000000    0.4841548400000000 Se
   0.8671726000000000    0.3830167600000000    0.0063396700000000 Se
   0.3766770900000000    0.8608319300000000    0.9936603300000000 Se
