Cs1 Sb1 P2 O8
1.0
   4.8541383199999997    0.0000003800000000    0.0000000000000000
  -2.4270694900000001    4.2038074400000003    0.0000000000000000
   0.0000000000000000    0.0000000000000000    9.2059633800000000
Cs Sb P O
1 1 2 8
direct
   0.0000000000000000    0.0000000000000000    0.0000000000000000 Cs
   0.0000000000000000    0.0000000000000000    0.5000000000000000 Sb
   0.3333330000000000    0.6666670000000000    0.6901822100000000 P
   0.6666670000000000    0.3333330000000000    0.3098177900000000 P
   0.6666670000000000    0.3333330000000000    0.1481439100000000 O
   0.6503501500000000    0.9490859300000000    0.6277267800000000 O
   0.2987347800000000    0.3496498500000000    0.6277267800000000 O
   0.3333330000000000    0.6666670000000000    0.8518560900000000 O
   0.7012652200000000    0.6503501500000000    0.3722732200000000 O
   0.3496498500000000    0.0509140700000000    0.3722732200000000 O
   0.9490859300000000    0.2987347800000000    0.3722732200000000 O
   0.0509140700000000    0.7012652200000000    0.6277267800000000 O
