As8 O20
1.0
   8.6738692499999992    0.0000000000000000    0.0000000000000000
   0.0000000000000000    8.6738692499999992    0.0000000000000000
   0.0000000000000000    0.0000000000000000    4.6508024900000002
As O
8 20
direct
   0.5976820500000000    0.5976820500000000    0.5000000000000000 As
   0.2156456700000000    0.2156456700000000    0.5000000000000000 As
   0.7843543300000000    0.7843543300000000    0.0000000000000000 As
   0.2843543300000000    0.7156456700000000    0.7500000000000000 As
   0.0976820500000000    0.9023179500000000    0.2500000000000000 As
   0.4023179500000000    0.4023179500000000    0.0000000000000000 As
   0.7156456700000000    0.2843543300000000    0.2500000000000000 As
   0.9023179500000000    0.0976820500000000    0.7500000000000000 As
   0.9777039000000000    0.7541871600000000    0.0715783000000000 O
   0.0222961000000000    0.2458128400000000    0.5715783000000000 O
   0.2336303000000000    0.3462321200000000    0.2286502200000000 O
   0.5578573300000000    0.4421426700000000    0.7500000000000000 O
   0.9421426700000000    0.9421426700000000    0.5000000000000000 O
   0.6537678800000000    0.7663697000000000    0.2713497800000000 O
   0.4421426700000000    0.5578573300000000    0.2500000000000000 O
   0.7458128400000000    0.4777039000000000    0.3215783000000000 O
   0.8462321200000000    0.2663697000000000    0.9786502200000000 O
   0.1537678800000000    0.7336303000000000    0.4786502200000000 O
   0.4777039000000000    0.7458128400000000    0.6784217000000000 O
   0.0578573300000000    0.0578573300000000    0.0000000000000000 O
   0.3462321200000000    0.2336303000000000    0.7713497800000000 O
   0.2663697000000000    0.8462321200000000    0.0213497800000000 O
   0.2458128400000000    0.0222961000000000    0.4284217000000000 O
   0.7663697000000000    0.6537678800000000    0.7286502200000000 O
   0.7336303000000000    0.1537678800000000    0.5213497800000000 O
   0.2541871600000000    0.5222961000000000    0.8215783000000000 O
   0.5222961000000000    0.2541871600000000    0.1784217000000000 O
   0.7541871600000000    0.9777039000000000    0.9284217000000000 O
