Li2 V2 P4 O14
1.0
   4.8878529300000002    0.0000000000000000    0.0051027700000000
   0.0000000000000000    8.0858251200000009    0.0000000000000000
  -2.1337950600000002    0.0000000000000000    6.6545153900000003
Li V P O
2 2 4 14
direct
   0.3408601200000000    0.6440841600000000    0.8341371500000000 Li
   0.6591398800000000    0.1440841600000000    0.1658628500000000 Li
   0.2949530500000000    0.0019628600000000    0.7757919900000000 V
   0.7050469500000000    0.5019628600000000    0.2242080100000000 V
   0.0942411900000000    0.3236116900000000    0.9732087400000000 P
   0.9057588100000000    0.8236116900000000    0.0267912600000000 P
   0.2745772800000000    0.7112892700000000    0.4149802900000000 P
   0.7254227200000000    0.2112892700000000    0.5850197100000000 P
   0.6942952100000001    0.9674081200000000    0.9876889599999999 O
   0.9062716100000000    0.3475100600000000    0.7427279100000000 O
   0.9089264400000000    0.0601536200000000    0.5810862000000000 O
   0.0910735600000000    0.5601536200000000    0.4189138000000000 O
   0.3057047900000000    0.4674081200000000    0.0123110400000000 O
   0.0937283900000000    0.8475100600000000    0.2572720900000000 O
   0.8853462100000000    0.3283739900000000    0.0990460400000000 O
   0.1146537900000000    0.8283739900000000    0.9009539600000001 O
   0.5347890400000000    0.6672532600000000    0.3456123900000000 O
   0.3690042100000000    0.8001068500000000    0.6164970100000000 O
   0.7533603500000000    0.6563471200000000    0.0055469200000000 O
   0.2466396500000000    0.1563471200000000    0.9944530800000000 O
   0.6309957899999999    0.3001068500000000    0.3835029900000000 O
   0.4652109600000000    0.1672532600000000    0.6543876100000000 O
