Mg4 Sb8 O16
1.0
   8.4148675300000004    0.0000000000000000    0.0000000000000000
   0.0000000000000000    8.4148675300000004    0.0000000000000000
   0.0000000000000000    0.0000000000000000    5.9912076100000000
Mg Sb O
4 8 16
direct
   0.5000000000000000    0.0000000000000000    0.2500000000000000 Mg
   0.0000000000000000    0.5000000000000000    0.7500000000000000 Mg
   0.5000000000000000    0.0000000000000000    0.7500000000000000 Mg
   0.0000000000000000    0.5000000000000000    0.2500000000000000 Mg
   0.3353489800000000    0.3274613200000000    0.0000000000000000 Sb
   0.3274613200000000    0.6646510200000000    0.5000000000000000 Sb
   0.6725386800000001    0.3353489800000000    0.5000000000000000 Sb
   0.1646510200000000    0.8274613199999999    0.0000000000000000 Sb
   0.8353489800000000    0.1725386800000000    0.0000000000000000 Sb
   0.6646510200000000    0.6725386800000001    0.0000000000000000 Sb
   0.8274613199999999    0.8353489800000000    0.5000000000000000 Sb
   0.1725386800000000    0.1646510200000000    0.5000000000000000 Sb
   0.3607576000000000    0.0965080600000000    0.0000000000000000 O
   0.0965080600000000    0.6392424000000000    0.5000000000000000 O
   0.9034919400000000    0.3607576000000000    0.5000000000000000 O
   0.1392424000000000    0.5965080600000000    0.0000000000000000 O
   0.8607576000000000    0.4034919400000000    0.0000000000000000 O
   0.6392424000000000    0.9034919400000000    0.0000000000000000 O
   0.5965080600000000    0.8607576000000000    0.5000000000000000 O
   0.4034919400000000    0.1392424000000000    0.5000000000000000 O
   0.6756659100000000    0.1756659100000000    0.2500000000000000 O
   0.1756659100000000    0.3243340900000000    0.7500000000000000 O
   0.8243340900000000    0.6756659100000000    0.7500000000000000 O
   0.3243340900000000    0.8243340900000000    0.2500000000000000 O
   0.3243340900000000    0.8243340900000000    0.7500000000000000 O
   0.8243340900000000    0.6756659100000000    0.2500000000000000 O
   0.1756659100000000    0.3243340900000000    0.2500000000000000 O
   0.6756659100000000    0.1756659100000000    0.7500000000000000 O
