In4 P2 O10
1.0
   5.2771941099999999    0.0042510600000000   -0.0067594300000000
  -0.6235073100000000    6.3642350900000002    0.0396364200000000
  -2.2785315000000002   -2.3023656699999999    5.9955622000000002
In P O
4 2 10
direct
   0.5712574100000000    0.7906516099999999    0.0149031900000000 In
   0.4287425900000000    0.2093483900000000    0.9850968100000000 In
   0.1705023200000000    0.6302008800000000    0.2722327900000000 In
   0.8294976800000000    0.3697991200000000    0.7277672100000000 In
   0.1650238400000000    0.1786971500000000    0.3952639700000000 P
   0.8349761600000000    0.8213028500000000    0.6047360300000000 P
   0.3952129600000000    0.1885310700000000    0.6136227100000000 O
   0.6047870400000001    0.8114689300000000    0.3863772900000000 O
   0.9180613300000000    0.2679136200000000    0.4307052600000000 O
   0.0819386700000000    0.7320863800000000    0.5692947400000000 O
   0.3002018200000000    0.3225749500000000    0.2921732600000000 O
   0.6997981800000000    0.6774250500000000    0.7078267400000000 O
   0.0549478800000000    0.9356700900000000    0.2221499700000000 O
   0.9450521200000001    0.0643299100000000    0.7778500300000000 O
   0.2451417000000000    0.5123223000000000    0.9634258400000000 O
   0.7548583000000000    0.4876777000000000    0.0365741600000000 O
