Na8 Ti4 O12
1.0
   2.6649722100000002   -4.6177106500000002    0.0028950500000000
   2.6649722100000002    4.6177106500000002    0.0028950500000000
  -1.8327342799999999    0.0000000000000000   10.6475849599999997
Na Ti O
8 4 12
direct
   0.1588245300000000    0.3177147100000000    0.9999023300000000 Na
   0.0000000000000000    0.5000000000000000    0.5000000000000000 Na
   0.0852079200000000    0.9147920800000000    0.7500000000000000 Na
   0.6822852900000000    0.8411754700000000    0.5000976700000000 Na
   0.5000000000000000    0.0000000000000000    0.0000000000000000 Na
   0.3177147100000000    0.1588245300000000    0.4999023300000000 Na
   0.9147920800000000    0.0852079200000000    0.2500000000000000 Na
   0.8411754700000000    0.6822852900000000    0.0000976700000000 Na
   0.2490680600000000    0.7509319400000000    0.2500000000000000 Ti
   0.4185018200000000    0.5814981800000000    0.7500000000000000 Ti
   0.5814981800000000    0.4185018200000000    0.2500000000000000 Ti
   0.7509319400000000    0.2490680600000000    0.7500000000000000 Ti
   0.0496134200000000    0.2505330600000000    0.6449896100000000 O
   0.3222571700000000    0.4926452800000000    0.3537375500000000 O
   0.1202561100000000    0.5769729300000001    0.8533224200000000 O
   0.5073547200000000    0.6777428300000000    0.1462624500000000 O
   0.2505330600000000    0.0496134200000000    0.1449896100000000 O
   0.5769729300000001    0.1202561100000000    0.3533224200000000 O
   0.4230270700000000    0.8797438900000000    0.6466775800000000 O
   0.7494669400000000    0.9503865800000000    0.8550103900000000 O
   0.4926452800000000    0.3222571700000000    0.8537375500000000 O
   0.8797438900000000    0.4230270700000000    0.1466775800000000 O
   0.6777428300000000    0.5073547200000000    0.6462624500000000 O
   0.9503865800000000    0.7494669400000000    0.3550103900000000 O
