Hg2 P2 S7
1.0
   5.4254849900000002   -2.9071107100000000   -0.0000417200000000
   5.4254849900000002    2.9071107100000000   -0.0000417200000000
  -1.8890070500000000    0.0000000000000000    7.8831568599999997
Hg P S
2 2 7
direct
   0.7932683900000000    0.7889077400000000    0.8105193200000000 Hg
   0.2110922600000000    0.2067316100000000    0.1894806800000000 Hg
   0.9145905700000000    0.9111522800000000    0.2943745000000000 P
   0.0888477200000000    0.0854094300000000    0.7056255000000000 P
   0.7316246100000000    0.2101571000000000    0.7613983500000000 S
   0.7898429000000000    0.2683753900000000    0.2386016500000000 S
   0.6245606000000000    0.8900748400000000    0.3563763200000000 S
   0.1099251600000000    0.3754394000000000    0.6436236800000000 S
   0.2221540700000000    0.7778459300000000    0.5000000000000000 S
   0.1269836300000000    0.6252899200000001    0.1077825700000000 S
   0.3747100800000000    0.8730163700000000    0.8922174300000000 S
