Rb4 Mo2 As4 O18
1.0
   7.5272506799999999   -0.0191727600000000    0.0151392200000000
   0.2471785300000000    7.6185345599999996    0.0755507200000000
   1.9449473399999999    3.0716289300000001    8.3620055700000009
Rb Mo As O
4 2 4 18
direct
   0.0707967000000000    0.7531210699999999    0.6500870000000000 Rb
   0.8118814200000000    0.1734208100000000    0.8720998900000000 Rb
   0.9292033000000000    0.2468789300000000    0.3499130000000000 Rb
   0.1881185800000000    0.8265791900000000    0.1279001100000000 Rb
   0.5662966699999999    0.7653324100000000    0.7458453900000001 Mo
   0.4337033300000000    0.2346675900000000    0.2541546100000000 Mo
   0.6830807000000000    0.6584939700000000    0.0938021300000000 As
   0.3169193000000000    0.3415060300000000    0.9061978700000000 As
   0.3293036300000000    0.1726178100000000    0.6375466200000000 As
   0.6706963700000000    0.8273821900000000    0.3624533800000000 As
   0.2742178600000000    0.0451159600000000    0.3471948500000000 O
   0.5088962299999999    0.7652262900000000    0.5415971100000000 O
   0.7068181700000000    0.5763309400000000    0.7795527200000000 O
   0.2931818300000000    0.4236690600000000    0.2204472800000000 O
   0.3383413800000000    0.9410747600000000    0.7512409100000000 O
   0.6756223900000000    0.4207759300000000    0.1523821800000000 O
   0.4911037700000000    0.2347737100000000    0.4584028900000000 O
   0.4347012300000000    0.2997711100000000    0.7296301400000000 O
   0.6616586200000000    0.0589252400000000    0.2487590900000000 O
   0.8883640100000000    0.7655603800000000    0.0189807900000000 O
   0.1116359900000000    0.2344396200000000    0.9810192100000000 O
   0.1204364600000000    0.2345372800000000    0.6162864600000000 O
   0.5347435300000000    0.7662073600000000    0.9701511200000000 O
   0.5652987700000000    0.7002288900000000    0.2703698600000000 O
   0.7257821400000000    0.9548840400000000    0.6528051499999999 O
   0.3243776100000000    0.5792240700000000    0.8476178200000000 O
   0.8795635400000000    0.7654627200000000    0.3837135400000000 O
   0.4652564700000000    0.2337926400000000    0.0298488800000000 O
