Tl4 Zn4 As4 O16
1.0
   8.8660792599999994    0.0000000000000000   -0.0087414300000000
   0.0000000000000000    5.6099880400000002    0.0000000000000000
  -0.1626946700000000    0.0000000000000000    8.9003641299999998
Tl Zn As O
4 4 4 16
direct
   0.4984692200000000    0.5167391000000000    0.6760307400000000 Tl
   0.5015307800000000    0.0167391000000000    0.3239692600000000 Tl
   0.0034059700000000    0.4818364900000000    0.8124936500000000 Tl
   0.9965940300000000    0.9818364900000000    0.1875063500000000 Tl
   0.8205946900000000    0.5007208700000000    0.4008392200000000 Zn
   0.1794053100000000    0.0007208700000000    0.5991607799999999 Zn
   0.6740614900000000    0.9654350600000000    0.9270615200000000 Zn
   0.3259385100000000    0.4654350600000000    0.0729384800000000 Zn
   0.6898729100000000    0.4683588800000000    0.0642421300000000 As
   0.1877121100000000    0.4994896600000000    0.4000236500000000 As
   0.3101270900000000    0.9683588800000000    0.9357578700000000 As
   0.8122878900000000    0.9994896599999999    0.5999763500000000 As
   0.3275331500000000    0.9077653600000000    0.7484723800000000 O
   0.6724668499999999    0.4077653600000000    0.2515276200000000 O
   0.7780105000000000    0.2962236900000000    0.5658011600000000 O
   0.2219895000000000    0.7962236900000000    0.4341988400000000 O
   0.7881646500000000    0.2449876700000000    0.9776934700000000 O
   0.2118353500000000    0.7449876700000000    0.0223065300000000 O
   0.6762629200000000    0.8979895300000000    0.7186026100000000 O
   0.3237370800000000    0.3979895300000000    0.2813973900000000 O
   0.2036736500000000    0.3370290100000000    0.5629804600000000 O
   0.7963263500000000    0.8370290100000000    0.4370195400000000 O
   0.7880609100000000    0.7270843700000000    0.0359918200000000 O
   0.2119390900000000    0.2270843700000000    0.9640081800000000 O
   0.0145166900000000    0.4652465000000000    0.3140167200000000 O
   0.9854833100000000    0.9652465000000000    0.6859832800000000 O
   0.4836020000000000    0.9993978100000001    0.0232629700000000 O
   0.5163980000000000    0.4993978100000000    0.9767370300000000 O
