Cr4 Ag8 O16
1.0
   9.9026482399999995    0.0000000000000000    0.0000000000000000
   0.0000000000000000    6.9062593200000002    0.0000000000000000
   0.0000000000000000    0.0000000000000000    5.4538985799999997
Cr Ag O
4 8 16
direct
   0.6820628900000000    0.7500000000000000    0.0184732000000000 Cr
   0.8179371100000000    0.2500000000000000    0.5184732000000000 Cr
   0.3179371100000000    0.2500000000000000    0.9815268000000000 Cr
   0.1820628900000000    0.7500000000000000    0.4815268000000000 Cr
   0.5000000000000000    0.5000000000000000    0.5000000000000000 Ag
   0.0000000000000000    0.5000000000000000    0.0000000000000000 Ag
   0.5000000000000000    0.0000000000000000    0.5000000000000000 Ag
   0.0000000000000000    0.0000000000000000    0.0000000000000000 Ag
   0.8640104300000000    0.7500000000000000    0.5044673300000000 Ag
   0.6359895700000000    0.2500000000000000    0.0044673300000000 Ag
   0.1359895700000000    0.2500000000000000    0.4955326700000000 Ag
   0.3640104300000000    0.7500000000000000    0.9955326700000000 Ag
   0.8492473900000000    0.7500000000000000    0.0763212500000000 O
   0.6507526100000000    0.2500000000000000    0.5763212500000000 O
   0.1507526100000000    0.2500000000000000    0.9236787500000000 O
   0.3492473900000000    0.7500000000000000    0.4236787500000000 O
   0.6488870700000000    0.7500000000000000    0.7198049600000000 O
   0.8511129300000000    0.2500000000000000    0.2198049600000000 O
   0.3511129300000000    0.2500000000000000    0.2801950400000000 O
   0.1488870700000000    0.7500000000000000    0.7801950400000000 O
   0.6136924300000000    0.5549187400000000    0.1464326000000000 O
   0.8863075700000000    0.4450812600000000    0.6464326000000000 O
   0.3863075700000000    0.0549187400000000    0.8535674000000000 O
   0.1136924300000000    0.9450812600000000    0.3535674000000000 O
   0.3863075700000000    0.4450812600000000    0.8535674000000000 O
   0.1136924300000000    0.5549187400000000    0.3535674000000000 O
   0.6136924300000000    0.9450812600000000    0.1464326000000000 O
   0.8863075700000000    0.0549187400000000    0.6464326000000000 O
