Sr4 Zr4 O12
1.0
   5.8617700900000003    0.0000000000000000    0.0000000000000000
   0.0000000000000000    8.2179898900000001    0.0000000000000000
   0.0000000000000000    0.0000000000000000    5.7928412099999997
Sr Zr O
4 4 12
direct
   0.0343748800000000    0.2500000000000000    0.4918219500000000 Sr
   0.4656251200000000    0.7500000000000000    0.9918219500000000 Sr
   0.5343748800000000    0.2500000000000000    0.0081780500000000 Sr
   0.9656251200000000    0.7500000000000000    0.5081780500000000 Sr
   0.0000000000000000    0.0000000000000000    0.0000000000000000 Zr
   0.5000000000000000    0.0000000000000000    0.5000000000000000 Zr
   0.5000000000000000    0.5000000000000000    0.5000000000000000 Zr
   0.0000000000000000    0.5000000000000000    0.0000000000000000 Zr
   0.5226447100000000    0.7500000000000000    0.4195744700000000 O
   0.9773552900000000    0.2500000000000000    0.9195744700000000 O
   0.0226447100000000    0.7500000000000000    0.0804255300000000 O
   0.4773552900000000    0.2500000000000000    0.5804255300000000 O
   0.2874772000000000    0.0427485500000000    0.2120598100000000 O
   0.2125228000000000    0.9572514500000000    0.7120598100000000 O
   0.7874772000000000    0.4572514500000000    0.2879401900000000 O
   0.7125228000000000    0.5427485500000000    0.7879401900000000 O
   0.2874772000000000    0.4572514500000000    0.2120598100000000 O
   0.2125228000000000    0.5427485500000000    0.7120598100000000 O
   0.7874772000000000    0.0427485500000000    0.2879401900000000 O
   0.7125228000000000    0.9572514500000000    0.7879401900000000 O
