Sr4 Ti5 Si4 O22
1.0
   6.8732076700000002   -2.8481771100000000    0.0066814900000000
   6.8732076700000002    2.8481771100000000    0.0066814900000000
  -4.8315970100000003    0.0000000000000000   10.9590805400000004
Sr Ti Si O
4 5 4 22
direct
   0.0456110100000000    0.0456110100000000    0.7379550800000000 Sr
   0.2365760400000000    0.2365760400000000    0.2690454000000000 Sr
   0.9543889900000000    0.9543889900000000    0.2620449200000000 Sr
   0.7634239600000000    0.7634239600000000    0.7309546000000000 Sr
   0.7522247600000000    0.2477752400000000    0.0000000000000000 Ti
   0.5000000000000000    0.5000000000000000    0.5000000000000000 Ti
   0.2620033700000000    0.2620033700000000    0.0003833200000000 Ti
   0.2477752400000000    0.7522247600000000    0.0000000000000000 Ti
   0.7379966300000000    0.7379966300000000    0.9996166800000000 Ti
   0.4068236300000000    0.4068236300000000    0.7320897300000000 Si
   0.8424572700000000    0.8424572700000000    0.4546773400000000 Si
   0.1575427300000000    0.1575427300000000    0.5453226600000000 Si
   0.5931763700000000    0.5931763700000000    0.2679102700000000 Si
   0.3271302500000000    0.8014299200000000    0.1825100500000000 O
   0.1331106100000000    0.6545702400000000    0.4184670000000000 O
   0.3454297600000000    0.8668893900000000    0.5815330000000000 O
   0.5424231600000000    0.0423685800000000    0.1208747200000000 O
   0.0973236100000000    0.0973236100000000    0.9986539600000000 O
   0.5963015200000000    0.5963015200000000    0.9997566700000000 O
   0.8534930600000000    0.8534930600000000    0.5916850400000000 O
   0.1465069400000000    0.1465069400000000    0.4083149600000000 O
   0.1985700800000000    0.6728697500000000    0.8174899500000000 O
   0.5267383400000000    0.5267383400000000    0.3530482700000000 O
   0.6728697500000000    0.1985700800000000    0.8174899500000000 O
   0.7213504300000000    0.7213504300000000    0.3453723100000000 O
   0.4575768400000000    0.9576314200000000    0.8791252800000000 O
   0.4036984800000000    0.4036984800000000    0.0002433300000000 O
   0.9576314200000000    0.4575768400000000    0.8791252800000000 O
   0.4732616600000000    0.4732616600000000    0.6469517299999999 O
   0.9026763900000000    0.9026763900000000    0.0013460400000000 O
   0.0423685800000000    0.5424231600000000    0.1208747200000000 O
   0.8668893900000000    0.3454297600000000    0.5815330000000000 O
   0.2786495700000000    0.2786495700000000    0.6546276900000000 O
   0.6545702400000000    0.1331106100000000    0.4184670000000000 O
   0.8014299200000000    0.3271302500000000    0.1825100500000000 O
