Ga4 Te2 O12
1.0
   4.5703916400000004    0.0000000000000000    0.0000000000000000
   0.0000000000000000    4.5703916400000004    0.0000000000000000
   0.0000000000000000    0.0000000000000000    9.0312431100000001
Ga Te O
4 2 12
direct
   0.0000000000000000    0.0000000000000000    0.3346076900000000 Ga
   0.5000000000000000    0.5000000000000000    0.8346076900000000 Ga
   0.5000000000000000    0.5000000000000000    0.1653923100000000 Ga
   0.0000000000000000    0.0000000000000000    0.6653923100000000 Ga
   0.5000000000000000    0.5000000000000000    0.5000000000000000 Te
   0.0000000000000000    0.0000000000000000    0.0000000000000000 Te
   0.8065751799999999    0.8065751799999999    0.8361042400000001 O
   0.1934248200000000    0.1934248200000000    0.8361042400000001 O
   0.8065751799999999    0.8065751799999999    0.1638957600000000 O
   0.3065751800000000    0.6934248200000001    0.3361042400000000 O
   0.6934248200000001    0.3065751800000000    0.3361042400000000 O
   0.6934248200000001    0.3065751800000000    0.6638957599999999 O
   0.3018800400000000    0.6981199600000000    0.0000000000000000 O
   0.8018800400000000    0.8018800400000000    0.5000000000000000 O
   0.1981199600000000    0.1981199600000000    0.5000000000000000 O
   0.6981199600000000    0.3018800400000000    0.0000000000000000 O
   0.1934248200000000    0.1934248200000000    0.1638957600000000 O
   0.3065751800000000    0.6934248200000001    0.6638957599999999 O
