Ga4 Pb2 Se8
1.0
   3.1196898800000001   -5.3320168399999996    0.0000000000000000
   3.1196898800000001    5.3320168399999996    0.0000000000000000
   0.0000000000000000    0.0000000000000000   10.6891990999999997
Ga Pb Se
4 2 8
direct
   0.7635044700000000    0.2397950300000000    0.5000000000000000 Ga
   0.2364955300000000    0.7602049700000000    0.5000000000000000 Ga
   0.7602049700000000    0.2364955300000000    0.0000000000000000 Ga
   0.2397950300000000    0.7635044700000000    0.0000000000000000 Ga
   0.5000000000000000    0.5000000000000000    0.7500000000000000 Pb
   0.5000000000000000    0.5000000000000000    0.2500000000000000 Pb
   0.3442637400000000    0.1908029500000000    0.5000000000000000 Se
   0.6557362600000000    0.8091970500000000    0.5000000000000000 Se
   0.8091970500000000    0.6557362600000000    0.0000000000000000 Se
   0.1908029500000000    0.3442637400000000    0.0000000000000000 Se
   0.5000000000000000    0.0000000000000000    0.8252784900000000 Se
   0.0000000000000000    0.5000000000000000    0.6747215100000000 Se
   0.5000000000000000    0.0000000000000000    0.1747215100000000 Se
   0.0000000000000000    0.5000000000000000    0.3252784900000000 Se
