Tl8 Se4 O16
1.0
   6.2844415600000003    0.0000000000000000    0.0000000000000000
   0.0000000000000000    7.8282194399999998    0.0000000000000000
   0.0000000000000000    0.0000000000000000   10.5975549299999994
Tl Se O
8 4 16
direct
   0.4730767800000000    0.7452040100000000    0.2870056400000000 Tl
   0.9730767800000000    0.7547959900000000    0.7129943600000000 Tl
   0.9717979400000000    0.9201610200000000    0.0803885900000000 Tl
   0.0269232200000000    0.2547959900000000    0.7870056400000000 Tl
   0.5282020600000000    0.0798389800000000    0.5803885900000000 Tl
   0.5269232200000000    0.2452040100000000    0.2129943600000000 Tl
   0.0282020600000000    0.4201610200000000    0.4196114100000000 Tl
   0.4717979400000000    0.5798389800000000    0.9196114100000000 Tl
   0.9881772500000000    0.4552060000000000    0.0834926300000000 Se
   0.4881772500000000    0.0447940000000000    0.9165073700000000 Se
   0.0118227500000000    0.9552060000000000    0.4165073700000000 Se
   0.5118227500000000    0.5447940000000000    0.5834926300000000 Se
   0.4217569500000000    0.2464490900000000    0.9499382500000000 O
   0.3012741400000000    0.5335357400000000    0.6801958400000000 O
   0.4513792200000000    0.4437283900000000    0.4482856800000000 O
   0.6987258600000000    0.0335357400000000    0.8198041600000000 O
   0.2187384600000000    0.0509323300000000    0.3470206500000000 O
   0.0486207800000000    0.5562716100000000    0.9482856800000000 O
   0.0782430500000000    0.7535509100000000    0.4499382500000000 O
   0.5486207800000000    0.9437283900000000    0.0517143200000000 O
   0.1987258600000000    0.4664642600000000    0.1801958400000000 O
   0.8012741400000000    0.9664642600000000    0.3198041600000000 O
   0.2812615400000000    0.9490676700000000    0.8470206500000000 O
   0.9217569500000000    0.2535509100000000    0.0500617500000000 O
   0.7187384600000000    0.4490676700000000    0.6529793500000000 O
   0.5782430500000000    0.7464490900000000    0.5500617500000000 O
   0.9513792200000000    0.0562716100000000    0.5517143200000000 O
   0.7812615400000000    0.5509323300000000    0.1529793500000000 O
