Zn1 Ga1 P1 S1
1.0
   1.9013246200000000    1.0977301399999999    6.2155614999999997
  -1.9013246200000000    1.0977301399999999    6.2155614999999997
   0.0000000000000000   -2.1954602699999999    6.2155614999999997
Zn Ga P S
1 1 1 1
direct
   0.0009603100000000    0.0009603100000000    0.0009603100000000 Zn
   0.4990818700000000    0.4990818700000000    0.4990818700000000 Ga
   0.1252936200000000    0.1252936200000000    0.1252936200000000 P
   0.6246621999999999    0.6246621999999999    0.6246621999999999 S
