Na6 Bi2 O8
1.0
   5.8123212400000002    0.0000000000000000    0.0020162700000000
   0.0000000000000000    6.6573049099999997    0.0000000000000000
  -1.9180353299999999    0.0000000000000000    5.3150028999999996
Na Bi O
6 2 8
direct
   0.0000000000000000    0.3814723000000000    0.2500000000000000 Na
   0.5000000000000000    0.3975576000000000    0.7500000000000000 Na
   0.5000000000000000    0.1305028600000000    0.2500000000000000 Na
   0.5000000000000000    0.8694971400000000    0.7500000000000000 Na
   0.0000000000000000    0.6185277000000000    0.7500000000000000 Na
   0.5000000000000000    0.6024424000000000    0.2500000000000000 Na
   0.0000000000000000    0.8621632200000000    0.2500000000000000 Bi
   0.0000000000000000    0.1378367800000000    0.7500000000000000 Bi
   0.7615931500000001    0.6501524300000000    0.0283181600000000 O
   0.2384068500000000    0.6501524300000000    0.4716818400000000 O
   0.2384068500000000    0.3498475700000000    0.9716818400000000 O
   0.7615931500000001    0.3498475700000000    0.5283181600000000 O
   0.7871831200000000    0.8975270500000000    0.5011314100000001 O
   0.2128168800000000    0.8975270500000000    0.9988685899999999 O
   0.7871831200000000    0.1024729500000000    0.0011314100000000 O
   0.2128168800000000    0.1024729500000000    0.4988685900000000 O
