Bi8 Pb4 S16
1.0
  11.6142690399999999    0.0000000000000000    0.0000000000000000
   0.0000000000000000    4.0497033699999996    0.0000000000000000
   0.0000000000000000    0.0000000000000000   14.4589797299999994
Bi Pb S
8 4 16
direct
   0.3966581700000000    0.2500000000000000    0.5984304300000000 Bi
   0.6033418300000000    0.7500000000000000    0.4015695700000000 Bi
   0.0658428700000000    0.7500000000000000    0.6076390400000000 Bi
   0.8966581700000000    0.2500000000000000    0.9015695700000000 Bi
   0.1033418300000000    0.7500000000000000    0.0984304300000000 Bi
   0.4341571300000000    0.2500000000000000    0.1076390400000000 Bi
   0.9341571300000000    0.2500000000000000    0.3923609600000000 Bi
   0.5658428700000000    0.7500000000000000    0.8923609600000000 Bi
   0.2512903200000000    0.7500000000000000    0.3470381200000000 Pb
   0.2487096800000000    0.2500000000000000    0.8470381200000000 Pb
   0.7487096800000000    0.2500000000000000    0.6529618800000000 Pb
   0.7512903200000000    0.7500000000000000    0.1529618800000000 Pb
   0.8360819500000000    0.7500000000000000    0.5129738100000000 S
   0.2358279100000000    0.2500000000000000    0.2000634600000000 S
   0.4431332400000000    0.2500000000000000    0.4083429400000000 S
   0.3360819500000000    0.7500000000000000    0.9870261900000000 S
   0.5568667600000000    0.7500000000000000    0.5916570600000000 S
   0.7641720900000000    0.7500000000000000    0.7999365400000000 S
   0.9431332400000000    0.2500000000000000    0.0916570600000000 S
   0.1639180500000000    0.2500000000000000    0.4870261900000000 S
   0.9832222400000000    0.2500000000000000    0.7144468400000000 S
   0.4832222400000000    0.2500000000000000    0.7855531600000000 S
   0.0167777600000000    0.7500000000000000    0.2855531600000000 S
   0.6639180500000000    0.2500000000000000    0.0129738100000000 S
   0.5167777600000000    0.7500000000000000    0.2144468400000000 S
   0.2641720900000000    0.7500000000000000    0.7000634600000000 S
   0.7358279100000000    0.2500000000000000    0.2999365400000000 S
   0.0568667600000000    0.7500000000000000    0.9083429400000000 S
