Ba1 Sb2 O6
1.0
   5.3393796800000004    0.0000000000000000    0.0000000000000000
  -2.6696898400000002    4.6240383999999999    0.0000000000000000
   0.0000000000000000    0.0000000000000000    5.7919912800000004
Ba Sb O
1 2 6
direct
   0.0000000000000000    0.0000000000000000    0.0000000000000000 Ba
   0.6666670000000000    0.3333330000000000    0.5000000000000000 Sb
   0.3333330000000000    0.6666670000000000    0.5000000000000000 Sb
   0.3848994300000000    0.3848994300000000    0.6956810300000000 O
   0.6151005700000000    0.0000000000000000    0.6956810300000000 O
   0.0000000000000000    0.6151005700000000    0.6956810300000000 O
   0.3848994300000000    0.0000000000000000    0.3043189700000000 O
   0.0000000000000000    0.3848994300000000    0.3043189700000000 O
   0.6151005700000000    0.6151005700000000    0.3043189700000000 O
