Li4 Cr4 O14
1.0
   3.7756818999999999   -4.1110354600000001   -0.0375955500000000
   3.7756818999999999    4.1110354600000001   -0.0375955500000000
  -3.7381060800000001    0.0000000000000000    9.3409866699999995
Li Cr O
4 4 14
direct
   0.3846665500000000    0.7306334500000000    0.4759731500000000 Li
   0.2693665500000000    0.6153334499999999    0.0240268500000000 Li
   0.7306334500000000    0.3846665500000000    0.9759731500000000 Li
   0.6153334499999999    0.2693665500000000    0.5240268500000000 Li
   0.1670564700000000    0.2122646700000000    0.2111656200000000 Cr
   0.2122646700000000    0.1670564700000000    0.7111656200000001 Cr
   0.7877353300000000    0.8329435300000000    0.2888343800000000 Cr
   0.8329435300000000    0.7877353300000000    0.7888343799999999 Cr
   0.2676527700000000    0.9754908600000000    0.1256239900000000 O
   0.0956387100000000    0.3987490700000000    0.1113019500000000 O
   0.3824644800000000    0.3623989500000000    0.3614226000000000 O
   0.9754908600000000    0.2676527700000000    0.6256239900000000 O
   0.8941079000000000    0.1058921000000000    0.2500000000000000 O
   0.3987490700000000    0.0956387100000000    0.6113019500000000 O
   0.3623989500000000    0.3824644800000000    0.8614226000000000 O
   0.6376010500000000    0.6175355200000000    0.1385774000000000 O
   0.6012509300000000    0.9043612900000000    0.3886980500000000 O
   0.1058921000000000    0.8941079000000000    0.7500000000000000 O
   0.0245091400000000    0.7323472300000000    0.3743760100000000 O
   0.6175355200000000    0.6376010500000000    0.6385774000000000 O
   0.9043612900000000    0.6012509300000000    0.8886980500000000 O
   0.7323472300000000    0.0245091400000000    0.8743760100000000 O
