Sr4 Te4 O12
1.0
   6.7343650000000004    0.0000000000000000    0.0849924200000000
   0.0000000000000000    7.1927036600000003    0.0000000000000000
  -5.0164784300000003    0.0000000000000000    6.8750363900000000
Sr Te O
4 4 12
direct
   0.8623397600000000    0.6268694100000000    0.1314688700000000 Sr
   0.1376602400000000    0.1268694100000000    0.3685311300000000 Sr
   0.1376602400000000    0.3731305900000000    0.8685311300000000 Sr
   0.8623397600000000    0.8731305900000000    0.6314688700000000 Sr
   0.3767295300000000    0.8280908000000000    0.0981735000000000 Te
   0.6232704700000000    0.3280908000000000    0.4018265000000000 Te
   0.6232704700000000    0.1719092000000000    0.9018265000000000 Te
   0.3767295300000000    0.6719092000000000    0.5981735000000000 Te
   0.0837546800000000    0.8114247200000000    0.4754139900000000 O
   0.9162453200000000    0.3114247200000000    0.0245860100000000 O
   0.9162453200000000    0.1885752800000000    0.5245860100000000 O
   0.0837546800000000    0.6885752800000000    0.9754139900000000 O
   0.4039429700000000    0.9151838799999999    0.3194403700000000 O
   0.5960570300000000    0.4151838800000000    0.1805596300000000 O
   0.5960570300000000    0.0848161200000000    0.6805596300000000 O
   0.4039429700000000    0.5848161200000001    0.8194403700000000 O
   0.2303302600000000    0.0304151300000000    0.9276897600000000 O
   0.7696697400000000    0.5304151300000000    0.5723102400000000 O
   0.7696697400000000    0.9695848700000000    0.0723102400000000 O
   0.2303302600000000    0.4695848700000000    0.4276897600000000 O
