Ba3 Mg1 Nb2 O9
1.0
   5.8049733899999998   -0.0000000000000000    0.0000000000000000
  -2.9024861999999998    5.0272545300000004    0.0000000000000000
   0.0000000000000000    0.0000000000000000    7.1299113199999997
Ba Mg Nb O
3 1 2 9
direct
   0.0000000000000000    0.0000000000000000    0.0000000000000000 Ba
   0.3333330000000000    0.6666670000000000    0.6637407800000000 Ba
   0.6666670000000000    0.3333330000000000    0.3362592200000000 Ba
   0.0000000000000000    0.0000000000000000    0.5000000000000000 Mg
   0.3333330000000000    0.6666670000000000    0.1777423000000000 Nb
   0.6666670000000000    0.3333330000000000    0.8222577000000000 Nb
   0.8300223400000000    0.1699776600000000    0.6725976900000000 O
   0.8300223400000000    0.6600436700000000    0.6725976900000000 O
   0.3399563300000000    0.1699776600000000    0.6725976900000000 O
   0.6600436700000000    0.8300223400000000    0.3274023100000000 O
   0.1699776600000000    0.3399563300000000    0.3274023100000000 O
   0.1699776600000000    0.8300223400000000    0.3274023100000000 O
   0.5000000000000000    0.0000000000000000    0.0000000000000000 O
   0.0000000000000000    0.5000000000000000    0.0000000000000000 O
   0.5000000000000000    0.5000000000000000    0.0000000000000000 O
