Sr2 Ti1 O4
1.0
  -1.9570885700000000    1.9570885700000000    6.2648158900000004
   1.9570885700000000   -1.9570885700000000    6.2648158900000004
   1.9570885700000000    1.9570885700000000   -6.2648158900000004
Sr Ti O
2 1 4
direct
   0.6453158700000000    0.6453158700000000    0.0000000000000000 Sr
   0.3546841300000000    0.3546841300000000    0.0000000000000000 Sr
   0.0000000000000000    0.0000000000000000    0.0000000000000000 Ti
   0.8400652300000000    0.8400652300000000    0.0000000000000000 O
   0.1599347700000000    0.1599347700000000    0.0000000000000000 O
   0.5000000000000000    0.0000000000000000    0.5000000000000000 O
   0.0000000000000000    0.5000000000000000    0.5000000000000000 O
