Ba2 Al4 Se8
1.0
   3.0908438500000002   -5.6473264399999996    0.0000000000000000
   3.0908438500000002    5.6473264399999996    0.0000000000000000
   0.0000000000000000    0.0000000000000000   11.3319893599999997
Ba Al Se
2 4 8
direct
   0.0000000000000000    0.0000000000000000    0.7500000000000000 Ba
   0.0000000000000000    0.0000000000000000    0.2500000000000000 Ba
   0.7436136000000000    0.2578835300000000    0.5000000000000000 Al
   0.2578835300000000    0.7436136000000000    0.0000000000000000 Al
   0.2563864000000000    0.7421164700000000    0.5000000000000000 Al
   0.7421164700000000    0.2563864000000000    0.0000000000000000 Al
   0.0000000000000000    0.5000000000000000    0.6631168000000000 Se
   0.5000000000000000    0.0000000000000000    0.8368832000000000 Se
   0.0000000000000000    0.5000000000000000    0.3368832000000000 Se
   0.5000000000000000    0.0000000000000000    0.1631168000000000 Se
   0.8479842700000000    0.6738886900000000    0.0000000000000000 Se
   0.6738886900000000    0.8479842700000000    0.5000000000000000 Se
   0.3261113100000000    0.1520157300000000    0.5000000000000000 Se
   0.1520157300000000    0.3261113100000000    0.0000000000000000 Se
