Ba4 La8 O16
1.0
  10.6126420499999998    0.0000000000000000    0.0000000000000000
   0.0000000000000000    3.6790869200000000    0.0000000000000000
   0.0000000000000000    0.0000000000000000   12.5508016500000004
Ba La O
4 8 16
direct
   0.7513459900000000    0.7500000000000000    0.8536039800000000 Ba
   0.7486540100000000    0.2500000000000000    0.3536039800000000 Ba
   0.2513459900000000    0.7500000000000000    0.6463960200000000 Ba
   0.2486540100000000    0.2500000000000000    0.1463960200000000 Ba
   0.5730890700000000    0.7500000000000000    0.1147958800000000 La
   0.5848159100000000    0.7500000000000000    0.6111408200000000 La
   0.9151840900000000    0.2500000000000000    0.1111408200000000 La
   0.9269109300000000    0.2500000000000000    0.6147958800000000 La
   0.0730890700000000    0.7500000000000000    0.3852041200000000 La
   0.0848159100000000    0.7500000000000000    0.8888591800000000 La
   0.4151840900000000    0.2500000000000000    0.3888591800000000 La
   0.4269109300000000    0.2500000000000000    0.8852041200000000 La
   0.5097168500000000    0.2500000000000000    0.2169407600000000 O
   0.5670898800000000    0.7500000000000000    0.4223402900000000 O
   0.6267181500000000    0.2500000000000000    0.9844621500000000 O
   0.7146320300000000    0.2500000000000000    0.6781009099999999 O
   0.7853679700000000    0.7500000000000000    0.1781009100000000 O
   0.8732818500000000    0.7500000000000000    0.4844621500000000 O
   0.9329101200000000    0.2500000000000000    0.9223402900000000 O
   0.9902831500000000    0.7500000000000000    0.7169407600000000 O
   0.0097168500000000    0.2500000000000000    0.2830592400000000 O
   0.0670898800000000    0.7500000000000000    0.0776597100000000 O
   0.1267181500000000    0.2500000000000000    0.5155378500000000 O
   0.2146320300000000    0.2500000000000000    0.8218990900000001 O
   0.2853679700000000    0.7500000000000000    0.3218990900000000 O
   0.3732818500000000    0.7500000000000000    0.0155378500000000 O
   0.4329101200000000    0.2500000000000000    0.5776597100000000 O
   0.4902831500000000    0.7500000000000000    0.7830592400000000 O
