In2 Cu2 Sn2 S8
1.0
  -3.6998560399999998    3.7167214000000000    5.2324023799999999
   3.6998560399999998   -3.7167214000000000    5.2324023799999999
   3.6998560399999998    3.7167214000000000   -5.2324023799999999
In Cu Sn S
2 2 2 8
direct
   0.5000000000000000    0.0000000000000000    0.0000000000000000 In
   0.5000000000000000    0.5000000000000000    0.5000000000000000 In
   0.1159014300000000    0.3659014300000000    0.7500000000000000 Cu
   0.8840985700000000    0.6340985700000000    0.2500000000000000 Cu
   0.5000000000000000    0.0000000000000000    0.5000000000000000 Sn
   0.0000000000000000    0.0000000000000000    0.0000000000000000 Sn
   0.7521442400000000    0.7572585600000000    0.5051143200000000 S
   0.7521442400000000    0.2470299200000000    0.9948856800000000 S
   0.7527027600000000    0.7564206999999999    0.9962820600000000 S
   0.2601386400000000    0.7564206999999999    0.5037179400000000 S
   0.2478557600000000    0.2427414400000000    0.4948856800000000 S
   0.2478557600000000    0.7529700800000000    0.0051143200000000 S
   0.2472972400000000    0.2435793000000000    0.0037179400000000 S
   0.7398613600000000    0.2435793000000000    0.4962820600000000 S
