Ba2 Zn1 W1 O6
1.0
   0.0000000000000000    4.0371050000000004    4.0371050000000004
   4.0371050000000004    0.0000000000000000    4.0371050000000004
   4.0371050000000004    4.0371050000000004    0.0000000000000000
Ba Zn W O
2 1 1 6
direct
   0.7500000000000000    0.7500000000000000    0.7500000000000000 Ba
   0.2500000000000000    0.2500000000000000    0.2500000000000000 Ba
   0.0000000000000000    0.0000000000000000    0.0000000000000000 Zn
   0.5000000000000000    0.5000000000000000    0.5000000000000000 W
   0.7396130000000000    0.2603870000000000    0.7396130000000000 O
   0.7396130000000000    0.2603870000000000    0.2603870000000000 O
   0.2603870000000000    0.7396130000000000    0.7396130000000000 O
   0.7396130000000000    0.7396130000000000    0.2603870000000000 O
   0.2603870000000000    0.2603870000000000    0.7396130000000000 O
   0.2603870000000000    0.7396130000000000    0.2603870000000000 O
