Ba4 Ag16 S14
1.0
  15.6192502700000002    0.0000000000000000    0.0000000000000000
   0.0000000000000000   10.6413526800000007    0.0000000000000000
   0.0000000000000000    0.0000000000000000    4.2681096800000002
Ba Ag S
4 16 14
direct
   0.6386321800000000    0.8795032200000000    0.2559598300000000 Ba
   0.3613678200000000    0.8795032200000000    0.2559598300000000 Ba
   0.8613678200000000    0.1204967800000000    0.7559598300000000 Ba
   0.1386321800000000    0.1204967800000000    0.7559598300000000 Ba
   0.6054132500000000    0.4770351100000000    0.7634971600000000 Ag
   0.3945867500000000    0.4770351100000000    0.7634971600000000 Ag
   0.8945867500000000    0.5229648900000000    0.2634971600000000 Ag
   0.1054132500000000    0.5229648900000000    0.2634971600000000 Ag
   0.6433435500000000    0.2023410500000000    0.7600359600000000 Ag
   0.3566564500000000    0.2023410500000000    0.7600359600000000 Ag
   0.8566564500000000    0.7976589500000000    0.2600359600000000 Ag
   0.1433435500000000    0.7976589500000000    0.2600359600000000 Ag
   0.7296238100000000    0.3758316900000000    0.2594334100000000 Ag
   0.2703761900000000    0.3758316900000000    0.2594334100000000 Ag
   0.7703761900000000    0.6241683099999999    0.7594334100000000 Ag
   0.2296238100000000    0.6241683099999999    0.7594334100000000 Ag
   0.5000000000000000    0.5865134400000001    0.2587558200000000 Ag
   0.0000000000000000    0.4134865600000000    0.7587558200000000 Ag
   0.5000000000000000    0.1826208200000000    0.1621603600000000 Ag
   0.0000000000000000    0.8173791800000000    0.6621603600000000 Ag
   0.6549263800000000    0.5817756400000000    0.2519657400000000 S
   0.3450736200000000    0.5817756400000000    0.2519657400000000 S
   0.8450736200000000    0.4182243600000000    0.7519657400000000 S
   0.1549263800000000    0.4182243600000000    0.7519657400000000 S
   0.5000000000000000    0.7941410900000000    0.7625664900000000 S
   0.0000000000000000    0.2058589100000000    0.2625664900000000 S
   0.5000000000000000    0.9966594600000001    0.7481182000000000 S
   0.0000000000000000    0.0033405400000000    0.2481182000000000 S
   0.7173979500000000    0.1475256100000000    0.2544875400000000 S
   0.2826020500000000    0.1475256100000000    0.2544875400000000 S
   0.7826020500000000    0.8524743900000000    0.7544875400000000 S
   0.2173979500000000    0.8524743900000000    0.7544875400000000 S
   0.5000000000000000    0.3060733900000000    0.6446378699999999 S
   0.0000000000000000    0.6939266100000000    0.1446378700000000 S
