Nb2 Tl2 W2 O12
1.0
  -3.6510276099999999    3.7100781000000000    5.2386701200000001
   3.6510276099999999   -3.7100781000000000    5.2386701200000001
   3.6510276099999999    3.7100781000000000   -5.2386701200000001
Nb Tl W O
2 2 2 12
direct
   0.5000000000000000    0.5000000000000000    0.0000000000000000 Nb
   0.0000000000000000    0.5000000000000000    0.5000000000000000 Nb
   0.5738937900000000    0.8238937900000000    0.7500000000000000 Tl
   0.4261062100000000    0.1761062100000000    0.2500000000000000 Tl
   0.0000000000000000    0.5000000000000000    0.0000000000000000 W
   0.0000000000000000    0.0000000000000000    0.5000000000000000 W
   0.0557452100000000    0.8057452100000000    0.2500000000000000 O
   0.6801138500000000    0.4301138500000000    0.2500000000000000 O
   0.0609508900000000    0.8195481800000000    0.6229349400000000 O
   0.6966132400000000    0.4380159500000000    0.8770650600000000 O
   0.6966132400000000    0.8195481800000000    0.2585972900000000 O
   0.0609508900000000    0.4380159500000000    0.2414027100000000 O
   0.9442547900000000    0.1942547900000000    0.7500000000000000 O
   0.3198861500000000    0.5698861500000000    0.7500000000000000 O
   0.9390491100000000    0.1804518200000000    0.3770650600000000 O
   0.3033867600000000    0.5619840500000000    0.1229349400000000 O
   0.3033867600000000    0.1804518200000000    0.7414027100000000 O
   0.9390491100000000    0.5619840500000000    0.7585972900000000 O
