Cs2 Y2 Cd2 Se6
1.0
   2.1122210899999998   -7.9020538399999998    0.0000000000000000
   2.1122210899999998    7.9020538399999998    0.0000000000000000
   0.0000000000000000    0.0000000000000000   10.9568650299999995
Cs Y Cd Se
2 2 2 6
direct
   0.7451863300000000    0.2548136700000000    0.2500000000000000 Cs
   0.2548136700000000    0.7451863300000000    0.7500000000000000 Cs
   0.0000000000000000    0.0000000000000000    0.5000000000000000 Y
   0.0000000000000000    0.0000000000000000    0.0000000000000000 Y
   0.4602034700000000    0.5397965300000001    0.2500000000000000 Cd
   0.5397965300000001    0.4602034700000000    0.7500000000000000 Cd
   0.0626865600000000    0.9373134400000001    0.2500000000000000 Se
   0.9373134400000001    0.0626865600000000    0.7500000000000000 Se
   0.6202395400000000    0.3797604600000000    0.5443093300000000 Se
   0.6202395400000000    0.3797604600000000    0.9556906700000000 Se
   0.3797604600000000    0.6202395400000000    0.0443093300000000 Se
   0.3797604600000000    0.6202395400000000    0.4556906700000000 Se
