Ti4 Tl8 O12
1.0
  12.4456702999999997    0.0000000000000000    0.0000000000000000
   0.0000000000000000    3.8490456200000001    0.0000000000000000
   0.0000000000000000    0.0000000000000000    9.6021511799999999
Ti Tl O
4 8 12
direct
   0.9050081800000001    0.7500000000000000    0.4557683700000000 Ti
   0.5949918199999999    0.2500000000000000    0.9557683700000000 Ti
   0.0949918200000000    0.2500000000000000    0.5442316300000000 Ti
   0.4050081800000000    0.7500000000000000    0.0442316300000000 Ti
   0.3438409500000000    0.2500000000000000    0.7477651199999999 Tl
   0.8438409500000000    0.2500000000000000    0.7522348800000001 Tl
   0.1561590500000000    0.7500000000000000    0.2477651200000000 Tl
   0.6561590500000000    0.7500000000000000    0.2522348800000000 Tl
   0.4044607600000000    0.2500000000000000    0.3724983300000000 Tl
   0.5955392400000000    0.7500000000000000    0.6275016700000000 Tl
   0.0955392400000000    0.7500000000000000    0.8724983300000000 Tl
   0.9044607600000000    0.2500000000000000    0.1275016700000000 Tl
   0.4464036900000000    0.2500000000000000    0.0466345900000000 O
   0.5535963100000000    0.7500000000000000    0.9533654100000000 O
   0.0535963100000000    0.7500000000000000    0.5466345900000000 O
   0.9464036900000000    0.2500000000000000    0.4533654100000000 O
   0.2019349800000000    0.2500000000000000    0.4143133600000000 O
   0.7980650200000000    0.7500000000000000    0.5856866400000000 O
   0.2980650200000000    0.7500000000000000    0.9143133600000000 O
   0.8473942200000000    0.7500000000000000    0.2767415700000000 O
   0.3473942200000000    0.7500000000000000    0.2232584300000000 O
   0.6526057800000000    0.2500000000000000    0.7767415700000000 O
   0.1526057800000000    0.2500000000000000    0.7232584300000000 O
   0.7019349800000000    0.2500000000000000    0.0856866400000000 O
