Ba2 In1 Sb1 O6
1.0
   0.0000000000000000    4.1608904799999999    4.1608904799999999
   4.1608904799999999    0.0000000000000000    4.1608904799999999
   4.1608904799999999    4.1608904799999999    0.0000000000000000
Ba In Sb O
2 1 1 6
direct
   0.2500000000000000    0.2500000000000000    0.2500000000000000 Ba
   0.7500000000000000    0.7500000000000000    0.7500000000000000 Ba
   0.5000000000000000    0.5000000000000000    0.5000000000000000 In
   0.0000000000000000    0.0000000000000000    0.0000000000000000 Sb
   0.7604461100000000    0.2395538900000000    0.2395538900000000 O
   0.2395538900000000    0.7604461100000000    0.7604461100000000 O
   0.2395538900000000    0.7604461100000000    0.2395538900000000 O
   0.7604461100000000    0.2395538900000000    0.7604461100000000 O
   0.2395538900000000    0.2395538900000000    0.7604461100000000 O
   0.7604461100000000    0.7604461100000000    0.2395538900000000 O
