Ba2 Cd2 P4 O14
1.0
   5.6573845499999997   -0.0090720000000000   -0.0069599900000000
   0.4363826600000000    7.0339597300000003   -0.0085064000000000
   0.0666053500000000    1.5222386000000001    7.4953346600000001
Ba Cd P O
2 2 4 14
direct
   0.7641615000000000    0.7637346000000000    0.5618507000000000 Ba
   0.2358385000000000    0.2362654000000000    0.4381493000000000 Ba
   0.7885309100000000    0.6516177399999999    0.0987894700000000 Cd
   0.2114690900000000    0.3483822600000000    0.9012105300000000 Cd
   0.2803384300000000    0.8342825800000000    0.9040444100000000 P
   0.7196615700000000    0.1657174200000000    0.0959555900000000 P
   0.2811511800000000    0.7319776600000000    0.2993709700000000 P
   0.7188488200000001    0.2680223400000000    0.7006290300000000 P
   0.5270699800000000    0.7404045900000000    0.8796671200000000 O
   0.4729300200000000    0.2595954100000000    0.1203328800000000 O
   0.2300333600000000    0.0330492500000000    0.7887480500000000 O
   0.7699666400000000    0.9669507500000000    0.2112519500000000 O
   0.0889438900000000    0.6880586900000000    0.8906798500000001 O
   0.9110561100000000    0.3119413100000000    0.1093201500000000 O
   0.5100368100000000    0.6015484100000000    0.3104797900000000 O
   0.4899631900000000    0.3984515900000000    0.6895202100000000 O
   0.9357699300000000    0.3923829400000000    0.6849635900000000 O
   0.0642300700000000    0.6076170600000000    0.3150364100000000 O
   0.7321520800000000    0.1253722800000000    0.8936664800000000 O
   0.2678479200000000    0.8746277200000000    0.1063335200000000 O
   0.7259872200000000    0.1404064500000000    0.5618265800000000 O
   0.2740127800000000    0.8595935500000000    0.4381734200000000 O
