Na2 Hg1 O2
1.0
  -1.6811624900000000    1.6811624900000000    6.6355454299999996
   1.6811624900000000   -1.6811624900000000    6.6355454299999996
   1.6811624900000000    1.6811624900000000   -6.6355454299999996
Na Hg O
2 1 2
direct
   0.6767582500000000    0.6767582500000000    0.0000000000000000 Na
   0.3232417500000000    0.3232417500000000    0.0000000000000000 Na
   0.0000000000000000    0.0000000000000000    0.0000000000000000 Hg
   0.8500761200000000    0.8500761200000000    0.0000000000000000 O
   0.1499238800000000    0.1499238800000000    0.0000000000000000 O
