Ba6 Si6 O18
1.0
   6.4864161400000002   -3.7538270400000000   -0.0045143900000000
   6.4864161400000002    3.7538270400000000   -0.0045143900000000
  -4.2223240400000002    0.0000000000000000   10.5168271000000004
Ba Si O
6 6 18
direct
   0.5000000000000000    0.0000000000000000    0.5000000000000000 Ba
   0.8485754900000000    0.3263144400000000    0.4991423100000000 Ba
   0.6736855600000000    0.1514245100000000    0.0008576900000000 Ba
   0.3263144400000000    0.8485754900000000    0.9991423100000000 Ba
   0.1514245100000000    0.6736855600000000    0.5008576900000000 Ba
   0.0000000000000000    0.5000000000000000    0.0000000000000000 Ba
   0.6569169500000001    0.5819012500000000    0.2468174000000000 Si
   0.1778362100000000    0.8221637899999999    0.2500000000000000 Si
   0.5819012500000000    0.6569169500000001    0.7468174000000000 Si
   0.4180987500000000    0.3430830500000000    0.2531826000000000 Si
   0.8221637899999999    0.1778362100000000    0.7500000000000000 Si
   0.3430830500000000    0.4180987500000000    0.7531826000000000 Si
   0.8036783600000000    0.6273713200000000    0.3808163500000000 O
   0.7134847200000000    0.5367004900000000    0.1117488400000000 O
   0.4168981200000000    0.7869828900000000    0.2480062100000000 O
   0.6273713200000000    0.8036783600000000    0.8808163500000000 O
   0.5367004900000000    0.7134847200000000    0.6117488400000000 O
   0.1204955400000000    0.9701611000000000    0.3841381300000000 O
   0.6221400600000000    0.3778599400000000    0.2500000000000000 O
   0.0298389000000000    0.8795044600000000    0.1158618700000000 O
   0.7869828900000000    0.4168981200000000    0.7480062100000000 O
   0.2130171100000000    0.5831018800000000    0.2519937900000000 O
   0.9701611000000000    0.1204955400000000    0.8841381300000000 O
   0.3778599400000000    0.6221400600000000    0.7500000000000000 O
   0.8795044600000000    0.0298389000000000    0.6158618700000000 O
   0.4632995100000000    0.2865152800000000    0.3882511600000000 O
   0.3726286800000000    0.1963216400000000    0.1191836500000000 O
   0.5831018800000000    0.2130171100000000    0.7519937900000000 O
   0.2865152800000000    0.4632995100000000    0.8882511600000000 O
   0.1963216400000000    0.3726286800000000    0.6191836500000000 O
