Li2 La2 P8 O24
1.0
   8.3075630799999995   -3.5548673100000001   -0.0188802500000000
   8.3075630799999995    3.5548673100000001   -0.0188802500000000
  -5.9143584400000000    0.0000000000000000    7.9876137199999997
Li La P O
2 2 8 24
direct
   0.2005671300000000    0.7994328700000000    0.2500000000000000 Li
   0.7994328700000000    0.2005671300000000    0.7500000000000000 Li
   0.6991558500000000    0.3008441500000000    0.2500000000000000 La
   0.3008441500000000    0.6991558500000000    0.7500000000000000 La
   0.0786646300000000    0.1975972500000000    0.6640207100000000 P
   0.8024027500000001    0.9213353700000000    0.8359792900000000 P
   0.9213353700000000    0.8024027500000001    0.3359792900000000 P
   0.1975972500000000    0.0786646300000000    0.1640207100000000 P
   0.1906479100000000    0.5119037600000000    0.9036873100000000 P
   0.4880962400000000    0.8093520900000000    0.5963126900000000 P
   0.8093520900000000    0.4880962400000000    0.0963126900000000 P
   0.5119037600000000    0.1906479100000000    0.4036873100000000 P
   0.8916572900000000    0.3364821600000000    0.5504981000000000 O
   0.6635178400000000    0.1083427100000000    0.9495019000000000 O
   0.1083427100000000    0.6635178400000000    0.4495019000000000 O
   0.3364821600000000    0.8916572900000000    0.0504981000000000 O
   0.1543485600000000    0.3328251500000000    0.8445089000000000 O
   0.6671748500000000    0.8456514400000000    0.6554911000000000 O
   0.8456514400000000    0.6671748500000000    0.1554911000000000 O
   0.3328251500000000    0.1543485600000000    0.3445089000000000 O
   0.9419301700000000    0.9271306200000000    0.2982396700000000 O
   0.0728693800000000    0.0580698300000000    0.2017603300000000 O
   0.0580698300000000    0.0728693800000000    0.7017603300000000 O
   0.9271306200000000    0.9419301700000000    0.7982396700000000 O
   0.2755250000000000    0.0449696300000000    0.5890729400000000 O
   0.9550303700000000    0.7244750000000000    0.9109270600000000 O
   0.7244750000000000    0.9550303700000000    0.4109270600000000 O
   0.0449696300000000    0.2755250000000000    0.0890729400000000 O
   0.3238727900000000    0.5264441500000000    0.0833137300000000 O
   0.4735558500000000    0.6761272100000000    0.4166862700000000 O
   0.6761272100000000    0.4735558500000000    0.9166862700000000 O
   0.5264441500000000    0.3238727900000000    0.5833137300000000 O
   0.4857537400000000    0.2550915000000000    0.2782357500000000 O
   0.7449085000000000    0.5142462600000000    0.2217642500000000 O
   0.5142462600000000    0.7449085000000000    0.7217642500000000 O
   0.2550915000000000    0.4857537400000000    0.7782357500000000 O
