Rb4 Nb2 Ag2 Se8
1.0
   0.0000000000000000    6.8889689599999997   12.0136921500000007
   3.0318575700000001    0.0000000000000000   12.0136921500000007
   3.0318575700000001    6.8889689599999997    0.0000000000000000
Rb Nb Ag Se
4 2 2 8
direct
   0.3188992700000000    0.3188992700000000    0.6811007300000000 Rb
   0.9311007300000000    0.9311007300000000    0.5688992700000000 Rb
   0.6811007300000000    0.6811007300000000    0.3188992700000000 Rb
   0.5688992700000000    0.5688992700000000    0.9311007300000000 Rb
   0.7500000000000000    0.7500000000000000    0.7500000000000000 Nb
   0.5000000000000000    0.5000000000000000    0.5000000000000000 Nb
   0.2500000000000000    0.2500000000000000    0.2500000000000000 Ag
   0.0000000000000000    0.0000000000000000    0.0000000000000000 Ag
   0.3616532200000000    0.0204245000000000    0.9292086600000000 Se
   0.5612863800000000    0.3207913400000000    0.2295755000000000 Se
   0.2295755000000000    0.8883467800000000    0.5612863800000000 Se
   0.3207913400000000    0.5612863800000000    0.8883467800000000 Se
   0.6887136200000000    0.9292086600000000    0.0204245000000000 Se
   0.9292086600000000    0.6887136200000000    0.3616532200000000 Se
   0.0204245000000000    0.3616532200000000    0.6887136200000000 Se
   0.8883467800000000    0.2295755000000000    0.3207913400000000 Se
