Ba5 Nb4 O15
1.0
   5.8314197200000004    0.0000000000000000    0.0000000000000000
  -2.9157103599999998    5.0501584499999996    0.0000000000000000
   0.0000000000000000    0.0000000000000000   11.8680795600000000
Ba Nb O
5 4 15
direct
   0.6666670000000000    0.3333330000000000    0.5688961400000000 Ba
   0.3333330000000000    0.6666670000000000    0.4311038600000000 Ba
   0.6666670000000000    0.3333330000000000    0.2124246700000000 Ba
   0.3333330000000000    0.6666670000000000    0.7875753300000000 Ba
   0.0000000000000000    0.0000000000000000    0.0000000000000000 Ba
   0.6666670000000000    0.3333330000000000    0.8957066299999999 Nb
   0.3333330000000000    0.6666670000000000    0.1042933700000000 Nb
   0.0000000000000000    0.0000000000000000    0.3158845600000000 Nb
   0.0000000000000000    0.0000000000000000    0.6841154400000000 Nb
   0.8341254400000000    0.1658745600000000    0.3885815500000000 O
   0.8341254400000000    0.6682508800000000    0.3885815500000000 O
   0.3317491200000000    0.1658745600000000    0.3885815500000000 O
   0.6682508800000000    0.8341254400000000    0.6114184499999999 O
   0.1658745600000000    0.3317491200000000    0.6114184499999999 O
   0.1658745600000000    0.8341254400000000    0.6114184499999999 O
   0.8325939100000000    0.1674060900000000    0.8075595400000000 O
   0.8325939100000000    0.6651878200000000    0.8075595400000000 O
   0.3348121800000000    0.1674060900000000    0.8075595400000000 O
   0.5000000000000000    0.0000000000000000    0.0000000000000000 O
   0.0000000000000000    0.5000000000000000    0.0000000000000000 O
   0.5000000000000000    0.5000000000000000    0.0000000000000000 O
   0.1674060900000000    0.8325939100000000    0.1924404600000000 O
   0.1674060900000000    0.3348121800000000    0.1924404600000000 O
   0.6651878200000000    0.8325939100000000    0.1924404600000000 O
