Ba3 Ge2 B6 O16
1.0
   5.1113857600000001   -0.0224134400000000    0.0142029800000000
   0.2094374500000000    7.6621192300000001    0.0158459300000000
   1.9069525199999999    1.8332794100000001    8.2519522599999995
Ba Ge B O
3 2 6 16
direct
   0.5000000000000000    0.5000000000000000    0.0000000000000000 Ba
   0.3851622500000000    0.9203974600000000    0.2555429500000000 Ba
   0.6148377500000000    0.0796025400000000    0.7444570500000000 Ba
   0.7796711900000000    0.6694458000000000    0.5566429500000000 Ge
   0.2203288100000000    0.3305542000000000    0.4433570500000000 Ge
   0.1987066500000000    0.7446246700000000    0.7045844999999999 B
   0.8012933500000000    0.2553753300000000    0.2954155000000000 B
   0.0318799100000000    0.4078318300000000    0.7555543600000000 B
   0.9681200900000000    0.5921681700000000    0.2444456400000000 B
   0.9597229300000000    0.8049918300000000    0.9709465400000000 B
   0.0402770700000000    0.1950081700000000    0.0290534600000000 B
   0.0620122100000000    0.7955436100000000    0.5668484100000000 O
   0.9379877900000000    0.2044563900000000    0.4331515900000000 O
   0.7926636900000000    0.4517011900000000    0.6803326800000000 O
   0.2073363100000000    0.5482988100000000    0.3196673200000000 O
   0.4936214500000000    0.7840927900000000    0.6369217600000000 O
   0.5063785500000000    0.2159072100000000    0.3630782400000000 O
   0.2366709500000000    0.3225852600000000    0.6471470700000000 O
   0.7633290500000000    0.6774147400000000    0.3528529300000000 O
   0.1355263600000000    0.5616026100000000    0.7975794100000000 O
   0.8644736400000000    0.4383973900000000    0.2024205900000000 O
   0.6924040500000000    0.8226458200000000    0.9960679000000000 O
   0.3075959500000000    0.1773541800000000    0.0039321000000000 O
   0.0877318400000000    0.7246542400000000    0.0942958600000000 O
   0.9122681600000000    0.2753457600000000    0.9057041400000000 O
   0.1262997100000000    0.8693942099999999    0.8161340300000000 O
   0.8737002900000000    0.1306057900000000    0.1838659700000000 O
