Na4 V4 Te4 O20
1.0
   5.8057978300000004    0.0000000000000000    0.0429409800000000
   0.0000000000000000   11.2445613200000007    0.0000000000000000
  -1.4891849699999999    0.0000000000000000    6.6022546000000002
Na V Te O
4 4 4 20
direct
   0.8210985700000000    0.7122669200000000    0.8137132500000001 Na
   0.1789014300000000    0.2122669200000000    0.6862867499999999 Na
   0.1789014300000000    0.2877330800000000    0.1862867500000000 Na
   0.8210985700000000    0.7877330800000000    0.3137132500000000 Na
   0.3285438500000000    0.8773671800000000    0.5874401500000000 V
   0.6714561500000000    0.3773671800000000    0.9125598500000000 V
   0.6714561500000000    0.1226328200000000    0.4125598500000000 V
   0.3285438500000000    0.6226328200000000    0.0874401500000000 V
   0.7623017700000000    0.0662965200000000    0.9104327500000000 Te
   0.2376982300000000    0.5662965200000000    0.5895672500000000 Te
   0.2376982300000000    0.9337034800000000    0.0895672500000000 Te
   0.7623017700000000    0.4337034800000000    0.4104327500000000 Te
   0.8781072200000000    0.9061734400000000    0.9792188200000000 O
   0.1218927800000000    0.4061734400000000    0.5207811800000000 O
   0.1218927800000000    0.0938265600000000    0.0207811800000000 O
   0.8781072200000000    0.5938265600000000    0.4792188200000000 O
   0.4303396100000000    0.9841126700000000    0.7799103100000000 O
   0.5696603900000000    0.4841126700000000    0.7200896900000000 O
   0.5696603900000000    0.0158873300000000    0.2200896900000000 O
   0.4303396100000000    0.5158873300000000    0.2799103100000000 O
   0.1415291800000000    0.7824775700000000    0.6670226700000000 O
   0.8584708200000000    0.2824775700000000    0.8329773300000000 O
   0.8584708200000000    0.2175224300000000    0.3329773300000000 O
   0.1415291800000000    0.7175224300000000    0.1670226700000000 O
   0.1637078000000000    0.5537763100000000    0.8567864300000000 O
   0.8362922000000000    0.0537763100000000    0.6432135700000000 O
   0.8362922000000000    0.4462236900000000    0.1432135700000000 O
   0.1637078000000000    0.9462236900000000    0.3567864300000000 O
   0.5507340700000000    0.7012504400000000    0.0373783300000000 O
   0.4492659300000000    0.2012504400000000    0.4626216700000000 O
   0.4492659300000000    0.2987495600000000    0.9626216700000000 O
   0.5507340700000000    0.7987495600000000    0.5373783300000000 O
