Na6 Sb2 O8
1.0
   5.7405170900000000    0.0000000000000000   -0.0072136600000000
   0.0000000000000000    6.5351549000000002    0.0000000000000000
  -1.8101289100000000    0.0000000000000000    5.1154477700000003
Na Sb O
6 2 8
direct
   0.0000000000000000    0.3844373700000000    0.2500000000000000 Na
   0.5000000000000000    0.3978427200000000    0.7500000000000000 Na
   0.5000000000000000    0.1259521200000000    0.2500000000000000 Na
   0.5000000000000000    0.8740478800000000    0.7500000000000000 Na
   0.0000000000000000    0.6155626300000000    0.7500000000000000 Na
   0.5000000000000000    0.6021572800000000    0.2500000000000000 Na
   0.0000000000000000    0.8673299200000000    0.2500000000000000 Sb
   0.0000000000000000    0.1326700800000000    0.7500000000000000 Sb
   0.7697476500000000    0.6634663600000000    0.0383362800000000 O
   0.2302523500000000    0.6634663600000000    0.4616637200000000 O
   0.2302523500000000    0.3365336400000000    0.9616637200000000 O
   0.7697476500000000    0.3365336400000000    0.5383362800000000 O
   0.8003577700000000    0.9021310700000000    0.5006304400000000 O
   0.1996422300000000    0.9021310700000000    0.9993695600000000 O
   0.8003577700000000    0.0978689300000000    0.0006304400000000 O
   0.1996422300000000    0.0978689300000000    0.4993695600000000 O
