Ca2 Mo2 O8
1.0
  -2.6082213099999998    2.6082212700000000    5.6630421200000001
   2.6082213099999998   -2.6082212700000000    5.6630421200000001
   2.6082212700000000    2.6082213099999998   -5.6630421200000001
Ca Mo O
2 2 8
direct
   0.2500000000000000    0.7500000000000000    0.5000000000000000 Ca
   0.5000000000000000    0.5000000000000000    0.0000000000000000 Ca
   0.7500000000000000    0.2500000000000000    0.5000000000000000 Mo
   0.0000000000000000    0.0000000000000000    0.0000000000000000 Mo
   0.8179393400000000    0.4082969600000000    0.8988978000000000 O
   0.5093981600000000    0.9190415300000000    0.1011022000000000 O
   0.6690415300000000    0.0679393400000000    0.9096433800000000 O
   0.1582969600000000    0.7593981600000000    0.0903566200000000 O
   0.9320606600000000    0.8417030400000000    0.6011022000000000 O
   0.2406018400000000    0.3309584700000000    0.3988978000000000 O
   0.0809584700000000    0.1820606600000000    0.5903566200000000 O
   0.5917030400000000    0.4906018400000000    0.4096433800000000 O
