Ag10 Te2 P2 O8
1.0
   6.9529243200000002    0.0000000000000000    0.0000000000000000
   0.0000000000000000    6.9529243200000002    0.0000000000000000
   0.0000000000000000    0.0000000000000000    7.1858238400000003
Ag Te P O
10 2 2 8
direct
   0.7729556300000000    0.7270443700000000    0.2001259800000000 Ag
   0.2270443700000000    0.7270443700000000    0.2001259800000000 Ag
   0.7729556300000000    0.2729556300000000    0.2001259800000000 Ag
   0.2270443700000000    0.2729556300000000    0.2001259800000000 Ag
   0.7270443700000000    0.7729556300000000    0.7998740200000000 Ag
   0.2729556300000000    0.7729556300000000    0.7998740200000000 Ag
   0.7270443700000000    0.2270443700000000    0.7998740200000000 Ag
   0.2729556300000000    0.2270443700000000    0.7998740200000000 Ag
   0.0000000000000000    0.5000000000000000    0.4610607900000000 Ag
   0.5000000000000000    0.0000000000000000    0.5389392100000000 Ag
   0.0000000000000000    0.5000000000000000    0.9989970500000001 Te
   0.5000000000000000    0.0000000000000000    0.0010029500000000 Te
   0.5000000000000000    0.5000000000000000    0.5000000000000000 P
   0.0000000000000000    0.0000000000000000    0.5000000000000000 P
   0.5000000000000000    0.3146184200000000    0.3778884200000000 O
   0.5000000000000000    0.6853815800000000    0.3778884200000000 O
   0.8146184200000000    0.0000000000000000    0.3778884200000000 O
   0.1853815800000000    0.0000000000000000    0.3778884200000000 O
   0.0000000000000000    0.1853815800000000    0.6221115800000000 O
   0.0000000000000000    0.8146184200000000    0.6221115800000000 O
   0.6853815800000000    0.5000000000000000    0.6221115800000000 O
   0.3146184200000000    0.5000000000000000    0.6221115800000000 O
