Zr6 N4 O6
1.0
   5.3245895900000004   -2.0495566400000000    0.0020366400000000
   5.3245895900000004    2.0495566400000000    0.0020366400000000
  -0.0552604000000000    0.0000000000000000   10.6776516800000003
Zr N O
6 4 6
direct
   0.8557504500000001    0.8557504500000001    0.4348087500000000 Zr
   0.8529578799999999    0.8529578799999999    0.0632658600000000 Zr
   0.8084727900000001    0.8084727900000001    0.7517590900000000 Zr
   0.1910074800000000    0.1910074800000000    0.2445620500000000 Zr
   0.1416888900000000    0.1416888900000000    0.9403627800000000 Zr
   0.1398300700000000    0.1398300700000000    0.5631497300000000 Zr
   0.7016886000000000    0.7016886000000000    0.5733749100000000 N
   0.6972518400000000    0.6972518400000000    0.9184832200000000 N
   0.7620608400000000    0.7620608400000000    0.2556614800000000 N
   0.2972846800000000    0.2972846800000000    0.0740459100000000 N
   0.9538332500000000    0.9538332500000000    0.8835491000000000 O
   0.9568726700000000    0.9568726700000000    0.6175062200000000 O
   0.0472627300000000    0.0472627300000000    0.3876819300000000 O
   0.0436240700000000    0.0436240700000000    0.1154822200000000 O
   0.3053577700000000    0.3053577700000000    0.4291062900000000 O
   0.2450589800000000    0.2450589800000000    0.7472004500000000 O
