Sb8 Mo4 O24
1.0
   7.4554570000000000    0.0268972200000000    0.0290756700000000
   0.8025073600000000    7.4584802000000003    0.0223379100000000
   3.4544653200000002    3.1767213299999999    9.0734754100000004
Sb Mo O
8 4 24
direct
   0.5639375800000000    0.6156109100000000    0.6714696900000000 Sb
   0.9234063600000000    0.8800071800000000    0.3350484000000000 Sb
   0.8862497000000000    0.4229834100000000    0.3367890400000000 Sb
   0.3799400500000000    0.9369167600000000    0.3308555800000000 Sb
   0.0765936400000000    0.1199928200000000    0.6649516000000000 Sb
   0.4360624200000000    0.3843890900000000    0.3285303100000000 Sb
   0.1137503000000000    0.5770165900000001    0.6632109600000000 Sb
   0.6200599500000000    0.0630832400000000    0.6691444200000000 Sb
   0.2299780200000000    0.7231898700000000    0.0008792200000000 Mo
   0.7269285900000000    0.7734750000000000    0.0128516000000000 Mo
   0.2730714100000000    0.2265250000000000    0.9871484000000000 Mo
   0.7700219800000000    0.2768101300000000    0.9991207800000000 Mo
   0.2669740700000000    0.4219219800000000    0.8099688900000001 O
   0.8842842200000000    0.1968495800000000    0.5578258400000000 O
   0.4227774300000000    0.7731255100000000    0.8103668000000001 O
   0.7744290500000000    0.9123203400000000    0.8095242300000000 O
   0.3746399500000000    0.7087145400000000    0.5623624600000000 O
   0.9717387900000000    0.2567183800000000    0.0624385100000000 O
   0.2473098000000000    0.0279437400000000    0.9345808600000000 O
   0.1157157800000000    0.8031504200000000    0.4421741600000000 O
   0.7025647699999999    0.8747195700000000    0.5603747500000000 O
   0.7976056100000000    0.6153542600000000    0.4417460500000000 O
   0.7463569400000000    0.5300623200000000    0.9386579900000001 O
   0.5772225700000000    0.2268744900000000    0.1896332000000000 O
   0.4718247700000000    0.7560792000000000    0.0620242700000000 O
   0.7526902000000000    0.9720562600000000    0.0654191400000000 O
   0.7330259300000000    0.5780780200000000    0.1900311100000000 O
   0.2974352300000000    0.1252804300000000    0.4396252500000000 O
   0.2023943900000000    0.3846457400000000    0.5582539500000000 O
   0.2255709500000000    0.0876796600000000    0.1904757700000000 O
   0.6253600499999999    0.2912854600000000    0.4376375400000000 O
   0.0282612100000000    0.7432816200000000    0.9375614900000000 O
   0.2536430600000000    0.4699376800000000    0.0613420100000000 O
   0.5281752300000000    0.2439208000000000    0.9379757300000000 O
   0.9107748400000000    0.2671929400000000    0.8099229600000000 O
   0.0892251600000000    0.7328070600000000    0.1900770400000000 O
