Sr2 Mg1 Mo1 O6
1.0
  -2.7749016800000001    2.7749017999999999    3.9892323300000001
   2.7749016800000001   -2.7749017999999999    3.9892323300000001
   2.7749017999999999    2.7749016800000001   -3.9892323300000001
Sr Mg Mo O
2 1 1 6
direct
   0.7500000000000000    0.2500000000000000    0.5000000000000000 Sr
   0.2500000000000000    0.7500000000000000    0.5000000000000000 Sr
   0.5000000000000000    0.5000000000000000    0.0000000000000000 Mg
   0.0000000000000000    0.0000000000000000    0.0000000000000000 Mo
   0.7576260000000000    0.7576260000000000    0.0000000000000000 O
   0.2423740000000000    0.2423740000000000    0.0000000000000000 O
   0.7994656300000000    0.7163727900000000    0.5158384300000000 O
   0.2005343700000000    0.2836272100000000    0.4841615700000000 O
   0.7163727900000000    0.2005343700000000    0.9169071600000001 O
   0.2836272100000000    0.7994656300000000    0.0830928400000000 O
