Cs2 Ca1 P2 O7
1.0
   5.1258923500000000   -2.9513956399999999   -0.0440925900000000
   5.1258923500000000    2.9513956399999999   -0.0440925900000000
  -3.4807801000000000    0.0000000000000000    6.5370372699999999
Cs Ca P O
2 1 2 7
direct
   0.7869745800000000    0.7869745800000000    0.3313047800000000 Cs
   0.2127244700000000    0.2127244700000000    0.6529583200000000 Cs
   0.0018732600000000    0.0018732600000000    0.9973614900000000 Ca
   0.4312705200000000    0.4312705200000000    0.2580676700000000 P
   0.5782694000000000    0.5782694000000000    0.7450009300000000 P
   0.6940537400000000    0.2613512400000000    0.1911857700000000 O
   0.2613512400000000    0.6940537400000000    0.1911857700000000 O
   0.2922398200000000    0.7272285100000000    0.7762357500000000 O
   0.7272285100000000    0.2922398200000000    0.7762357500000000 O
   0.2702090100000000    0.2702090100000000    0.2178692300000000 O
   0.7469750900000000    0.7469750900000000    0.8543432000000000 O
   0.5413293600000000    0.5413293600000000    0.5056503400000000 O
