Cs1 K2 Sc1 P2 O8
1.0
   5.5045076499999999    0.0000000000000000    0.0000000000000000
  -2.7522538299999999    4.7670428899999999    0.0000000000000000
   0.0000000000000000    0.0000000000000000    7.8306019400000002
Cs K Sc P O
1 2 1 2 8
direct
   0.0000000000000000    0.0000000000000000    0.5000000000000000 Cs
   0.3333330000000000    0.6666670000000000    0.2405315000000000 K
   0.6666670000000000    0.3333330000000000    0.7594685000000000 K
   0.0000000000000000    0.0000000000000000    0.0000000000000000 Sc
   0.3333330000000000    0.6666670000000000    0.7798534300000000 P
   0.6666670000000000    0.3333330000000000    0.2201465700000000 P
   0.3595708500000000    0.1797854300000000    0.1511430600000000 O
   0.8202145700000000    0.6404291500000000    0.1511430600000000 O
   0.8202145700000000    0.1797854300000000    0.1511430600000000 O
   0.6404291500000000    0.8202145700000000    0.8488569400000000 O
   0.1797854300000000    0.3595708500000000    0.8488569400000000 O
   0.1797854300000000    0.8202145700000000    0.8488569400000000 O
   0.6666670000000000    0.3333330000000000    0.4142575200000000 O
   0.3333330000000000    0.6666670000000000    0.5857424800000000 O
