Sr3 P6 N8 O6
1.0
   7.2964484499999998    0.0000001300000000    0.0000000000000000
  -3.6482248300000002    6.3189099300000002    0.0000000000000000
   0.0000000000000000    0.0000000000000000    6.0160743400000003
Sr P N O
3 6 8 6
direct
   0.6666670000000000    0.3333330000000000    0.3826711500000000 Sr
   0.0000000000000000    0.0000000000000000    0.5000000000000000 Sr
   0.3333330000000000    0.6666670000000000    0.6173288500000000 Sr
   0.8247928900000000    0.6020991500000000    0.8883615100000000 P
   0.6020991500000000    0.7773062500000000    0.1116384900000000 P
   0.3979008500000000    0.2226937500000000    0.8883615100000000 P
   0.1752071100000000    0.3979008500000000    0.1116384900000000 P
   0.7773062500000000    0.1752071100000000    0.8883615100000000 P
   0.2226937500000000    0.8247928900000000    0.1116384900000000 P
   0.3312660200000000    0.3029693700000000    0.1075394000000000 N
   0.6687339800000000    0.6970306300000000    0.8924606000000000 N
   0.6970306300000000    0.0282956500000000    0.1075394000000000 N
   0.9717043500000000    0.6687339800000000    0.1075394000000000 N
   0.3029693700000000    0.9717043500000000    0.8924606000000000 N
   0.3333330000000000    0.6666670000000000    0.0819459100000000 N
   0.6666670000000000    0.3333330000000000    0.9180540900000000 N
   0.0282956500000000    0.3312660200000000    0.8924606000000000 N
   0.0718164600000000    0.3627854500000000    0.3416785500000000 O
   0.3627854500000000    0.2909689900000000    0.6583214500000000 O
   0.2909689900000000    0.9281835400000000    0.3416785500000000 O
   0.7090310100000000    0.0718164600000000    0.6583214500000000 O
   0.9281835400000000    0.6372145500000000    0.6583214500000000 O
   0.6372145500000000    0.7090310100000000    0.3416785500000000 O
