Pb2 O2
1.0
   3.9881370000000000    0.0000000000000000    0.0000000000000000
   0.0000000000000000    3.9881370000000000    0.0000000000000000
   0.0000000000000000    0.0000000000000000    5.0211750000000004
Pb O
2 2
direct
   0.5000000000000000    0.0000000000000000    0.7353290000000000 Pb
   0.0000000000000000    0.5000000000000000    0.2646710000000000 Pb
   0.5000000000000000    0.5000000000000000    0.5000000000000000 O
   0.0000000000000000    0.0000000000000000    0.5000000000000000 O
