Be1 S1
1.0
   0.0000000000000000    2.4207212299999998    2.4207212299999998
   2.4207212299999998    0.0000000000000000    2.4207212299999998
   2.4207212299999998    2.4207212299999998    0.0000000000000000
Be S
1 1
direct
   0.0000000000000000    0.0000000000000000    0.0000000000000000 Be
   0.7500000000000000    0.7500000000000000    0.7500000000000000 S
