Y4 Mo6 O24
1.0
   7.3640432699999998    0.0000000000000000    0.0000000000000000
   0.0000000000000000    7.3640432699999998    0.0000000000000000
   0.0000000000000000    0.0000000000000000   10.5690833800000004
Y Mo O
4 6 24
direct
   0.6857977700000000    0.1857977700000000    0.2618291600000000 Y
   0.8142022300000000    0.6857977700000000    0.7381708400000000 Y
   0.3142022300000000    0.8142022300000000    0.2618291600000000 Y
   0.1857977700000000    0.3142022300000000    0.7381708400000000 Y
   0.5000000000000000    0.5000000000000000    0.0000000000000000 Mo
   0.0000000000000000    0.0000000000000000    0.0000000000000000 Mo
   0.7067867300000000    0.2067867300000000    0.6446230100000000 Mo
   0.7932132700000000    0.7067867300000000    0.3553769900000000 Mo
   0.2932132700000000    0.7932132700000000    0.6446230100000000 Mo
   0.2067867300000000    0.2932132700000000    0.3553769900000000 Mo
   0.3076318200000000    0.4582013900000000    0.9022046200000000 O
   0.1923681800000000    0.9582013900000000    0.0977953800000000 O
   0.6923681800000000    0.5417986100000000    0.9022046200000000 O
   0.8076318200000000    0.0417986100000000    0.0977953800000000 O
   0.5417986100000000    0.3076318200000000    0.0977953800000000 O
   0.9582013900000000    0.8076318200000000    0.9022046200000000 O
   0.4582013900000000    0.6923681800000000    0.0977953800000000 O
   0.0417986100000000    0.1923681800000000    0.9022046200000000 O
   0.9928865300000000    0.2246487500000000    0.2953293700000000 O
   0.5071134700000000    0.7246487500000000    0.7046706300000000 O
   0.0071134700000000    0.7753512500000000    0.2953293700000000 O
   0.4928865300000000    0.2753512500000000    0.7046706300000000 O
   0.7753512500000000    0.9928865300000000    0.7046706300000000 O
   0.7246487500000000    0.4928865300000000    0.2953293700000000 O
   0.2246487500000000    0.0071134700000000    0.7046706300000000 O
   0.2753512500000000    0.5071134700000000    0.2953293700000000 O
   0.6947119600000000    0.1947119600000000    0.4773697900000000 O
   0.8052880400000000    0.6947119600000000    0.5226302100000000 O
   0.3052880400000000    0.8052880400000000    0.4773697900000000 O
   0.1947119600000000    0.3052880400000000    0.5226302100000000 O
   0.8752614000000000    0.3752614000000000    0.6915114500000000 O
   0.6247386000000000    0.8752614000000000    0.3084885500000000 O
   0.1247386000000000    0.6247386000000000    0.6915114500000000 O
   0.3752614000000000    0.1247386000000000    0.3084885500000000 O
