Tl4 Bi4 P8 Se24
1.0
  12.4441984199999993    0.0000000000000000    0.0360291700000000
   0.0000000000000000    7.4206356600000003    0.0000000000000000
  -4.8619941400000002    0.0000000000000000   11.1313461599999997
Tl Bi P Se
4 4 8 24
direct
   0.4260035000000000    0.0736952600000000    0.1536323300000000 Tl
   0.4260035000000000    0.4263047400000000    0.6536323300000000 Tl
   0.5739965000000000    0.5736952600000000    0.3463676700000000 Tl
   0.5739965000000000    0.9263047400000000    0.8463676700000000 Tl
   0.8807980900000000    0.1406219000000000    0.6539363800000000 Bi
   0.1192019100000000    0.6406219000000000    0.8460636200000000 Bi
   0.8807980900000000    0.3593781000000000    0.1539363800000000 Bi
   0.1192019100000000    0.8593781000000000    0.3460636200000000 Bi
   0.2381660000000000    0.9084602000000001    0.6943683500000000 P
   0.7618340000000000    0.4084602000000000    0.8056316500000000 P
   0.2381660000000000    0.5915397999999999    0.1943683500000000 P
   0.2379092300000000    0.1330063700000000    0.8180937700000001 P
   0.7620907700000000    0.8669936300000000    0.1819062300000000 P
   0.7620907700000000    0.6330063700000000    0.6819062299999999 P
   0.7618340000000000    0.0915398000000000    0.3056316500000000 P
   0.2379092300000000    0.3669936300000000    0.3180937700000000 P
   0.6614368100000000    0.1922880200000000    0.6822330400000000 Se
   0.1119686000000000    0.3240987000000000    0.6906798800000000 Se
   0.6614368100000000    0.3077119800000000    0.1822330400000000 Se
   0.5857487100000000    0.7418974300000000    0.5976155600000000 Se
   0.4142512900000000    0.2581025700000000    0.4023844400000000 Se
   0.9465735100000000    0.3119923800000000    0.8880618100000000 Se
   0.6891323600000000    0.9838507300000000    0.4296960800000000 Se
   0.4142512900000000    0.2418974300000000    0.9023844400000000 Se
   0.3108676400000000    0.0161492700000000    0.5703039200000000 Se
   0.0534264900000000    0.6880076200000000    0.1119381900000000 Se
   0.5857487100000000    0.7581025700000000    0.0976155600000000 Se
   0.8302175700000000    0.5095323600000000    0.5555001500000000 Se
   0.8880314000000000    0.6759013000000000    0.3093201200000000 Se
   0.3108676400000000    0.4838507300000000    0.0703039200000000 Se
   0.9465735100000000    0.1880076200000000    0.3880618100000000 Se
   0.6891323600000000    0.5161492700000000    0.9296960800000000 Se
   0.1697824300000000    0.4904676400000000    0.4444998500000000 Se
   0.3385631900000000    0.8077119800000000    0.3177669600000000 Se
   0.0534264900000000    0.8119923800000000    0.6119381900000000 Se
   0.8880314000000000    0.8240987000000000    0.8093201200000000 Se
   0.1119686000000000    0.1759013000000000    0.1906798800000000 Se
   0.3385631900000000    0.6922880200000000    0.8177669600000000 Se
   0.8302175700000000    0.9904676400000000    0.0555001500000000 Se
   0.1697824300000000    0.0095323600000000    0.9444998500000000 Se
