Ti2 Sb2 Pb4 O13
1.0
  -3.6807449999999999    3.7009761499999998    5.2187092599999998
   3.6807449999999999   -3.7009761499999998    5.2187092599999998
   3.6807449999999999    3.7009761499999998   -5.2187092599999998
Ti Sb Pb O
2 2 4 13
direct
   0.6257199600000000    0.8766802299999999    0.2509592700000000 Ti
   0.6257199600000000    0.3747606800000000    0.7490407300000000 Ti
   0.6251623800000000    0.3748101000000000    0.2503522800000000 Sb
   0.1244578300000000    0.3748101000000000    0.7496477200000000 Sb
   0.1274800900000000    0.3827635800000000    0.2552834800000000 Pb
   0.1274800900000000    0.8721966100000000    0.7447165200000000 Pb
   0.1266340000000000    0.8732405700000000    0.2533934300000000 Pb
   0.6198471400000000    0.8732405700000000    0.7466065700000000 Pb
   0.5533163000000000    0.4441430800000000    0.4983650800000000 O
   0.9457780099999999    0.4441430800000000    0.8908277800000000 O
   0.9472425700000000    0.4472425700000000    0.5000000000000000 O
   0.9457780099999999    0.0549502300000000    0.5016349200000000 O
   0.5533163000000000    0.0549502300000000    0.1091722200000000 O
   0.5587340000000000    0.0587340000000000    0.5000000000000000 O
   0.0011440500000000    0.0011440500000000    0.0000000000000000 O
   0.3001237400000000    0.6970492200000000    0.9981952700000000 O
   0.6988539499999999    0.6970492200000000    0.3969254800000000 O
   0.6950498200000000    0.6950498200000000    0.0000000000000000 O
   0.6988539499999999    0.3019284700000000    0.0018047300000000 O
   0.3001237400000000    0.3019284700000000    0.6030745199999999 O
   0.2994701000000000    0.2994701000000000    0.0000000000000000 O
