Rb4 Nb2 Ag2 S8
1.0
   0.0000000000000000    6.7330461899999996   11.6337774899999999
   2.9451390399999999    0.0000000000000000   11.6337774899999999
   2.9451390399999999    6.7330461899999996    0.0000000000000000
Rb Nb Ag S
4 2 2 8
direct
   0.3197929400000000    0.3197929400000000    0.6802070600000000 Rb
   0.9302070600000000    0.9302070600000000    0.5697929400000000 Rb
   0.6802070600000000    0.6802070600000000    0.3197929400000000 Rb
   0.5697929400000000    0.5697929400000000    0.9302070600000000 Rb
   0.7500000000000000    0.7500000000000000    0.7500000000000000 Nb
   0.5000000000000000    0.5000000000000000    0.5000000000000000 Nb
   0.2500000000000000    0.2500000000000000    0.2500000000000000 Ag
   0.0000000000000000    0.0000000000000000    0.0000000000000000 Ag
   0.3702824400000000    0.0152262500000000    0.9265625199999999 S
   0.5620712200000000    0.3234374800000000    0.2347737500000000 S
   0.2347737500000000    0.8797175600000000    0.5620712200000000 S
   0.3234374800000000    0.5620712200000000    0.8797175600000000 S
   0.6879287800000000    0.9265625199999999    0.0152262500000000 S
   0.9265625199999999    0.6879287800000000    0.3702824400000000 S
   0.0152262500000000    0.3702824400000000    0.6879287800000000 S
   0.8797175600000000    0.2347737500000000    0.3234374800000000 S
