Cs12 Ge4 O14
1.0
   7.1531724299999997    0.0000000000000000    0.0078764900000000
   0.0000000000000000    9.7812052999999999    0.0000000000000000
  -6.9305390800000000    0.0000000000000000    9.8416069400000001
Cs Ge O
12 4 14
direct
   0.6075320400000001    0.7823230200000000    0.7229042800000000 Cs
   0.9680215200000000    0.6459125600000000    0.0865033600000000 Cs
   0.2078819700000000    0.5262028700000000    0.4562944300000000 Cs
   0.7921180300000000    0.0262028700000000    0.0437055700000000 Cs
   0.3924679600000000    0.2823230200000000    0.7770957200000000 Cs
   0.0319784800000000    0.1459125600000000    0.4134966400000000 Cs
   0.9680215200000000    0.8540874400000000    0.5865033600000000 Cs
   0.6075320400000001    0.7176769800000000    0.2229042800000000 Cs
   0.2078819700000000    0.9737971300000000    0.9562944300000000 Cs
   0.7921180300000000    0.4737971300000000    0.5437055700000000 Cs
   0.0319784800000000    0.3540874400000000    0.9134966400000000 Cs
   0.3924679600000000    0.2176769800000000    0.2770957200000000 Cs
   0.3264305100000000    0.8642053700000000    0.3735461300000000 Ge
   0.6735694900000000    0.3642053700000000    0.1264538700000000 Ge
   0.3264305100000000    0.6357946300000000    0.8735461300000000 Ge
   0.6735694900000000    0.1357946300000000    0.6264538700000000 Ge
   0.5000000000000000    0.0000000000000000    0.5000000000000000 O
   0.7367968200000000    0.0804851900000000    0.7858742500000000 O
   0.4935138900000000    0.2835343500000000    0.5648763300000000 O
   0.9235513500000000    0.3412713400000000    0.1284040300000000 O
   0.0764486500000000    0.8412713400000000    0.3715959700000000 O
   0.5064861100000000    0.7835343500000000    0.9351236700000000 O
   0.2632031800000000    0.5804851900000000    0.7141257500000000 O
   0.5000000000000000    0.5000000000000000    0.0000000000000000 O
   0.7367968200000000    0.4195148100000000    0.2858742500000000 O
   0.4935138900000000    0.2164656500000000    0.0648763300000000 O
   0.9235513500000000    0.1587286600000000    0.6284040300000000 O
   0.0764486500000000    0.6587286600000000    0.8715959700000000 O
   0.5064861100000000    0.7164656500000000    0.4351236700000000 O
   0.2632031800000000    0.9195148100000000    0.2141257500000000 O
