Sr2 Ga4 S8
1.0
   2.9907052799999998   -5.1675839100000003    0.0000000000000000
   2.9907052799999998    5.1675839100000003    0.0000000000000000
   0.0000000000000000    0.0000000000000000   10.4028612799999998
Sr Ga S
2 4 8
direct
   0.5000000000000000    0.5000000000000000    0.7500000000000000 Sr
   0.5000000000000000    0.5000000000000000    0.2500000000000000 Sr
   0.7649753600000000    0.2378480100000000    0.5000000000000000 Ga
   0.2350246400000000    0.7621519900000000    0.5000000000000000 Ga
   0.7621519900000000    0.2350246400000000    0.0000000000000000 Ga
   0.2378480100000000    0.7649753600000000    0.0000000000000000 Ga
   0.3525268600000000    0.1857996200000000    0.5000000000000000 S
   0.6474731400000000    0.8142003799999999    0.5000000000000000 S
   0.8142003799999999    0.6474731400000000    0.0000000000000000 S
   0.1857996200000000    0.3525268600000000    0.0000000000000000 S
   0.5000000000000000    0.0000000000000000    0.8330278800000001 S
   0.0000000000000000    0.5000000000000000    0.6669721199999999 S
   0.5000000000000000    0.0000000000000000    0.1669721200000000 S
   0.0000000000000000    0.5000000000000000    0.3330278800000000 S
