Li2 V6 Te4 O24
1.0
   6.1524024099999997    0.0150147100000000   -0.0038790400000000
  -1.8121751800000001    6.7810550500000000    0.0006934700000000
  -0.6067456800000000   -0.4331778200000000   10.6946520899999999
Li V Te O
2 6 4 24
direct
   0.7901680300000000    0.7691817900000000    0.1099999100000000 Li
   0.2098319700000000    0.2308182100000000    0.8900000900000000 Li
   0.3897620900000000    0.8105343600000000    0.5766262400000000 V
   0.6108533200000000    0.2220005700000000    0.0855126500000000 V
   0.3891466800000000    0.7779994300000000    0.9144873500000000 V
   0.6507985700000000    0.2096481800000000    0.7567331600000000 V
   0.6102379100000001    0.1894656400000000    0.4233737600000000 V
   0.3492014300000000    0.7903518200000000    0.2432668400000000 V
   0.1517655500000000    0.2217172600000000    0.5905847000000000 Te
   0.8582853400000000    0.8135586200000000    0.7834854900000000 Te
   0.8482344500000000    0.7782827400000000    0.4094153000000000 Te
   0.1417146600000000    0.1864413800000000    0.2165145100000000 Te
   0.0894238200000000    0.9012452800000000    0.2201453700000000 O
   0.4926885100000000    0.8478476900000000    0.7457973600000000 O
   0.3844702100000000    0.8839182000000000    0.4097491800000000 O
   0.2928134400000000    0.2207186500000000    0.0651005400000000 O
   0.7071865600000000    0.7792813500000000    0.9348994600000000 O
   0.2122003000000000    0.5923930200000000    0.5756025299999999 O
   0.1828225500000000    0.5692069600000000    0.2395844900000000 O
   0.7877997000000000    0.4076069800000000    0.4243974700000000 O
   0.8574270600000000    0.0591074000000000    0.4050232200000000 O
   0.1425729400000000    0.9408926000000000    0.5949767800000000 O
   0.2707609800000000    0.5444302500000000    0.9032006600000000 O
   0.9105761800000000    0.0987547200000000    0.7798546300000000 O
   0.5073114900000000    0.1521523100000000    0.2542026400000000 O
   0.8171774500000000    0.4307930400000000    0.7604155100000000 O
   0.6155297900000000    0.1160818000000000    0.5902508200000000 O
   0.7292390200000000    0.4555697500000000    0.0967993400000000 O
   0.6291845200000000    0.7242299400000000    0.2706122500000000 O
   0.4206251800000000    0.8441262300000000    0.0819140900000000 O
   0.8499352100000001    0.1181046000000000    0.1199758400000000 O
   0.1500647900000000    0.8818954000000000    0.8800241600000001 O
   0.3708154800000000    0.2757700600000000    0.7293877500000000 O
   0.3474476200000000    0.2676990800000000    0.4549522000000000 O
   0.6525523800000000    0.7323009200000000    0.5450478000000000 O
   0.5793748200000000    0.1558737700000000    0.9180859099999999 O
