Rb8 Pb4 O12
1.0
   6.0769845800000004    0.0000000000000000    0.0000000000000000
   0.0000000000000000   10.9122912500000009    0.0000000000000000
   0.0000000000000000    0.0000000000000000    7.3274303900000000
Rb Pb O
8 4 12
direct
   0.7669120699999999    0.9131642599999999    0.3909869100000000 Rb
   0.7330879300000001    0.0868357400000000    0.8909869100000000 Rb
   0.2669120700000000    0.9131642599999999    0.1090130900000000 Rb
   0.2669120700000000    0.5868357400000001    0.1090130900000000 Rb
   0.2330879300000000    0.4131642600000000    0.6090130900000000 Rb
   0.7330879300000001    0.4131642600000000    0.8909869100000000 Rb
   0.2330879300000000    0.0868357400000000    0.6090130900000000 Rb
   0.7669120699999999    0.5868357400000001    0.3909869100000000 Rb
   0.2680811500000000    0.2500000000000000    0.1566065700000000 Pb
   0.7319188500000000    0.7500000000000000    0.8433934300000000 Pb
   0.7680811500000000    0.2500000000000000    0.3433934300000000 Pb
   0.2319188500000000    0.7500000000000000    0.6566065700000000 Pb
   0.0065030200000000    0.3813798000000000    0.2248024200000000 O
   0.1496914400000000    0.7500000000000000    0.3836808400000000 O
   0.4934969800000000    0.8813798000000000    0.7248024199999999 O
   0.9934969800000000    0.8813798000000000    0.7751975800000001 O
   0.0065030200000000    0.1186202000000000    0.2248024200000000 O
   0.8503085600000000    0.2500000000000000    0.6163191600000000 O
   0.4934969800000000    0.6186202000000000    0.7248024199999999 O
   0.3503085600000000    0.2500000000000000    0.8836808400000000 O
   0.6496914400000000    0.7500000000000000    0.1163191600000000 O
   0.5065030200000000    0.3813798000000000    0.2751975800000000 O
   0.5065030200000000    0.1186202000000000    0.2751975800000000 O
   0.9934969800000000    0.6186202000000000    0.7751975800000001 O
