Cs1 Nb1 P2 O8
1.0
   4.3978611000000001   -2.6466630000000002    0.0014318200000000
   4.3978611000000001    2.6466630000000002    0.0014318200000000
  -0.5108184000000000    0.0000000000000000    8.7851765200000003
Cs Nb P O
1 1 2 8
direct
   0.0000000000000000    0.0000000000000000    0.0000000000000000 Cs
   0.0000000000000000    0.0000000000000000    0.5000000000000000 Nb
   0.6435354300000000    0.6435354300000000    0.3036942000000000 P
   0.3564645700000000    0.3564645700000000    0.6963058000000000 P
   0.6872689000000000    0.2165102400000000    0.6523388500000000 O
   0.2128359600000000    0.2128359600000000    0.5825599600000000 O
   0.3207677600000000    0.3207677600000000    0.8593688100000000 O
   0.2165102400000000    0.6872689000000000    0.6523388500000000 O
   0.6792322400000000    0.6792322400000000    0.1406311900000000 O
   0.7871640400000000    0.7871640400000000    0.4174400400000000 O
   0.7834897600000000    0.3127311000000000    0.3476611500000000 O
   0.3127311000000000    0.7834897600000000    0.3476611500000000 O
