Rb2 Ta2 Ge2 S10
1.0
   6.9486027600000000   -0.0024405400000000    0.0222131800000000
   1.7568847800000000    6.7838515800000003   -0.0356127500000000
   1.8637226600000001    2.7398945499999998    8.4527003300000008
Rb Ta Ge S
2 2 2 10
direct
   0.5953418100000000    0.3669534600000000    0.3073943900000000 Rb
   0.4046581900000000    0.6330465400000000    0.6926056100000000 Rb
   0.2481106400000000    0.0014206100000000    0.0029088200000000 Ta
   0.7518893600000000    0.9985793900000000    0.9970911800000000 Ta
   0.9767186600000000    0.7083444900000000    0.3764850900000000 Ge
   0.0232813400000000    0.2916555100000000    0.6235149100000000 Ge
   0.0647507600000000    0.7447794200000000    0.0125424600000000 S
   0.4349726100000000    0.2355970200000000    0.0317724300000000 S
   0.6832970200000000    0.8702111300000001    0.2952017200000000 S
   0.2143032000000000    0.8936724700000001    0.2956059000000000 S
   0.0748395500000000    0.3850445200000000    0.3541792300000000 S
   0.9251604500000000    0.6149554800000000    0.6458207700000000 S
   0.7856968000000000    0.1063275300000000    0.7043941000000000 S
   0.3167029800000000    0.1297888700000000    0.7047982800000000 S
   0.5650273900000000    0.7644029800000000    0.9682275700000000 S
   0.9352492400000000    0.2552205800000000    0.9874575400000000 S
