Ag10 Sb2 S8
1.0
   3.8557058700000000   -6.1006852299999998    0.0000000000000000
   3.8557058700000000    6.1006852299999998    0.0000000000000000
   0.0000000000000000    0.0000000000000000    8.3219471600000006
Ag Sb S
10 2 8
direct
   0.2438278300000000    0.1353997800000000    0.8223761200000000 Ag
   0.8056635400000000    0.5591181500000000    0.5142451300000001 Ag
   0.5591181500000000    0.8056635400000000    0.0142451300000000 Ag
   0.4408818500000000    0.1943364600000000    0.5142451300000001 Ag
   0.8646002200000000    0.7561721700000000    0.8223761200000000 Ag
   0.1353997800000000    0.2438278300000000    0.3223761200000000 Ag
   0.8544700800000000    0.1455299200000000    0.6740509099999999 Ag
   0.1455299200000000    0.8544700800000000    0.1740509100000000 Ag
   0.1943364600000000    0.4408818500000000    0.0142451300000000 Ag
   0.7561721700000000    0.8646002200000000    0.3223761200000000 Ag
   0.3211291800000000    0.6788708200000000    0.5935625000000000 Sb
   0.6788708200000000    0.3211291800000000    0.0935625000000000 Sb
   0.4939883700000000    0.9731881600000000    0.7740915900000001 S
   0.5060116300000000    0.0268118400000000    0.2740915900000000 S
   0.5097995800000000    0.4902004200000000    0.7057412900000000 S
   0.4902004200000000    0.5097995800000000    0.2057412900000000 S
   0.0305980900000000    0.9694019100000000    0.5307206400000000 S
   0.9694019100000000    0.0305980900000000    0.0307206400000000 S
   0.0268118400000000    0.5060116300000000    0.7740915900000001 S
   0.9731881600000000    0.4939883700000000    0.2740915900000000 S
