Ba3 Ca1 Nb2 O9
1.0
   5.9307312899999998    0.0000000000000000    0.0000000000000000
  -2.9653656499999999    5.1361641300000000    0.0000000000000000
   0.0000000000000000    0.0000000000000000    7.3136018500000004
Ba Ca Nb O
3 1 2 9
direct
   0.0000000000000000    0.0000000000000000    0.0000000000000000 Ba
   0.3333330000000000    0.6666670000000000    0.6669796600000000 Ba
   0.6666670000000000    0.3333330000000000    0.3330203400000000 Ba
   0.0000000000000000    0.0000000000000000    0.5000000000000000 Ca
   0.3333330000000000    0.6666670000000000    0.1690161400000000 Nb
   0.6666670000000000    0.3333330000000000    0.8309838600000000 Nb
   0.1753201300000000    0.8246798700000000    0.3160578500000000 O
   0.8246798700000000    0.1753201300000000    0.6839421500000000 O
   0.1753201300000000    0.3506402600000000    0.3160578500000000 O
   0.8246798700000000    0.6493597400000000    0.6839421500000000 O
   0.6493597400000000    0.8246798700000000    0.3160578500000000 O
   0.3506402600000000    0.1753201300000000    0.6839421500000000 O
   0.5000000000000000    0.0000000000000000    0.0000000000000000 O
   0.0000000000000000    0.5000000000000000    0.0000000000000000 O
   0.5000000000000000    0.5000000000000000    0.0000000000000000 O
