La2 Ta6 O18
1.0
   8.3555129299999997   -2.7863735900000002   -0.0008946300000000
   8.3555129299999997    2.7863735900000002   -0.0008946300000000
  -5.5709812000000003    0.0000000000000000    7.9246761799999996
La Ta O
2 6 18
direct
   0.3328588500000000    0.3328588500000000    0.9992961700000000 La
   0.6671411500000000    0.6671411500000000    0.0007038300000000 La
   0.5841977000000000    0.5841977000000000    0.2521137800000000 Ta
   0.7486561700000000    0.7486561700000000    0.7380186700000000 Ta
   0.9224893000000000    0.9224893000000000    0.2579786300000000 Ta
   0.0775107000000000    0.0775107000000000    0.7420213700000000 Ta
   0.2513438300000000    0.2513438300000000    0.2619813300000000 Ta
   0.4158023000000000    0.4158023000000000    0.7478862200000000 Ta
   0.0956240900000000    0.5743036100000000    0.7676586200000000 O
   0.6654166900000000    0.6654166900000000    0.4973745900000000 O
   0.5000000000000000    0.5000000000000000    0.0000000000000000 O
   0.9244379300000000    0.4245360300000000    0.7736562100000000 O
   0.5743036100000000    0.0956240900000000    0.7676586200000000 O
   0.7291808700000000    0.2505174900000000    0.2312798700000000 O
   0.7494825100000000    0.2708191300000000    0.7687201299999999 O
   0.4245360300000000    0.9244379300000000    0.7736562100000000 O
   0.2505174900000000    0.7291808700000000    0.2312798700000000 O
   0.0000000000000000    0.0000000000000000    0.5000000000000000 O
   0.5754639700000000    0.0755620700000000    0.2263437900000000 O
   0.1751611700000000    0.1751611700000000    0.0005249500000000 O
   0.8248388300000000    0.8248388300000000    0.9994750500000000 O
   0.2708191300000000    0.7494825100000000    0.7687201299999999 O
   0.4256963900000000    0.9043759099999999    0.2323413800000000 O
   0.0755620700000000    0.5754639700000000    0.2263437900000000 O
   0.9043759099999999    0.4256963900000000    0.2323413800000000 O
   0.3345833100000000    0.3345833100000000    0.5026254100000001 O
