Rb12 Sb4 Se12
1.0
  10.1050401200000000    0.0000000000000000    0.0000000000000000
   0.0000000000000000   10.1050401200000000    0.0000000000000000
   0.0000000000000000    0.0000000000000000   10.1050401200000000
Rb Sb Se
12 4 12
direct
   0.3179690900000000    0.3179690900000000    0.3179690900000000 Rb
   0.1820309100000000    0.6820309100000000    0.8179690900000000 Rb
   0.8179690900000000    0.1820309100000000    0.6820309100000000 Rb
   0.6820309100000000    0.8179690900000000    0.1820309100000000 Rb
   0.5755399000000000    0.5755399000000000    0.5755399000000000 Rb
   0.9244601000000000    0.4244601000000000    0.0755399000000000 Rb
   0.0755399000000000    0.9244601000000000    0.4244601000000000 Rb
   0.4244601000000000    0.0755399000000000    0.9244601000000000 Rb
   0.8128344900000000    0.8128344900000000    0.8128344900000000 Rb
   0.6871655100000000    0.1871655100000000    0.3128344900000000 Rb
   0.3128344900000000    0.6871655100000000    0.1871655100000000 Rb
   0.1871655100000000    0.3128344900000000    0.6871655100000000 Rb
   0.0287078100000000    0.0287078100000000    0.0287078100000000 Sb
   0.4712921900000000    0.9712921900000000    0.5287078100000000 Sb
   0.5287078100000000    0.4712921900000000    0.9712921900000000 Sb
   0.9712921900000000    0.5287078100000000    0.4712921900000000 Sb
   0.2144669400000000    0.6023735400000000    0.4956083700000000 Se
   0.4956083700000000    0.2144669400000000    0.6023735400000000 Se
   0.6023735400000000    0.4956083700000000    0.2144669400000000 Se
   0.8976264600000000    0.5043916300000000    0.7144669400000000 Se
   0.9956083700000000    0.2855330600000000    0.3976264600000000 Se
   0.3976264600000000    0.9956083700000000    0.2855330600000000 Se
   0.0043916300000000    0.7855330600000000    0.1023735400000000 Se
   0.5043916300000000    0.7144669400000000    0.8976264600000000 Se
   0.1023735400000000    0.0043916300000000    0.7855330600000000 Se
   0.7144669400000000    0.8976264600000000    0.5043916300000000 Se
   0.7855330600000000    0.1023735400000000    0.0043916300000000 Se
   0.2855330600000000    0.3976264600000000    0.9956083700000000 Se
