Ba8 In4 Te4 Se10
1.0
   8.5644747799999994    0.0000000000000000    0.0000000000000000
   0.0000000000000000    8.5644747799999994    0.0000000000000000
   0.0000000000000000    0.0000000000000000   11.2985607800000007
Ba In Te Se
8 4 4 10
direct
   0.6542336500000000    0.1542336500000000    0.0000000000000000 Ba
   0.3457663500000000    0.8457663500000000    0.0000000000000000 Ba
   0.8457663500000000    0.6542336500000000    0.0000000000000000 Ba
   0.1542336500000000    0.3457663500000000    0.0000000000000000 Ba
   0.5000000000000000    0.5000000000000000    0.7139121400000000 Ba
   0.0000000000000000    0.0000000000000000    0.7139121400000000 Ba
   0.5000000000000000    0.5000000000000000    0.2860878600000000 Ba
   0.0000000000000000    0.0000000000000000    0.2860878600000000 Ba
   0.5000000000000000    0.0000000000000000    0.6533964000000000 In
   0.0000000000000000    0.5000000000000000    0.6533964000000000 In
   0.5000000000000000    0.0000000000000000    0.3466036000000000 In
   0.0000000000000000    0.5000000000000000    0.3466036000000000 In
   0.6849798100000000    0.1849798100000000    0.5000000000000000 Te
   0.3150201900000000    0.8150201900000000    0.5000000000000000 Te
   0.8150201900000000    0.6849798100000000    0.5000000000000000 Te
   0.1849798100000000    0.3150201900000000    0.5000000000000000 Te
   0.6600549100000001    0.8399450899999999    0.8033427500000000 Se
   0.3399450900000000    0.1600549100000000    0.8033427500000000 Se
   0.8399450899999999    0.3399450900000000    0.8033427500000000 Se
   0.1600549100000000    0.6600549100000001    0.8033427500000000 Se
   0.3399450900000000    0.1600549100000000    0.1966572500000000 Se
   0.6600549100000001    0.8399450899999999    0.1966572500000000 Se
   0.1600549100000000    0.6600549100000001    0.1966572500000000 Se
   0.8399450899999999    0.3399450900000000    0.1966572500000000 Se
   0.5000000000000000    0.5000000000000000    0.0000000000000000 Se
   0.0000000000000000    0.0000000000000000    0.0000000000000000 Se
