Sr2 Y4 Si6 O20
1.0
   6.7472740599999996   -0.0043050800000000   -0.0118023200000000
   0.2599135900000000    6.8773918600000004    0.0286498200000000
   0.5966800900000000    2.8027672500000000    8.8181637800000008
Sr Y Si O
2 4 6 20
direct
   0.5978728700000000    0.9083316500000000    0.8166470700000000 Sr
   0.4021271300000000    0.0916683500000000    0.1833529300000000 Sr
   0.8639576700000000    0.2465085600000000    0.4945082000000000 Y
   0.1360423300000000    0.7534914400000000    0.5054918000000000 Y
   0.8405169800000000    0.7363154600000000    0.1894665000000000 Y
   0.1594830200000000    0.2636845400000000    0.8105335000000000 Y
   0.3289115700000000    0.2697072900000000    0.4613901800000000 Si
   0.6710884300000000    0.7302927100000000    0.5386098200000000 Si
   0.3355131600000000    0.6402215999999999    0.1680537700000000 Si
   0.6644868400000000    0.3597784000000000    0.8319462300000000 Si
   0.8789870500000000    0.2542112600000000    0.1285357400000000 Si
   0.1210129500000000    0.7457887400000000    0.8714642600000000 Si
   0.5361382500000000    0.2060778400000000    0.5412067400000000 O
   0.4638617500000000    0.7939221600000000    0.4587932600000000 O
   0.8236658300000000    0.6029511300000000    0.4534039500000000 O
   0.1763341700000000    0.3970488700000000    0.5465960500000000 O
   0.8201331400000000    0.9015705500000000    0.5637896300000000 O
   0.1798668600000000    0.0984294500000000    0.4362103700000000 O
   0.6119154200000000    0.5891337600000000    0.7186108600000000 O
   0.3880845800000000    0.4108662400000000    0.2813891400000000 O
   0.5314749700000000    0.7793164800000000    0.1167138700000000 O
   0.4685250300000000    0.2206835200000000    0.8832861300000000 O
   0.8323669400000000    0.2432052500000000    0.7505554500000000 O
   0.1676330600000000    0.7567947500000000    0.2494445500000000 O
   0.2613247800000000    0.6105851799999999    0.0110993400000000 O
   0.7386752200000000    0.3894148200000000    0.9889006600000000 O
   0.9101519300000001    0.7938368200000000    0.9480747700000000 O
   0.0898480700000000    0.2061631800000000    0.0519252300000000 O
   0.7686217000000000    0.0412316800000000    0.2177221300000000 O
   0.2313783000000000    0.9587683200000000    0.7822778700000000 O
   0.8860869300000001    0.3937878000000000    0.2429777000000000 O
   0.1139130700000000    0.6062122000000000    0.7570223000000000 O
