Na4 Mg1 Ge2 Se6
1.0
   3.8523847999999998   -5.9469535899999997    0.0020364000000000
   3.8523847999999998    5.9469535899999997    0.0020364000000000
  -2.0230196100000000    0.0000000000000000    6.7418292600000003
Na Mg Ge Se
4 1 2 6
direct
   0.4808931400000000    0.5191068599999999    0.0000000000000000 Na
   0.3271715500000000    0.6728284500000000    0.5000000000000000 Na
   0.0213689700000000    0.9786310300000000    0.5000000000000000 Na
   0.6514912300000000    0.3485087700000000    0.5000000000000000 Na
   0.8429821400000000    0.1570178600000000    0.0000000000000000 Mg
   0.0023659800000000    0.6696103000000000    0.9421769500000000 Ge
   0.3303897000000000    0.9976340200000000    0.0578230500000000 Ge
   0.7610875499999999    0.7729641800000000    0.7621112799999999 Se
   0.2270358200000000    0.2389124500000000    0.2378887200000000 Se
   0.9049740100000000    0.5483464300000001    0.2234595800000000 Se
   0.4516535700000000    0.0950259900000000    0.7765404200000000 Se
   0.0500237500000000    0.3979384000000000    0.7461674300000000 Se
   0.6020616000000000    0.9499762500000000    0.2538325700000000 Se
