Na6 Zn2 P2 C2 O14
1.0
   5.0794024999999996    0.0000000000000000   -0.0040452400000000
   0.0000000000000000    6.5202726999999996    0.0000000000000000
  -0.0262347100000000    0.0000000000000000    8.8026852499999997
Na Zn P C O
6 2 2 2 14
direct
   0.2402252700000000    0.7500000000000000    0.0840560500000000 Na
   0.7513346400000001    0.9992652500000000    0.2617756700000000 Na
   0.7513346400000001    0.5007347500000000    0.2617756700000000 Na
   0.2486653600000000    0.4992652500000000    0.7382243300000000 Na
   0.2486653600000000    0.0007347500000000    0.7382243300000000 Na
   0.7597747300000000    0.2500000000000000    0.9159439500000000 Na
   0.2208712300000000    0.2500000000000000    0.3592705000000000 Zn
   0.7791287700000000    0.7500000000000000    0.6407295000000000 Zn
   0.2912539500000000    0.7500000000000000    0.4154367700000000 P
   0.7087460500000000    0.2500000000000000    0.5845632300000000 P
   0.2641121600000000    0.2500000000000000    0.0640835400000000 C
   0.7358878400000000    0.7500000000000000    0.9359164600000000 C
   0.7043245700000000    0.7500000000000000    0.0816933100000000 O
   0.0307432900000000    0.2500000000000000    0.1224674000000000 O
   0.4669689300000000    0.2500000000000000    0.1545704200000000 O
   0.2168932400000000    0.9395584400000000    0.3175901800000000 O
   0.2168932400000000    0.5604415600000000    0.3175901800000000 O
   0.5949371100000000    0.7500000000000000    0.4437126400000000 O
   0.8483075100000000    0.2500000000000000    0.4294743800000000 O
   0.1516924900000000    0.7500000000000000    0.5705256200000000 O
   0.4050628900000000    0.2500000000000000    0.5562873600000000 O
   0.7831067600000000    0.4395584400000000    0.6824098199999999 O
   0.7831067600000000    0.0604415600000000    0.6824098199999999 O
   0.5330310700000001    0.7500000000000000    0.8454295800000000 O
   0.9692567100000000    0.7500000000000000    0.8775326000000000 O
   0.2956754300000000    0.2500000000000000    0.9183066900000000 O
