Cs4 Ge4 Bi4 S16
1.0
   6.5534535700000003    0.0000000000000000    0.0000902200000000
   0.0000000000000000    6.7932391000000001    0.0000000000000000
  -5.8239753600000004    0.0000000000000000   17.6606061600000004
Cs Ge Bi S
4 4 4 16
direct
   0.2688335000000000    0.2541028500000000    0.5323040100000000 Cs
   0.7311665000000001    0.7458971500000000    0.4676959900000000 Cs
   0.2688335000000000    0.2458971500000000    0.0323040100000000 Cs
   0.7311665000000001    0.7541028500000000    0.9676959900000000 Cs
   0.7892853200000000    0.2293649000000000    0.3351254900000000 Ge
   0.7892853200000000    0.2706351000000000    0.8351254900000000 Ge
   0.2107146800000000    0.7293649000000000    0.1648745100000000 Ge
   0.2107146800000000    0.7706351000000000    0.6648745100000000 Ge
   0.7650811000000000    0.7178380200000000    0.7240000900000000 Bi
   0.2349189000000000    0.2178380200000000    0.7759999100000000 Bi
   0.2349189000000000    0.2821619800000000    0.2759999100000000 Bi
   0.7650811000000000    0.7821619800000000    0.2240000900000000 Bi
   0.9691865500000000    0.0118341100000000    0.6428025900000000 S
   0.5835866800000000    0.2588400500000000    0.9094088000000000 S
   0.9942216600000000    0.4976585000000000    0.3479666600000000 S
   0.5762772400000000    0.3354230800000000    0.7173587200000000 S
   0.9691865500000000    0.4881658900000000    0.1428025900000000 S
   0.4164133200000000    0.7588400500000000    0.5905912000000000 S
   0.5835866800000000    0.2411599500000000    0.4094088000000000 S
   0.4237227600000000    0.8354230800000000    0.7826412800000000 S
   0.4164133200000000    0.7411599500000000    0.0905912000000000 S
   0.0308134500000000    0.9881658900000000    0.3571974100000000 S
   0.5762772400000000    0.1645769200000000    0.2173587200000000 S
   0.4237227600000000    0.6645769200000000    0.2826412800000000 S
   0.0308134500000000    0.5118341100000000    0.8571974100000000 S
   0.0057783400000000    0.5023415000000000    0.6520333400000000 S
   0.9942216600000000    0.0023415000000000    0.8479666600000000 S
   0.0057783400000000    0.9976585000000000    0.1520333400000000 S
