Tl8 Ge8 S20
1.0
   7.4657111499999997   -7.4392928700000001   -0.0296243400000000
   7.4657111499999997    7.4392928700000001   -0.0296243400000000
  -2.4724010999999999    0.0000000000000000    8.2869541299999998
Tl Ge S
8 8 20
direct
   0.1996170900000000    0.4576146600000000    0.6053768500000000 Tl
   0.5423853400000000    0.8003829099999999    0.8946231500000000 Tl
   0.8003829099999999    0.5423853400000000    0.3946231500000000 Tl
   0.4576146600000000    0.1996170900000000    0.1053768500000000 Tl
   0.9253086400000000    0.7972984500000000    0.8964390100000000 Tl
   0.2027015500000000    0.0746913600000000    0.6035609900000000 Tl
   0.0746913600000000    0.2027015500000000    0.1035609900000000 Tl
   0.7972984500000000    0.9253086400000000    0.3964390100000000 Tl
   0.2660429200000000    0.5193300600000000    0.0881307100000000 Ge
   0.4806699400000000    0.7339570800000000    0.4118692900000000 Ge
   0.7339570800000000    0.4806699400000000    0.9118692900000001 Ge
   0.5193300600000000    0.2660429200000000    0.5881307099999999 Ge
   0.8669171800000000    0.2702701100000000    0.6107414400000000 Ge
   0.7297298900000000    0.1330828200000000    0.8892585600000000 Ge
   0.1330828200000000    0.7297298900000000    0.3892585600000000 Ge
   0.2702701100000000    0.8669171800000000    0.1107414400000000 Ge
   0.1055628700000000    0.5307533500000000    0.2292446700000000 S
   0.4692466500000000    0.8944371300000000    0.2707553300000000 S
   0.8944371300000000    0.4692466500000000    0.7707553300000000 S
   0.5307533500000000    0.1055628700000000    0.7292446700000000 S
   0.7603094400000000    0.3275951200000000    0.0615311900000000 S
   0.6724048800000000    0.2396905600000000    0.4384688100000000 S
   0.2396905600000000    0.6724048800000000    0.9384688100000000 S
   0.3275951200000000    0.7603094400000000    0.5615311900000000 S
   0.2402694300000000    0.3301240300000000    0.9248106000000000 S
   0.6698759700000000    0.7597305700000000    0.5751894000000000 S
   0.7597305700000000    0.6698759700000000    0.0751894000000000 S
   0.3301240300000000    0.2402694300000000    0.4248106000000000 S
   0.9970336400000001    0.7571306900000000    0.5476661900000001 S
   0.2428693100000000    0.0029663600000000    0.9523338099999999 S
   0.0029663600000000    0.2428693100000000    0.4523338100000000 S
   0.7571306900000000    0.9970336400000001    0.0476661900000000 S
   0.1075873200000000    0.8924126800000000    0.2500000000000000 S
   0.8924126800000000    0.1075873200000000    0.7500000000000000 S
   0.4648315500000000    0.5351684500000000    0.2500000000000000 S
   0.5351684500000000    0.4648315500000000    0.7500000000000000 S
