Cr4 Ag4 O14
1.0
   6.5094373799999996    0.0336183500000000   -0.0173764200000000
  -0.5488766000000000    6.7827402599999997    0.0030059900000000
  -2.6017460899999998   -0.4820273700000000    6.5354722100000000
Cr Ag O
4 4 14
direct
   0.7559164700000000    0.6607577700000000    0.9798699900000000 Cr
   0.2440835300000000    0.3392422300000000    0.0201300100000000 Cr
   0.1989840900000000    0.8429741500000000    0.3151005300000000 Cr
   0.8010159100000001    0.1570258500000000    0.6848994700000000 Cr
   0.7551042800000000    0.1556737700000000    0.1800434100000000 Ag
   0.7312356500000000    0.6307624900000000    0.4535426100000000 Ag
   0.2448957200000000    0.8443262300000000    0.8199565900000000 Ag
   0.2687643500000000    0.3692375100000000    0.5464573900000000 Ag
   0.8466573100000000    0.2978164700000000    0.5162509800000000 O
   0.6286641200000000    0.8550694100000000    0.9976366900000000 O
   0.2704772400000000    0.4978595300000000    0.8592703500000000 O
   0.0414416900000000    0.7424727600000000    0.0609857300000000 O
   0.5437835600000001    0.1406186200000000    0.6609318100000000 O
   0.8881583199999999    0.9403309200000000    0.6641706100000000 O
   0.6637041500000000    0.5652879100000000    0.7449578600000000 O
   0.3713358800000000    0.1449305900000000    0.0023633100000000 O
   0.7295227600000000    0.5021404699999999    0.1407296500000000 O
   0.1118416800000000    0.0596690800000000    0.3358293900000000 O
   0.4562164400000000    0.8593813800000000    0.3390681900000000 O
   0.9585583100000000    0.2575272400000000    0.9390142700000000 O
   0.1533426900000000    0.7021835300000000    0.4837490200000000 O
   0.3362958500000000    0.4347120900000000    0.2550421400000000 O
