Na12 Zn2 Se8
1.0
   9.2268627700000003   -0.0000000100000000    0.0000000000000000
  -4.6134309000000000    7.9906972999999999    0.0000000000000000
   0.0000000000000000    0.0000000000000000    7.0506370100000000
Na Zn Se
12 2 8
direct
   0.7026015500000000    0.8513012800000000    0.5419975700000000 Na
   0.1486987200000000    0.8513012800000000    0.5419975700000000 Na
   0.1486987200000000    0.2973984500000000    0.5419975700000000 Na
   0.2973984500000000    0.1486987200000000    0.0419975700000000 Na
   0.8513012800000000    0.1486987200000000    0.0419975700000000 Na
   0.8513012800000000    0.7026015500000000    0.0419975700000000 Na
   0.9440792800000000    0.4720396400000000    0.3648926300000000 Na
   0.5279603600000000    0.4720396400000000    0.3648926300000000 Na
   0.5279603600000000    0.0559207200000000    0.3648926300000000 Na
   0.0559207200000000    0.5279603600000000    0.8648926300000001 Na
   0.4720396400000000    0.5279603600000000    0.8648926300000001 Na
   0.4720396400000000    0.9440792800000000    0.8648926300000001 Na
   0.3333330000000000    0.6666670000000000    0.2459405400000000 Zn
   0.6666670000000000    0.3333330000000000    0.7459405400000000 Zn
   0.3333330000000000    0.6666670000000000    0.5945345000000000 Se
   0.6666670000000000    0.3333330000000000    0.0945345000000000 Se
   0.6246719200000000    0.8123359600000000    0.1394474600000000 Se
   0.1876640400000000    0.8123359600000000    0.1394474600000000 Se
   0.1876640400000000    0.3753280800000000    0.1394474600000000 Se
   0.3753280800000000    0.1876640400000000    0.6394474600000000 Se
   0.8123359600000000    0.1876640400000000    0.6394474600000000 Se
   0.8123359600000000    0.6246719200000000    0.6394474600000000 Se
