Ca6 Si6 O18
1.0
   7.0693055500000002    0.0023176600000000    0.0076925900000000
  -0.0077874100000000    7.3154838700000004    0.0042233700000000
  -0.7540595000000000   -1.8442706200000001    7.6523087500000004
Ca Si O
6 6 18
direct
   0.5294910300000000    0.7513331900000000    0.5066106200000000 Ca
   0.4705089700000000    0.2486668100000000    0.4933893800000000 Ca
   0.7621455300000000    0.9287688200000001    0.2047248000000000 Ca
   0.2378544700000000    0.0712311800000000    0.7952752000000000 Ca
   0.7593318400000000    0.4241719000000000    0.2009806300000000 Ca
   0.2406681600000000    0.5758281000000000    0.7990193700000000 Ca
   0.0561778600000000    0.7240661000000000    0.3975369300000000 Si
   0.9438221400000000    0.2759339000000000    0.6024630700000000 Si
   0.2707452000000000    0.9524886400000000    0.1835598000000000 Si
   0.7292548000000000    0.0475113600000000    0.8164401999999999 Si
   0.2702044600000000    0.3890411600000000    0.1841871300000000 Si
   0.7297955400000000    0.6109588400000000    0.8158128700000000 Si
   0.0904979300000000    0.5111905400000000    0.2718501900000000 O
   0.9095020700000001    0.4888094600000000    0.7281498100000000 O
   0.0915393600000000    0.8712667800000000    0.2689784300000000 O
   0.9084606400000000    0.1287332200000000    0.7310215700000000 O
   0.2301807700000000    0.1795187200000000    0.2206309700000000 O
   0.7698192300000000    0.8204812800000000    0.7793690300000000 O
   0.8277657400000000    0.7271122200000000    0.4026753300000000 O
   0.1722342600000000    0.2728877800000000    0.5973246700000000 O
   0.2649761700000000    0.8661612400000001    0.9768824800000000 O
   0.7350238300000000    0.1338387600000000    0.0231175200000000 O
   0.2663123900000000    0.3734162600000000    0.9789029800000000 O
   0.7336876100000000    0.6265837399999999    0.0210970200000000 O
   0.5340796500000000    0.5333613400000000    0.6948539000000000 O
   0.4659203500000000    0.4666386600000000    0.3051461000000000 O
   0.5330584200000000    0.0655335100000000    0.6972337100000000 O
   0.4669415800000000    0.9344664900000000    0.3027662900000000 O
   0.7976224800000000    0.2302776000000000    0.4274276100000000 O
   0.2023775200000000    0.7697224000000000    0.5725723900000000 O
