Ba1 Si6 N8 O1
1.0
  -4.0674368999999997    4.8724380199999997    2.4213939600000001
   4.0674368999999997   -4.8724380199999997    2.4213939600000001
   4.0674368999999997    4.8724380199999997   -2.4213939600000001
Ba Si N O
1 6 8 1
direct
   0.5114326000000000    0.0114326000000000    0.5000000000000000 Ba
   0.1376403700000000    0.7825129300000000    0.9625977000000000 Si
   0.6356231900000000    0.4746558700000000    0.1609683100000000 Si
   0.1376403700000000    0.1750436700000000    0.3551284400000000 Si
   0.3136875600000000    0.4746558700000000    0.8390316900000000 Si
   0.8199152300000000    0.7825129300000000    0.6448715600000000 Si
   0.8199152300000000    0.1750436700000000    0.0374023000000000 Si
   0.9473116100000000    0.6729570400000000    0.7256454300000000 N
   0.5395880800000000    0.4926956800000000    0.3973742400000000 N
   0.9473116100000000    0.2216661900000000    0.2743545700000000 N
   0.6379071100000000    0.8253501000000000    0.8125560100000000 N
   0.5395880800000000    0.1422148400000000    0.0468924000000000 N
   0.0127940900000000    0.8253501000000000    0.1874439900000000 N
   0.0953214400000000    0.4926956800000000    0.9531076000000001 N
   0.0953214400000000    0.1422148400000000    0.6026257600000000 N
   0.3854959700000000    0.3854959700000000    0.0000000000000000 O
