Zn2 Ga4 O8
1.0
   0.0000000000000000    4.1520435200000003    4.1520435200000003
   4.1520435200000003    0.0000000000000000    4.1520435200000003
   4.1520435200000003    4.1520435200000003    0.0000000000000000
Zn Ga O
2 4 8
direct
   0.5000000000000000    0.5000000000000000    0.5000000000000000 Zn
   0.7500000000000000    0.7500000000000000    0.7500000000000000 Zn
   0.1250000000000000    0.6250000000000000    0.1250000000000000 Ga
   0.6250000000000000    0.1250000000000000    0.1250000000000000 Ga
   0.1250000000000000    0.1250000000000000    0.1250000000000000 Ga
   0.1250000000000000    0.1250000000000000    0.6250000000000000 Ga
   0.3648736400000000    0.9053780900000000    0.3648736400000000 O
   0.9053780900000000    0.3648736400000000    0.3648736400000000 O
   0.3648736400000000    0.3648736400000000    0.3648736400000000 O
   0.3648736400000000    0.3648736400000000    0.9053780900000000 O
   0.8851263600000000    0.3446219100000000    0.8851263600000000 O
   0.3446219100000000    0.8851263600000000    0.8851263600000000 O
   0.8851263600000000    0.8851263600000000    0.8851263600000000 O
   0.8851263600000000    0.8851263600000000    0.3446219100000000 O
