Nb2 In2 O8
1.0
   4.8923588200000001    0.0000000000000000   -0.0077846900000000
   0.0000000000000000    5.8546017199999998    0.0000000000000000
  -0.1059012600000000    0.0000000000000000    5.2340233600000001
Nb In O
2 2 8
direct
   0.0000000000000000    0.1727672700000000    0.2500000000000000 Nb
   0.0000000000000000    0.8272327300000000    0.7500000000000000 Nb
   0.5000000000000000    0.6761366400000000    0.2500000000000000 In
   0.5000000000000000    0.3238633600000000    0.7500000000000000 In
   0.7400038799999999    0.6173905300000000    0.5987093400000000 O
   0.2599961200000000    0.6173905300000000    0.9012906600000000 O
   0.2599961200000000    0.3826094700000000    0.4012906600000000 O
   0.7400038799999999    0.3826094700000000    0.0987093400000000 O
   0.7843062800000000    0.1011420300000000    0.5639836400000000 O
   0.2156937200000000    0.1011420300000000    0.9360163600000000 O
   0.2156937200000000    0.8988579700000000    0.4360163600000000 O
   0.7843062800000000    0.8988579700000000    0.0639836400000000 O
