Na1 Bi1 S2
1.0
   2.0042204899999998    1.1571372600000001    6.6853501900000003
  -2.0042204899999998    1.1571372600000001    6.6853501900000003
   0.0000000000000000   -2.3142745300000001    6.6853501900000003
Na Bi S
1 1 2
direct
   0.5000000000000000    0.5000000000000000    0.5000000000000000 Na
   0.0000000000000000    0.0000000000000000    0.0000000000000000 Bi
   0.2529439600000000    0.2529439600000000    0.2529439600000000 S
   0.7470560400000000    0.7470560400000000    0.7470560400000000 S
