Li4 Be2 Si2 O8
1.0
   4.7044630800000000    0.0000000000000000    0.0001175100000000
   0.0000000000000000    4.9456803000000003    0.0000000000000000
  -4.7049838700000004    0.0000000000000000    6.1003548099999998
Li Be Si O
4 2 2 8
direct
   0.5020373700000000    0.8238864800000000    0.5003956300000000 Li
   0.5020373700000000    0.1761135200000000    0.0003956300000000 Li
   0.7547909200000000    0.6652586200000000    0.2529617000000000 Li
   0.7547909200000000    0.3347413800000000    0.7529617000000000 Li
   0.2430600200000000    0.6793629300000000    0.7515766699999999 Be
   0.2430600200000000    0.3206370700000000    0.2515766700000000 Be
   0.9940538000000000    0.8208304300000000    0.0027543500000000 Si
   0.9940538000000000    0.1791695700000000    0.5027543500000000 Si
   0.6163188000000001    0.8005150599999999    0.9721087500000000 O
   0.9273038100000000    0.3004367800000000    0.2824659200000000 O
   0.1155427100000000    0.1400978700000000    0.0333713700000000 O
   0.6163188000000001    0.1994849400000000    0.4721087500000000 O
   0.1155427100000000    0.8599021300000000    0.5333713700000000 O
   0.3018935800000000    0.6417028700000000    0.2193656200000000 O
   0.3018935800000000    0.3582971300000000    0.7193656200000000 O
   0.9273038100000000    0.6995632200000000    0.7824659200000000 O
