Sr4 P4 Se12
1.0
   6.9620141899999997    0.0000000000000000   -0.0032278300000000
   0.0000000000000000    7.7069596899999997    0.0000000000000000
  -6.6595897700000002    0.0000000000000000    9.6953727000000001
Sr P Se
4 4 12
direct
   0.7157999400000000    0.8937710100000000    0.2517076600000000 Sr
   0.2842000600000000    0.3937710100000000    0.2482923400000000 Sr
   0.2842000600000000    0.1062289900000000    0.7482923400000000 Sr
   0.7157999400000000    0.6062289900000000    0.7517076600000000 Sr
   0.3784153600000000    0.8918274800000000    0.4358031800000000 P
   0.6215846400000000    0.3918274800000000    0.0641968200000000 P
   0.6215846400000000    0.1081725200000000    0.5641968200000000 P
   0.3784153600000000    0.6081725200000000    0.9358031800000000 P
   0.1309400300000000    0.4986924400000000    0.7300523000000000 Se
   0.8690599700000000    0.9986924400000000    0.7699477000000000 Se
   0.8690599700000000    0.5013075600000000    0.2699477000000000 Se
   0.1309400300000000    0.0013075600000000    0.2300523000000000 Se
   0.2202074600000000    0.7060200100000000    0.0415942200000000 Se
   0.7797925400000000    0.2060200100000000    0.4584057800000000 Se
   0.7797925400000000    0.2939799900000000    0.9584057800000000 Se
   0.2202074600000000    0.7939799900000000    0.5415942200000000 Se
   0.6167343900000000    0.8056325300000000    0.9479028200000000 Se
   0.3832656100000000    0.3056325300000000    0.5520971800000000 Se
   0.3832656100000000    0.1943674700000000    0.0520971800000000 Se
   0.6167343900000000    0.6943674700000000    0.4479028200000000 Se
