Cd4 Te3 Se1
1.0
   4.5217806800000000    0.0000000000000000    0.0000000000000000
   0.0000000000000000    9.0360747700000008    0.0000000000000000
   0.0000000000000000    0.0000000000000000    6.3550604999999996
Cd Te Se
4 3 1
direct
   0.0000000000000000    0.0000000000000000    0.9747677800000000 Cd
   0.5000000000000000    0.7612225600000000    0.5084700300000000 Cd
   0.0000000000000000    0.5000000000000000    0.0086375800000000 Cd
   0.5000000000000000    0.2387774400000000    0.5084700300000000 Cd
   0.0000000000000000    0.7577223800000000    0.2498053100000000 Te
   0.5000000000000000    0.5000000000000000    0.7492762200000000 Te
   0.0000000000000000    0.2422776200000000    0.2498053100000000 Te
   0.5000000000000000    0.0000000000000000    0.7507667500000000 Se
