Li8 P4 O14
1.0
   5.1960635399999999   -0.0012507300000000   -0.0002421500000000
   2.5660322999999998    6.6394393799999998    0.0274511300000000
   0.0020813400000000    2.0429981200000000    8.3171014099999994
Li P O
8 4 14
direct
   0.7446240700000000    0.1445553500000000    0.9886741500000000 Li
   0.2553759300000000    0.8554446500000000    0.0113258500000000 Li
   0.3963039400000000    0.5862872200000000    0.7545744300000000 Li
   0.6036960600000000    0.4137127800000000    0.2454255700000000 Li
   0.0276117400000000    0.3262240900000000    0.7910458600000000 Li
   0.9723882600000000    0.6737759100000000    0.2089541400000000 Li
   0.0533406300000000    0.2460934500000000    0.4498839400000000 Li
   0.9466593700000000    0.7539065500000000    0.5501160600000000 Li
   0.5723788200000000    0.2151033000000000    0.6308061100000000 P
   0.4276211800000000    0.7848967000000000    0.3691938900000000 P
   0.7848246200000000    0.7777712600000000    0.8460571900000000 P
   0.2151753800000000    0.2222287400000000    0.1539428100000000 P
   0.5173753800000001    0.7406543900000000    0.8748429599999999 O
   0.0092514300000000    0.6015388200000000    0.7927262100000000 O
   0.9907485700000001    0.3984611800000000    0.2072737900000000 O
   0.8831550800000000    0.8491784300000000    0.9828422999999999 O
   0.7367210700000000    0.7426221400000000    0.3768486400000000 O
   0.2632789300000000    0.2573778600000000    0.6231513600000000 O
   0.3178539500000000    0.7263265000000000    0.5292279400000000 O
   0.6821460499999999    0.2736735000000000    0.4707720600000000 O
   0.3378600600000000    0.7025349300000000    0.2356035900000000 O
   0.6621399400000000    0.2974650700000000    0.7643964100000000 O
   0.7346971900000000    0.9618370000000001    0.6819622300000000 O
   0.2653028100000000    0.0381630000000000    0.3180377700000000 O
   0.1168449200000000    0.1508215700000000    0.0171577000000000 O
   0.4826246200000000    0.2593456100000000    0.1251570400000000 O
