Sr4 Zn2 W2 O12
1.0
   5.5900974300000001    0.0000000000000000    0.0019776300000000
   0.0000000000000000    5.5635846999999998    0.0000000000000000
  -5.5997662300000002    0.0000000000000000    7.8544050099999998
Sr Zn W O
4 2 2 12
direct
   0.7535754400000000    0.0143875400000000    0.7505512800000000 Sr
   0.7535754400000000    0.4856124600000000    0.2505512800000000 Sr
   0.2464245600000000    0.9856124600000000    0.2494487200000000 Sr
   0.2464245600000000    0.5143875400000000    0.7494487200000000 Sr
   0.0000000000000000    0.0000000000000000    0.5000000000000000 Zn
   0.0000000000000000    0.5000000000000000    0.0000000000000000 Zn
   0.5000000000000000    0.5000000000000000    0.5000000000000000 W
   0.5000000000000000    0.0000000000000000    0.0000000000000000 W
   0.7495687599999999    0.7613529100000000    0.5275119000000000 O
   0.7495687599999999    0.7386470900000000    0.0275119000000000 O
   0.2504312400000000    0.2386470900000000    0.4724881000000000 O
   0.2504312400000000    0.2613529100000000    0.9724881000000000 O
   0.7864324100000000    0.2761741500000000    0.5270366600000000 O
   0.7864324100000000    0.2238258500000000    0.0270366600000000 O
   0.2135675900000000    0.7238258500000000    0.4729633400000000 O
   0.2135675900000000    0.7761741500000000    0.9729633400000000 O
   0.6893243000000000    0.4947964800000000    0.7417318600000000 O
   0.6893243000000000    0.0052035200000000    0.2417318600000000 O
   0.3106757000000000    0.5052035200000000    0.2582681400000000 O
   0.3106757000000000    0.9947964800000000    0.7582681400000000 O
