Na4 S2 O8
1.0
   0.0000000000000000    4.8451252000000000    6.0853634799999998
   2.9117927099999998    0.0000000000000000    6.0853634799999998
   2.9117927099999998    4.8451252000000000    0.0000000000000000
Na S O
4 2 8
direct
   0.8146244300000000    0.1853755700000000    0.8146244300000000 Na
   0.1853755700000000    0.8146244300000000    0.1853755700000000 Na
   0.0646244300000000    0.4353755700000000    0.0646244300000000 Na
   0.4353755700000000    0.0646244300000000    0.4353755700000000 Na
   0.5000000000000000    0.5000000000000000    0.5000000000000000 S
   0.7500000000000000    0.7500000000000000    0.7500000000000000 S
   0.7622707100000000    0.8756665500000000    0.9194902900000000 O
   0.4425724600000000    0.9194902900000000    0.8756665500000000 O
   0.9194902900000000    0.4425724600000000    0.7622707100000000 O
   0.8756665500000000    0.7622707100000000    0.4425724600000000 O
   0.4877292900000000    0.3743334500000000    0.3305097100000000 O
   0.8074275400000001    0.3305097100000000    0.3743334500000000 O
   0.3743334500000000    0.4877292900000000    0.8074275400000001 O
   0.3305097100000000    0.8074275400000001    0.4877292900000000 O
