Ba1 Hf1 O3
1.0
   4.1942351100000002    0.0000000000000000    0.0000000000000000
   0.0000000000000000    4.1942351100000002    0.0000000000000000
   0.0000000000000000    0.0000000000000000    4.1942351100000002
Ba Hf O
1 1 3
direct
   0.5000000000000000    0.5000000000000000    0.5000000000000000 Ba
   0.0000000000000000    0.0000000000000000    0.0000000000000000 Hf
   0.0000000000000000    0.5000000000000000    0.0000000000000000 O
   0.0000000000000000    0.0000000000000000    0.5000000000000000 O
   0.5000000000000000    0.0000000000000000    0.0000000000000000 O
