La8 Sn4 S12 O8
1.0
   5.8173107499999999    0.0000000000000000    0.0000000000000000
   0.0000000000000000   18.9688945800000006    0.0000000000000000
   0.0000000000000000    0.0000000000000000    5.7931868399999997
La Sn S O
8 4 12 8
direct
   0.2475181000000000    0.5638064800000000    0.5022270000000000 La
   0.7524819000000000    0.0638064800000000    0.4977730000000000 La
   0.2524819000000000    0.4361935200000000    0.0022270000000000 La
   0.7475181000000000    0.9361935200000000    0.9977730000000000 La
   0.7524819000000000    0.4361935200000000    0.4977730000000000 La
   0.7475181000000000    0.5638064800000000    0.9977730000000000 La
   0.2524819000000000    0.0638064800000000    0.0022270000000000 La
   0.2475181000000000    0.9361935200000000    0.5022270000000000 La
   0.3476156500000000    0.7500000000000000    0.9322586700000000 Sn
   0.1523843500000000    0.2500000000000000    0.4322586700000000 Sn
   0.8476156500000001    0.7500000000000000    0.5677413300000000 Sn
   0.6523843499999999    0.2500000000000000    0.0677413300000000 Sn
   0.7348125300000000    0.2500000000000000    0.4889867200000000 S
   0.2577429400000000    0.3679489600000000    0.5112628400000000 S
   0.2422570600000000    0.6320510400000000    0.0112628400000000 S
   0.2348125300000000    0.2500000000000000    0.0110132800000000 S
   0.7422570600000000    0.6320510400000000    0.4887371600000000 S
   0.7651874700000000    0.7500000000000000    0.9889867200000000 S
   0.7422570600000000    0.8679489600000000    0.4887371600000000 S
   0.7577429400000000    0.1320510400000000    0.9887371600000000 S
   0.2651874700000000    0.7500000000000000    0.5110132800000000 S
   0.2422570600000000    0.8679489600000000    0.0112628400000000 S
   0.7577429400000000    0.3679489600000000    0.9887371600000000 S
   0.2577429400000000    0.1320510400000000    0.5112628400000000 S
   0.4993016900000000    0.4994258600000000    0.7485455600000001 O
   0.9993016900000000    0.0005741400000000    0.7514544399999999 O
   0.0006983100000000    0.9994258600000000    0.2485455600000000 O
   0.4993016900000000    0.0005741400000000    0.7485455600000001 O
   0.5006983100000000    0.9994258600000000    0.2514544400000000 O
   0.9993016900000000    0.4994258600000000    0.7514544399999999 O
   0.5006983100000000    0.5005741400000000    0.2514544400000000 O
   0.0006983100000000    0.5005741400000000    0.2485455600000000 O
