Rb8 Ti2 O8
1.0
   6.6699412499999999    0.0051417400000000   -0.0061934900000000
   2.6788963799999999    6.1487694700000004   -0.0204813900000000
   1.8227675000000001    2.5770954300000000    9.3860729400000000
Rb Ti O
8 2 8
direct
   0.2456210600000000    0.7685487800000000    0.0313455400000000 Rb
   0.2778418900000000    0.5099581500000000    0.4385432200000000 Rb
   0.2475828500000000    0.4132723300000000    0.8405663400000000 Rb
   0.2189480200000000    0.9634910100000000    0.6219655800000000 Rb
   0.7810519800000000    0.0365089900000000    0.3780344200000000 Rb
   0.7524171500000000    0.5867276700000000    0.1594336600000000 Rb
   0.7221581100000000    0.4900418500000000    0.5614567800000000 Rb
   0.7543789400000001    0.2314512200000000    0.9686544600000000 Rb
   0.2696205700000000    0.1574309900000000    0.2475178000000000 Ti
   0.7303794300000001    0.8425690100000000    0.7524822000000000 Ti
   0.1228150800000000    0.1685830700000000    0.0996282700000000 O
   0.0487107500000000    0.2920354700000000    0.3740166200000000 O
   0.4476131100000000    0.3306322400000000    0.1887418100000000 O
   0.5602452300000000    0.1367450200000000    0.6554320000000000 O
   0.4397547700000000    0.8632549800000000    0.3445680000000000 O
   0.5523868900000000    0.6693677600000000    0.8112581900000000 O
   0.9512892500000000    0.7079645300000000    0.6259833800000000 O
   0.8771849200000000    0.8314169300000001    0.9003717300000000 O
