Sr4 As2 O1
1.0
  -2.4090851400000002    2.4090851400000002    8.1005763300000009
   2.4090851400000002   -2.4090851400000002    8.1005763300000009
   2.4090851400000002    2.4090851400000002   -8.1005763300000009
Sr As O
4 2 1
direct
   0.6732461900000000    0.6732461900000000    0.0000000000000000 Sr
   0.3267538100000000    0.3267538100000000    0.0000000000000000 Sr
   0.5000000000000000    0.0000000000000000    0.5000000000000000 Sr
   0.0000000000000000    0.5000000000000000    0.5000000000000000 Sr
   0.8641470900000000    0.8641470900000000    0.0000000000000000 As
   0.1358529100000000    0.1358529100000000    0.0000000000000000 As
   0.5000000000000000    0.5000000000000000    0.0000000000000000 O
