Sr4 Al8 O16
1.0
   5.1682920299999999    0.0000000000000000   -0.0014375800000000
   0.0000000000000000    8.8032592899999997    0.0000000000000000
  -0.5234386000000000    0.0000000000000000    8.4156377399999993
Sr Al O
4 8 16
direct
   0.1988615200000000    0.4918129400000000    0.0308676000000000 Sr
   0.8011384800000000    0.9918129400000000    0.9691324000000000 Sr
   0.2516373000000000    0.4992995000000000    0.4883941700000000 Sr
   0.7483627000000000    0.9992995000000000    0.5116058300000000 Sr
   0.8015534300000000    0.6692937100000000    0.6796216300000000 Al
   0.1984465700000000    0.1692937100000000    0.3203783700000000 Al
   0.2215036900000000    0.1675130200000000    0.7091674900000000 Al
   0.7784963100000000    0.6675130200000000    0.2908325100000000 Al
   0.7281589800000000    0.3377353400000000    0.7993837300000000 Al
   0.2718410200000000    0.8377353400000001    0.2006162700000000 Al
   0.7107486700000000    0.3299289000000000    0.1899699800000000 Al
   0.2892513300000000    0.8299289000000000    0.8100300200000000 Al
   0.6421767100000000    0.3876313100000000    0.9913179700000000 O
   0.3578232900000000    0.8876313100000000    0.0086820300000000 O
   0.8864937600000000    0.7188170900000000    0.4862316200000000 O
   0.1135062400000000    0.2188170900000000    0.5137683800000000 O
   0.8999493000000000    0.1626493000000000    0.2050416100000000 O
   0.1000507000000000    0.6626493000000000    0.7949583900000000 O
   0.9374070900000000    0.7938749100000000    0.1684478400000000 O
   0.0625929100000000    0.2938749100000000    0.8315521600000000 O
   0.9016896800000000    0.4823025900000000    0.2673234200000000 O
   0.0983103200000000    0.9823025900000000    0.7326765800000000 O
   0.3453064300000000    0.9893844100000000    0.3310394100000000 O
   0.6546935699999999    0.4893844100000000    0.6689605900000000 O
   0.5638530300000000    0.1688069800000000    0.7356670500000000 O
   0.4361469700000000    0.6688069800000001    0.2643329500000000 O
   0.4065927900000000    0.3167540100000000    0.2694389300000000 O
   0.5934072100000000    0.8167540100000000    0.7305610700000000 O
