Sr3 Ta1 Ga3 Si2 O14
1.0
   8.2981718000000004    0.0000000000000000    0.0000000000000000
  -4.1490859000000002    7.1864274500000001    0.0000000000000000
   0.0000000000000000    0.0000000000000000    5.0814874699999999
Sr Ta Ga Si O
3 1 3 2 14
direct
   0.5715107500000000    0.5715107500000000    0.0000000000000000 Sr
   0.4284892500000000    0.0000000000000000    0.0000000000000000 Sr
   1.0000000000000000    0.4284892500000000    0.0000000000000000 Sr
   0.0000000000000000    0.0000000000000000    0.0000000000000000 Ta
   0.2536710900000000    0.2536710900000000    0.5000000000000000 Ga
   1.0000000000000000    0.7463289100000000    0.5000000000000000 Ga
   0.7463289100000000    0.0000000000000000    0.5000000000000000 Ga
   0.3333330000000000    0.6666670000000000    0.5361649100000000 Si
   0.6666670000000000    0.3333330000000000    0.4638350900000000 Si
   0.0936078500000000    0.2231062400000000    0.2316808900000000 O
   0.7768937600000000    0.8705016200000000    0.2316808900000000 O
   0.1294983800000000    0.9063921500000000    0.2316808900000000 O
   0.8705016200000000    0.7768937600000000    0.7683191100000000 O
   0.9063921500000000    0.1294983800000000    0.7683191100000000 O
   0.2231062400000000    0.0936078500000000    0.7683191100000000 O
   0.3080748700000000    0.4738107000000000    0.6724848100000000 O
   0.5261893000000000    0.8342641700000000    0.6724848100000000 O
   0.1657358300000000    0.6919251300000000    0.6724848100000000 O
   0.3333330000000000    0.6666670000000000    0.2197117300000000 O
   0.6666670000000000    0.3333330000000000    0.7802882700000000 O
   0.4738107000000000    0.3080748700000000    0.3275151900000000 O
   0.6919251300000000    0.1657358300000000    0.3275151900000000 O
   0.8342641700000000    0.5261893000000000    0.3275151900000000 O
