La6 Ga2 O12
1.0
   4.6633489199999998   -5.8680307100000002    0.0000000000000000
   4.6633489199999998    5.8680307100000002    0.0000000000000000
   0.0000000000000000    0.0000000000000000    5.6427212899999999
La Ga O
6 2 12
direct
   0.0866558400000000    0.3003755800000000    0.4665400000000000 La
   0.3003755800000000    0.0866558400000000    0.9665400000000000 La
   0.6052910500000001    0.3947089500000000    0.4283370300000000 La
   0.3947089500000000    0.6052910500000001    0.9283370300000000 La
   0.6996244200000000    0.9133441600000000    0.4665400000000000 La
   0.9133441600000000    0.6996244200000000    0.9665400000000000 La
   0.8087751000000000    0.1912249000000000    0.0042572200000000 Ga
   0.1912249000000000    0.8087751000000000    0.5042572200000000 Ga
   0.3299638400000000    0.3524632600000000    0.2002066500000000 O
   0.3524632600000000    0.3299638400000000    0.7002066500000000 O
   0.1074535600000000    0.5868145100000000    0.6682171200000000 O
   0.5868145100000000    0.1074535600000000    0.1682171200000000 O
   0.9564542400000000    0.0435457600000000    0.1315682700000000 O
   0.7857193900000000    0.2142806100000000    0.6798569600000000 O
   0.2142806100000000    0.7857193900000000    0.1798569600000000 O
   0.0435457600000000    0.9564542400000000    0.6315682700000000 O
   0.4131854900000000    0.8925464400000001    0.6682171200000000 O
   0.8925464400000001    0.4131854900000000    0.1682171200000000 O
   0.6475367400000001    0.6700361600000000    0.2002066500000000 O
   0.6700361600000000    0.6475367400000001    0.7002066500000000 O
