In1 Cu1 Ge1 S4
1.0
  -2.7678560200000000    2.7678560000000001    5.0233992699999996
   2.7678560200000000   -2.7678560000000001    5.0233992699999996
   2.7678560000000001    2.7678560200000000   -5.0233992699999996
In Cu Ge S
1 1 1 4
direct
   0.7500000000000000    0.2500000000000000    0.5000000000000000 In
   0.2500000000000000    0.7500000000000000    0.5000000000000000 Cu
   0.5000000000000000    0.5000000000000000    0.0000000000000000 Ge
   0.1573540600000000    0.1229934000000000    0.5082054000000000 S
   0.6147880000000000    0.6491476600000000    0.4917946000000000 S
   0.3508523400000000    0.8426459400000000    0.9656393400000000 S
   0.8770066000000000    0.3852120000000000    0.0343606600000000 S
