Tl4 Hg6 Se8
1.0
   5.9278266500000001   -3.4823540899999998   -0.0301505700000000
   5.9278266500000001    3.4823540899999998   -0.0301505700000000
  -5.8531024599999997    0.0000000000000000   11.6825748399999991
Tl Hg Se
4 6 8
direct
   0.9230311000000000    0.7511614400000000    0.9540332600000000 Tl
   0.2488385600000000    0.0769689000000000    0.5459667400000000 Tl
   0.0769689000000000    0.2488385600000000    0.0459667400000000 Tl
   0.7511614400000000    0.9230311000000000    0.4540332600000000 Tl
   0.8619736300000000    0.1380263700000000    0.2500000000000000 Hg
   0.1380263700000000    0.8619736300000000    0.7500000000000000 Hg
   0.4366034800000000    0.6818503200000000    0.1503871100000000 Hg
   0.3181496800000000    0.5633965200000000    0.3496128900000000 Hg
   0.5633965200000000    0.3181496800000000    0.8496128900000000 Hg
   0.6818503200000000    0.4366034800000000    0.6503871100000000 Hg
   0.2860516100000000    0.0884725700000000    0.2672659200000000 Se
   0.9115274300000000    0.7139483900000000    0.2327340800000000 Se
   0.7139483900000000    0.9115274300000000    0.7327340800000000 Se
   0.0884725700000000    0.2860516100000000    0.7672659200000000 Se
   0.7409208500000000    0.4654738900000000    0.4359297000000000 Se
   0.5345261100000001    0.2590791500000000    0.0640703000000000 Se
   0.2590791500000000    0.5345261100000001    0.5640703000000000 Se
   0.4654738900000000    0.7409208500000000    0.9359297000000000 Se
