Sr2 Ti2 O6
1.0
  -2.7664632100000000    2.7664632100000000    3.9580210199999999
   2.7664632100000000   -2.7664632100000000    3.9580210199999999
   2.7664632100000000    2.7664632100000000   -3.9580210199999999
Sr Ti O
2 2 6
direct
   0.7500000000000000    0.2500000000000000    0.5000000000000000 Sr
   0.2500000000000000    0.7500000000000000    0.5000000000000000 Sr
   0.0000000000000000    0.0000000000000000    0.0000000000000000 Ti
   0.5000000000000000    0.5000000000000000    0.0000000000000000 Ti
   0.7840797500000000    0.2840797500000000    0.0681585100000000 O
   0.2840797500000000    0.2159202500000000    0.5000000000000000 O
   0.7159202500000000    0.7840797500000000    0.5000000000000000 O
   0.2159202500000000    0.7159202500000000    0.9318414900000001 O
   0.7500000000000000    0.7500000000000000    0.0000000000000000 O
   0.2500000000000000    0.2500000000000000    0.0000000000000000 O
