Cs4 Pb2 O6
1.0
   5.6701245900000004   -3.8650908799999999    0.0000000000000000
   5.6701245900000004    3.8650908799999999    0.0000000000000000
   0.0000000000000000    0.0000000000000000    6.1006667800000001
Cs Pb O
4 2 6
direct
   0.8069222700000001    0.5179831100000000    0.7447320700000000 Cs
   0.5179831100000000    0.8069222700000001    0.2447320700000000 Cs
   0.1930777300000000    0.4820168900000000    0.2447320700000000 Cs
   0.4820168900000000    0.1930777300000000    0.7447320700000000 Cs
   0.9100959500000000    0.0899040500000000    0.2654068100000000 Pb
   0.0899040500000000    0.9100959500000000    0.7654068100000000 Pb
   0.6450134000000000    0.3549866000000000    0.3110561000000000 O
   0.3549866000000000    0.6450134000000000    0.8110560999999999 O
   0.1126529700000000    0.1396027900000000    0.0085364700000000 O
   0.8873470300000000    0.8603972100000000    0.5085364700000000 O
   0.8603972100000000    0.8873470300000000    0.0085364700000000 O
   0.1396027900000000    0.1126529700000000    0.5085364700000000 O
