Ce2 Se1 N2
1.0
   3.9129054999999999   -0.0000000000000000    0.0000000000000000
  -1.9564522499999999    3.3886753100000000    0.0000000000000000
   0.0000000000000000    0.0000000000000000    6.9309357399999998
Ce Se N
2 1 2
direct
   0.6666670000000000    0.3333330000000000    0.7043078500000000 Ce
   0.3333330000000000    0.6666670000000000    0.2956921500000000 Ce
   0.0000000000000000    0.0000000000000000    0.0000000000000000 Se
   0.6666670000000000    0.3333330000000000    0.3721737300000000 N
   0.3333330000000000    0.6666670000000000    0.6278262700000000 N
