Rb4 B4 S12
1.0
   7.0442768500000001    0.0000000000000000    0.0045238700000000
   0.0000000000000000   11.7263192000000007    0.0000000000000000
  -1.5093962900000000    0.0000000000000000    5.5918172200000003
Rb B S
4 4 12
direct
   0.7401263400000000    0.0800683500000000    0.2974581500000000 Rb
   0.2598736600000000    0.5800683500000000    0.2025418500000000 Rb
   0.2598736600000000    0.9199316500000000    0.7025418500000000 Rb
   0.7401263400000000    0.4199316500000000    0.7974581500000000 Rb
   0.2882881300000000    0.2313376600000000    0.3109903300000000 B
   0.7117118700000000    0.7313376600000000    0.1890096700000000 B
   0.7117118700000000    0.7686623400000000    0.6890096700000000 B
   0.2882881300000000    0.2686623400000000    0.8109903300000000 B
   0.0601928600000000    0.1781635300000000    0.8257084900000000 S
   0.9398071400000000    0.6781635300000000    0.6742915100000000 S
   0.9398071400000000    0.8218364700000000    0.1742915100000000 S
   0.0601928600000000    0.3218364700000000    0.3257084900000000 S
   0.1858822200000000    0.4048938000000000    0.6460429600000001 S
   0.8141177800000000    0.9048938000000000    0.8539570399999999 S
   0.8141177800000000    0.5951062000000000    0.3539570400000000 S
   0.1858822200000000    0.0951062000000000    0.1460429600000000 S
   0.4425794700000000    0.1951477600000000    0.6229654000000000 S
   0.5574205300000000    0.6951477600000000    0.8770346000000000 S
   0.5574205300000000    0.8048522400000000    0.3770346000000000 S
   0.4425794700000000    0.3048522400000000    0.1229654000000000 S
