Sn10 P4 O20
1.0
   7.0994055999999999    0.0003334500000000    0.0003045600000000
   3.3619812200000001    6.2692901599999997   -0.0000093100000000
   1.2173061199999999    0.0789838100000000   12.7770261499999993
Sn P O
10 4 20
direct
   0.9771372000000000    0.6992052300000000    0.1659340300000000 Sn
   0.4305240900000000    0.7746720499999999    0.1448768300000000 Sn
   0.6628951800000000    0.3144668800000000    0.3802160800000000 Sn
   0.0228628000000000    0.3007947700000000    0.8340659700000000 Sn
   0.9291786500000000    0.2462575500000000    0.1276237000000000 Sn
   0.5694759100000000    0.2253279500000000    0.8551231700000000 Sn
   0.1960091800000000    0.2060684300000000    0.3735396400000000 Sn
   0.3371048200000000    0.6855331200000000    0.6197839200000000 Sn
   0.0708213500000000    0.7537424500000000    0.8723763000000000 Sn
   0.8039908200000000    0.7939315700000000    0.6264603600000000 Sn
   0.9380252500000000    0.1995496600000000    0.6063358400000000 P
   0.0619747500000000    0.8004503400000000    0.3936641600000000 P
   0.4678573200000000    0.2437478200000000    0.1228263800000000 P
   0.5321426800000000    0.7562521800000001    0.8771736200000000 P
   0.0891124000000000    0.7030898000000000    0.5071312100000001 O
   0.0965615500000000    0.9160246100000000    0.1471595200000000 O
   0.6923247800000000    0.5164684200000000    0.8913792300000000 O
   0.3076752200000000    0.4835315800000000    0.1086207700000000 O
   0.2275333600000000    0.8821329000000000    0.3682198500000000 O
   0.7724666400000000    0.1178671000000000    0.6317801500000000 O
   0.1053468300000000    0.6187609300000000    0.3171431000000000 O
   0.3613945400000000    0.7798199300000001    0.8019776600000000 O
   0.6386054600000000    0.2201800700000000    0.1980223400000000 O
   0.1737136500000000    0.0260927800000000    0.6109459300000000 O
   0.5924650299999999    0.1440114800000000    0.0184468500000000 O
   0.3417220200000000    0.1254082500000000    0.1702766300000000 O
   0.8262863499999999    0.9739072200000000    0.3890540700000000 O
   0.9252102000000000    0.3115975900000000    0.2855775600000000 O
   0.6582779800000000    0.8745917500000000    0.8297233700000000 O
   0.0747898000000000    0.6884024100000000    0.7144224400000000 O
   0.8946531700000000    0.3812390700000000    0.6828569000000000 O
   0.4075349700000000    0.8559885200000000    0.9815531500000000 O
   0.9034384500000000    0.0839753900000000    0.8528404800000000 O
   0.9108876000000000    0.2969102000000000    0.4928687900000000 O
