Cs6 Re2 O10
1.0
   4.8354667700000000   -4.3657068900000002    0.0000000000000000
   4.8354667700000000    4.3657068900000002    0.0000000000000000
   0.0000000000000000    0.0000000000000000    9.0358920400000002
Cs Re O
6 2 10
direct
   0.2328384100000000    0.2328384100000000    0.0000000000000000 Cs
   0.7671615899999999    0.7671615899999999    0.0000000000000000 Cs
   0.7671615899999999    0.7671615899999999    0.5000000000000000 Cs
   0.2328384100000000    0.2328384100000000    0.5000000000000000 Cs
   0.7004182200000000    0.2995817800000000    0.2500000000000000 Cs
   0.2995817800000000    0.7004182200000000    0.7500000000000000 Cs
   0.2440220100000000    0.7559779900000000    0.2500000000000000 Re
   0.7559779900000000    0.2440220100000000    0.7500000000000000 Re
   0.0363387300000000    0.9636612700000000    0.2500000000000000 O
   0.9636612700000000    0.0363387300000000    0.7500000000000000 O
   0.6566997300000000    0.3433002700000000    0.5739668700000000 O
   0.3433002700000000    0.6566997300000000    0.4260331300000000 O
   0.3433002700000000    0.6566997300000000    0.0739668700000000 O
   0.6566997300000000    0.3433002700000000    0.9260331300000000 O
   0.0557008100000000    0.5580728200000000    0.2500000000000000 O
   0.9442991900000000    0.4419271800000000    0.7500000000000000 O
   0.5580728200000000    0.0557008100000000    0.7500000000000000 O
   0.4419271800000000    0.9442991900000000    0.2500000000000000 O
