Ba4 In4 O10
1.0
  -8.3266227799999992    3.1077258900000002    3.0078805900000001
   8.3266227799999992   -3.1077258900000002    3.0078805900000001
   8.3266227799999992    3.1077258900000002   -3.0078805900000001
Ba In O
4 4 10
direct
   0.4624446100000000    0.0886741900000000    0.5896326600000000 Ba
   0.4990415200000000    0.8728119400000000    0.4103673400000000 Ba
   0.4990415200000000    0.5886741900000000    0.1262295800000000 Ba
   0.4624446100000000    0.3728119400000000    0.8737704200000000 Ba
   0.9411745600000000    0.2578397000000000    0.1833348600000000 In
   0.0745058400000000    0.7578397000000000    0.8166651400000000 In
   0.9746752600000000    0.4746752600000000    0.5000000000000000 In
   0.9746752600000000    0.9746752600000000    0.0000000000000000 In
   0.2315000600000000    0.6064971000000000    0.1250019600000000 O
   0.4814951400000000    0.1064971000000000    0.8749980400000000 O
   0.8876100800000000    0.5831740700000000    0.5770964500000000 O
   0.0060776200000000    0.3105146300000000    0.4229035500000000 O
   0.0060776200000000    0.0831740700000000    0.1955629900000000 O
   0.8876100800000000    0.8105146300000000    0.8044370100000000 O
   0.4741772200000000    0.2201714800000000    0.2352345900000000 O
   0.9849368900000000    0.2389426400000000    0.7647654100000000 O
   0.4741772200000000    0.7389426400000000    0.7540057500000000 O
   0.9849368900000000    0.7201714800000000    0.2459942500000000 O
