Ba1 Na2 Mg1 P2 O8
1.0
   5.2835389900000003    0.0000004400000000    0.0000000000000000
  -2.6417698700000001    4.5756785999999998    0.0000000000000000
   0.0000000000000000    0.0000000000000000    6.9614621200000002
Ba Na Mg P O
1 2 1 2 8
direct
   0.0000000000000000    0.0000000000000000    0.5000000000000000 Ba
   0.6666670000000000    0.3333330000000000    0.1827754900000000 Na
   0.3333330000000000    0.6666670000000000    0.8172245100000000 Na
   0.0000000000000000    0.0000000000000000    0.0000000000000000 Mg
   0.3333330000000000    0.6666670000000000    0.2565200700000000 P
   0.6666670000000000    0.3333330000000000    0.7434799300000000 P
   0.6446819600000000    0.7651666000000000    0.1781178300000000 O
   0.2348334000000000    0.8795143600000001    0.1781178300000000 O
   0.1204856400000000    0.3553180400000000    0.1781178300000000 O
   0.3333330000000000    0.6666670000000000    0.4769770500000000 O
   0.6666670000000000    0.3333330000000000    0.5230229500000000 O
   0.8795143600000001    0.6446819600000000    0.8218821700000000 O
   0.7651666000000000    0.1204856400000000    0.8218821700000000 O
   0.3553180400000000    0.2348334000000000    0.8218821700000000 O
