Rb2 Nb2 Te2 O12
1.0
  -3.6288828899999999    3.7046148400000001    5.1907492000000000
   3.6288828899999999   -3.7046148400000001    5.1907492000000000
   3.6288828899999999    3.7046148400000001   -5.1907492000000000
Rb Nb Te O
2 2 2 12
direct
   0.1243360800000000    0.8743360800000000    0.2500000000000000 Rb
   0.8756639200000000    0.1256639200000000    0.7500000000000000 Rb
   0.0000000000000000    0.5000000000000000    0.5000000000000000 Nb
   0.5000000000000000    0.5000000000000000    0.0000000000000000 Nb
   0.5000000000000000    0.5000000000000000    0.5000000000000000 Te
   0.5000000000000000    0.0000000000000000    0.0000000000000000 Te
   0.5712932400000000    0.8212932400000000    0.7500000000000000 O
   0.1838160000000000    0.4338160000000000    0.7500000000000000 O
   0.5646301600000000    0.8257014400000000    0.1345477700000000 O
   0.1911526700000000    0.4300823900000000    0.3654522300000000 O
   0.1911526700000000    0.8257014400000000    0.7610702800000000 O
   0.5646301600000000    0.4300823900000000    0.7389297200000000 O
   0.4287067600000000    0.1787067600000000    0.2500000000000000 O
   0.8161840000000000    0.5661840000000000    0.2500000000000000 O
   0.4353698400000000    0.1742985600000000    0.8654522300000000 O
   0.8088473300000000    0.5699176100000000    0.6345477700000000 O
   0.8088473300000000    0.1742985600000000    0.2389297200000000 O
   0.4353698400000000    0.5699176100000000    0.2610702800000000 O
