Ga5 P3 S3
1.0
   3.7750537999999998    0.0000000000000000    0.0000000000000000
   0.0000000000000000   11.2612897299999997    0.0000000000000000
   0.0000000000000000    0.0000000000000000    5.3877028200000003
Ga P S
5 3 3
direct
   0.0000000000000000    0.8432355200000000    0.0017953900000000 Ga
   0.0000000000000000    0.1567644800000000    0.0017953900000000 Ga
   0.0000000000000000    0.5000000000000000    0.9891330100000000 Ga
   0.5000000000000000    0.3290501700000000    0.4929059300000000 Ga
   0.5000000000000000    0.6709498300000000    0.4929059300000000 Ga
   0.0000000000000000    0.3268237300000000    0.7475610400000000 P
   0.5000000000000000    0.5000000000000000    0.2443786100000000 P
   0.0000000000000000    0.6731762700000000    0.7475610400000000 P
   0.5000000000000000    0.8432784900000000    0.2630544100000000 S
   0.0000000000000000    0.0000000000000000    0.7558568500000000 S
   0.5000000000000000    0.1567215100000000    0.2630544100000000 S
