Sr2 Ti2 P4 O16
1.0
   8.2659175000000005   -2.6028361400000000   -0.0239481600000000
   8.2659175000000005    2.6028361400000000   -0.0239481600000000
  -3.6604869600000001    0.0000000000000000    7.2868286700000002
Sr Ti P O
2 2 4 16
direct
   0.8232290700000000    0.1767709300000000    0.7500000000000000 Sr
   0.1767709300000000    0.8232290700000000    0.2500000000000000 Sr
   0.0000000000000000    0.5000000000000000    0.0000000000000000 Ti
   0.5000000000000000    0.0000000000000000    0.5000000000000000 Ti
   0.4052501700000000    0.8784052000000000    0.7558210500000000 P
   0.1215948000000000    0.5947498300000000    0.7441789500000000 P
   0.5947498300000000    0.1215948000000000    0.2441789500000000 P
   0.8784052000000000    0.4052501700000000    0.2558210500000000 P
   0.2067634800000000    0.1212191900000000    0.9003184200000000 O
   0.8787808100000000    0.7932365200000000    0.5996815800000000 O
   0.7932365200000000    0.8787808100000000    0.0996815800000000 O
   0.1212191900000000    0.2067634800000000    0.4003184200000000 O
   0.6677774200000000    0.6184359800000000    0.8510733900000000 O
   0.3815640200000000    0.3322225800000000    0.6489266100000000 O
   0.3322225800000000    0.3815640200000000    0.1489266100000000 O
   0.6184359800000000    0.6677774200000000    0.3510733900000000 O
   0.4903312500000000    0.9463118700000001    0.6975995600000000 O
   0.0536881300000000    0.5096687500000000    0.8024004400000000 O
   0.5096687500000000    0.0536881300000000    0.3024004400000000 O
   0.9463118700000001    0.4903312500000000    0.1975995600000000 O
   0.2633758100000000    0.8326340700000000    0.6006280300000000 O
   0.1673659300000000    0.7366241900000000    0.8993719700000000 O
   0.7366241900000000    0.1673659300000000    0.3993719700000000 O
   0.8326340700000000    0.2633758100000000    0.1006280300000000 O
