Cs12 As4 Se16
1.0
   9.8022424400000006    0.0000000000000000    0.0000000000000000
   0.0000000000000000   11.7257453599999995    0.0000000000000000
   0.0000000000000000    0.0000000000000000   10.3684449799999996
Cs As Se
12 4 16
direct
   0.5470256200000000    0.9598145600000000    0.6919184500000000 Cs
   0.0470256200000000    0.5401854400000000    0.8080815500000000 Cs
   0.4529743800000000    0.4598145600000000    0.3080815500000000 Cs
   0.9529743800000000    0.0401854400000000    0.1919184500000000 Cs
   0.4529743800000000    0.0401854400000000    0.3080815500000000 Cs
   0.9529743800000000    0.4598145600000000    0.1919184500000000 Cs
   0.5470256200000000    0.5401854400000000    0.6919184500000000 Cs
   0.0470256200000000    0.9598145600000000    0.8080815500000000 Cs
   0.3388717000000000    0.7500000000000000    0.0849359900000000 Cs
   0.8388717000000000    0.7500000000000000    0.4150640100000000 Cs
   0.6611283000000000    0.2500000000000000    0.9150640100000000 Cs
   0.1611283000000000    0.2500000000000000    0.5849359900000000 Cs
   0.2580603100000000    0.7500000000000000    0.5281523800000000 As
   0.7580603100000000    0.7500000000000000    0.9718476200000000 As
   0.7419396900000000    0.2500000000000000    0.4718476200000000 As
   0.2419396900000000    0.2500000000000000    0.0281523800000000 As
   0.2973618400000000    0.7500000000000000    0.7500751600000000 Se
   0.7973618400000000    0.7500000000000000    0.7499248400000000 Se
   0.7026381600000000    0.2500000000000000    0.2499248400000000 Se
   0.2026381600000000    0.2500000000000000    0.2500751600000000 Se
   0.4706311300000000    0.7500000000000000    0.4229356900000000 Se
   0.9706311300000000    0.7500000000000000    0.0770643100000000 Se
   0.5293688700000000    0.2500000000000000    0.5770643100000000 Se
   0.0293688700000000    0.2500000000000000    0.9229356900000000 Se
   0.1389446500000000    0.9175420700000000    0.4743500900000000 Se
   0.6389446500000000    0.5824579300000000    0.0256499100000000 Se
   0.8610553500000000    0.4175420700000000    0.5256499100000001 Se
   0.3610553500000000    0.0824579300000000    0.9743500899999999 Se
   0.8610553500000000    0.0824579300000000    0.5256499100000001 Se
   0.3610553500000000    0.4175420700000000    0.9743500899999999 Se
   0.1389446500000000    0.5824579300000000    0.4743500900000000 Se
   0.6389446500000000    0.9175420700000000    0.0256499100000000 Se
