Ag20 Ge4 O16
1.0
   6.3411835800000000    0.0000000000000000    0.0495407300000000
   0.0000000000000000    9.7739180700000006    0.0000000000000000
  -6.1015519400000002    0.0000000000000000    9.0013117499999993
Ag Ge O
20 4 16
direct
   0.9267007000000000    0.4114016700000000    0.0910756000000000 Ag
   0.0732993000000000    0.9114016700000001    0.4089244000000000 Ag
   0.0732993000000000    0.5885983299999999    0.9089244000000000 Ag
   0.9267007000000000    0.0885983300000000    0.5910756000000000 Ag
   0.3910833500000000    0.3531653700000000    0.1206408500000000 Ag
   0.6089166499999999    0.8531653700000000    0.3793591500000000 Ag
   0.6089166499999999    0.6468346300000000    0.8793591500000000 Ag
   0.3910833500000000    0.1468346300000000    0.6206408500000000 Ag
   0.6783750300000000    0.4079753600000000    0.6970874400000000 Ag
   0.3216249700000000    0.9079753600000000    0.8029125600000000 Ag
   0.3216249700000000    0.5920246400000000    0.3029125600000000 Ag
   0.6783750300000000    0.0920246400000000    0.1970874400000000 Ag
   0.2028605600000000    0.3767309800000000    0.4272418900000000 Ag
   0.7971394400000000    0.8767309800000000    0.0727581100000000 Ag
   0.7971394400000000    0.6232690200000000    0.5727581100000000 Ag
   0.2028605600000000    0.1232690200000000    0.9272418900000000 Ag
   0.6540779600000000    0.3753909000000000    0.4401190200000000 Ag
   0.3459220400000000    0.8753909000000000    0.0598809800000000 Ag
   0.3459220400000000    0.6246091000000000    0.5598809800000000 Ag
   0.6540779600000000    0.1246091000000000    0.9401190200000000 Ag
   0.2487432200000000    0.3915530300000000    0.7620004400000000 Ge
   0.7512567800000000    0.8915530300000000    0.7379995600000000 Ge
   0.7512567800000000    0.6084469700000000    0.2379995600000000 Ge
   0.2487432200000000    0.1084469700000000    0.2620004400000000 Ge
   0.7794429600000000    0.4271005200000000    0.2720762100000000 O
   0.2205570400000000    0.9271005200000000    0.2279237900000000 O
   0.2205570400000000    0.5728994800000000    0.7279237900000000 O
   0.7794429600000000    0.0728994800000000    0.7720762100000000 O
   0.0786744600000000    0.2955946900000000    0.5925703900000000 O
   0.9213255400000000    0.7955946900000000    0.9074296100000000 O
   0.9213255400000000    0.7044053100000000    0.4074296100000000 O
   0.0786744600000000    0.2044053100000000    0.0925703900000000 O
   0.5769446300000000    0.3465657400000000    0.8603946700000000 O
   0.1088696800000000    0.1397016400000000    0.3652604400000000 O
   0.4230553700000000    0.8465657400000000    0.6396053300000000 O
   0.5769446300000000    0.1534342600000000    0.3603946700000000 O
   0.1088696800000000    0.3602983600000000    0.8652604400000000 O
   0.8911303200000000    0.8602983600000000    0.6347395600000000 O
   0.8911303200000000    0.6397016400000000    0.1347395600000000 O
   0.4230553700000000    0.6534342600000000    0.1396053300000000 O
