Si8 Se16
1.0
   6.2378303900000001    0.0000000000000000   -0.0000550100000000
   0.0000000000000000   17.3194812899999988    0.0000000000000000
  -0.9735619000000000    0.0000000000000000    6.0427501100000001
Si Se
8 16
direct
   0.1177805300000000    0.0648919300000000    0.1202299800000000 Si
   0.8822194700000000    0.5648919300000000    0.3797700200000000 Si
   0.8822194700000000    0.9351080700000000    0.8797700200000000 Si
   0.1177805300000000    0.4351080700000000    0.6202299800000000 Si
   0.3484583800000000    0.1955038200000000    0.3550897700000000 Si
   0.6515416200000000    0.6955038200000000    0.1449102300000000 Si
   0.6515416200000000    0.8044961800000000    0.6449102300000000 Si
   0.3484583800000000    0.3044961800000000    0.8550897700000000 Si
   0.9844975300000000    0.1792295600000000    0.2347762900000000 Se
   0.0155024700000000    0.6792295600000000    0.2652237100000000 Se
   0.0155024700000000    0.8207704400000000    0.7652237100000000 Se
   0.9844975300000000    0.3207704400000000    0.7347762900000000 Se
   0.4738877300000000    0.3084503000000000    0.2287357200000000 Se
   0.5261122700000000    0.8084503000000000    0.2712642800000000 Se
   0.5261122700000000    0.6915497000000000    0.7712642800000000 Se
   0.4738877300000000    0.1915497000000000    0.7287357200000000 Se
   0.4821209000000000    0.0810615100000000    0.2438307200000000 Se
   0.5178791000000000    0.5810615099999999    0.2561692800000000 Se
   0.5178791000000000    0.9189384900000001    0.7561692800000001 Se
   0.4821209000000000    0.4189384900000000    0.7438307199999999 Se
   0.0127731600000000    0.4534093000000000    0.2473903500000000 Se
   0.9872268400000000    0.9534093000000000    0.2526096500000000 Se
   0.9872268400000000    0.5465907000000000    0.7526096500000000 Se
   0.0127731600000000    0.0465907000000000    0.7473903500000000 Se
