Ta1 Cu3 Se4
1.0
   5.6303890499999998    0.0000000000000000    0.0000000000000000
   0.0000000000000000    5.6303890499999998    0.0000000000000000
   0.0000000000000000    0.0000000000000000    5.6303890499999998
Ta Cu Se
1 3 4
direct
   0.0000000000000000    0.0000000000000000    0.0000000000000000 Ta
   0.5000000000000000    0.0000000000000000    0.0000000000000000 Cu
   0.0000000000000000    0.0000000000000000    0.5000000000000000 Cu
   0.0000000000000000    0.5000000000000000    0.0000000000000000 Cu
   0.2510410900000000    0.2510410900000000    0.2510410900000000 Se
   0.7489589100000000    0.7489589100000000    0.2510410900000000 Se
   0.7489589100000000    0.2510410900000000    0.7489589100000000 Se
   0.2510410900000000    0.7489589100000000    0.7489589100000000 Se
