Na1 In1 O2
1.0
   1.6266306300000000    0.9391359200000000    5.4225791799999996
  -1.6266306300000000    0.9391359200000000    5.4225791799999996
   0.0000000000000000   -1.8782708600000000    5.4225791900000004
Na In O
1 1 2
direct
   0.5000000000000000    0.5000000000000000    0.5000000000000000 Na
   0.0000000000000000    0.0000000000000000    0.0000000000000000 In
   0.7400957000000000    0.7400957000000000    0.7400957000000000 O
   0.2599043000000000    0.2599043000000000    0.2599043000000000 O
