Ga2 Ag2 Te2 Se2
1.0
  -3.0190796899999999    3.1072945000000001    5.7297485100000003
   3.0190796899999999   -3.1072945000000001    5.7297485100000003
   3.0190796899999999    3.1072945000000001   -5.7297485100000003
Ga Ag Te Se
2 2 2 2
direct
   0.1311765100000000    0.8811765100000000    0.2500000000000000 Ga
   0.3688234900000000    0.6188234900000000    0.7500000000000000 Ga
   0.6398391800000000    0.3898391800000000    0.2500000000000000 Ag
   0.8601608200000000    0.1101608200000000    0.7500000000000000 Ag
   0.2500000000000000    0.5091282800000000    0.2591282800000000 Te
   0.7500000000000000    0.9908717200000000    0.2408717200000000 Te
   0.4673764500000000    0.2500000000000000    0.7173764500000001 Se
   0.0326235500000000    0.7500000000000000    0.7826235499999999 Se
