Ba3 Mg1 Ta1 Nb1 O9
1.0
   5.7925353399999997   -0.0000000000000000    0.0000000000000000
  -2.8962671699999998    5.0164822700000000    0.0000000000000000
   0.0000000000000000    0.0000000000000000    7.1171521499999999
Ba Mg Ta Nb O
3 1 1 1 9
direct
   0.3333330000000000    0.6666670000000000    0.0008653500000000 Ba
   0.6666670000000000    0.3333330000000000    0.6612155400000000 Ba
   0.0000000000000000    0.0000000000000000    0.3367387600000000 Ba
   0.3333330000000000    0.6666670000000000    0.4974597900000000 Mg
   0.6666670000000000    0.3333330000000000    0.1758645500000000 Ta
   0.0000000000000000    0.0000000000000000    0.8228277000000001 Nb
   0.9912084799999999    0.4956047400000000    0.3265474400000000 O
   0.5043952600000000    0.4956047400000000    0.3265474400000000 O
   0.5043952600000000    0.0087915200000000    0.3265474400000000 O
   0.6731777300000000    0.8365893700000000    0.6734931700000000 O
   0.1634106300000000    0.8365893700000000    0.6734931700000000 O
   0.1634106300000000    0.3268222700000000    0.6734931700000000 O
   0.8322219400000000    0.1677780600000000    0.0016338300000000 O
   0.8322219400000000    0.6644438800000000    0.0016338300000000 O
   0.3355561200000000    0.1677780600000000    0.0016338300000000 O
