Na2 B2 S4 O16
1.0
   5.5222590199999999    0.0000000000000000   -0.0189593300000000
   0.0000000000000000    7.5066380800000001    0.0000000000000000
  -2.5321304800000002    0.0000000000000000    7.3508636899999997
Na B S O
2 2 4 16
direct
   0.5000000000000000    0.5667531099999999    0.7500000000000000 Na
   0.5000000000000000    0.4332468900000000    0.2500000000000000 Na
   0.0000000000000000    0.9532180000000000    0.2500000000000000 B
   0.0000000000000000    0.0467820000000000    0.7500000000000000 B
   0.1312280300000000    0.2268959100000000    0.4942166500000000 S
   0.8687719699999999    0.2268959100000000    0.0057833500000000 S
   0.8687719699999999    0.7731040900000000    0.5057833500000000 S
   0.1312280300000000    0.7731040900000000    0.9942166500000000 S
   0.8732025300000000    0.2892657200000000    0.4099912000000000 O
   0.1267974700000000    0.2892657200000000    0.0900088000000000 O
   0.1267974700000000    0.7107342800000001    0.5900088000000000 O
   0.8732025300000000    0.7107342800000001    0.9099912000000000 O
   0.1789890200000000    0.0573234000000000    0.3969862900000000 O
   0.8210109799999999    0.0573234000000000    0.1030137100000000 O
   0.8210109799999999    0.9426766000000000    0.6030137100000000 O
   0.1789890200000000    0.9426766000000000    0.8969862900000000 O
   0.1742633900000000    0.1615426800000000    0.6894583600000000 O
   0.8257366100000000    0.1615426800000000    0.8105416400000000 O
   0.8257366100000000    0.8384573200000000    0.3105416400000000 O
   0.1742633900000000    0.8384573200000000    0.1894583600000000 O
   0.3381212300000000    0.3484852800000000    0.5080070700000000 O
   0.6618787699999999    0.3484852800000000    0.9919929300000000 O
   0.6618787699999999    0.6515147200000000    0.4919929300000000 O
   0.3381212300000000    0.6515147200000000    0.0080070700000000 O
