Li4 B4 Se10
1.0
   5.3064286999999997   -2.6245798100000002   -0.0057553200000000
   5.3064286999999997    2.6245798100000002   -0.0057553200000000
  -4.2731381700000002    0.0000000000000000   11.6719387900000005
Li B Se
4 4 10
direct
   0.1447933500000000    0.1125330600000000    0.9332707099999999 Li
   0.8874669400000000    0.8552066500000000    0.5667292900000001 Li
   0.8552066500000000    0.8874669400000000    0.0667292900000000 Li
   0.1125330600000000    0.1447933500000000    0.4332707100000000 Li
   0.6922679900000001    0.5881445100000000    0.7066561200000000 B
   0.4118554900000000    0.3077320100000000    0.7933438800000000 B
   0.3077320100000000    0.4118554900000000    0.2933438800000000 B
   0.5881445100000000    0.6922679900000001    0.2066561200000000 B
   0.2421487000000000    0.7578513000000000    0.2500000000000000 Se
   0.7578513000000000    0.2421487000000000    0.7500000000000000 Se
   0.5720826900000000    0.9229496400000000    0.8407878900000000 Se
   0.0770503600000000    0.4279173100000000    0.6592121100000000 Se
   0.4279173100000000    0.0770503600000000    0.1592121100000000 Se
   0.9229496400000000    0.5720826900000000    0.3407878900000000 Se
   0.3967384800000000    0.7340154500000000    0.5607084900000000 Se
   0.2659845500000000    0.6032615200000000    0.9392915100000000 Se
   0.6032615200000000    0.2659845500000000    0.4392915100000000 Se
   0.7340154500000000    0.3967384800000000    0.0607084900000000 Se
