Cd1 Ag2 Sn3 S8
1.0
   3.7863374900000002    2.1860433399999999    6.2436000500000004
  -3.7863374900000002    2.1860433399999999    6.2436000500000004
   0.0000000000000000   -4.3720866799999998    6.2436000500000004
Cd Ag Sn S
1 2 3 8
direct
   0.5000000000000000    0.5000000000000000    0.5000000000000000 Cd
   0.8829530900000000    0.8829530900000000    0.8829530900000000 Ag
   0.1170469100000000    0.1170469100000000    0.1170469100000000 Ag
   0.5000000000000000    0.0000000000000000    0.5000000000000000 Sn
   0.5000000000000000    0.5000000000000000    0.0000000000000000 Sn
   0.0000000000000000    0.5000000000000000    0.5000000000000000 Sn
   0.7454868200000000    0.7454868200000000    0.7454868200000000 S
   0.7457081300000000    0.2791968500000000    0.7457081300000000 S
   0.7457081300000000    0.7457081300000000    0.2791968500000000 S
   0.2791968500000000    0.7457081300000000    0.7457081300000000 S
   0.2545131800000000    0.2545131800000000    0.2545131800000000 S
   0.2542918700000000    0.7208031499999999    0.2542918700000000 S
   0.2542918700000000    0.2542918700000000    0.7208031499999999 S
   0.7208031499999999    0.2542918700000000    0.2542918700000000 S
