Li4 W2 O8
1.0
   4.8843992800000002   -2.9508783599999999    0.0157978400000000
   4.8843992800000002    2.9508783599999999    0.0157978400000000
  -0.1203462100000000    0.0000000000000000    5.0359274899999997
Li W O
4 2 8
direct
   0.4526486600000000    0.1558846000000000    0.7361197000000000 Li
   0.8441154000000000    0.5473513400000000    0.7638803000000000 Li
   0.5473513400000000    0.8441154000000000    0.2638803000000000 Li
   0.1558846000000000    0.4526486600000000    0.2361197000000000 Li
   0.1655965700000000    0.8344034299999999    0.7500000000000000 W
   0.8344034299999999    0.1655965700000000    0.2500000000000000 W
   0.7732883000000000    0.4840417500000000    0.1288649700000000 O
   0.4840417500000000    0.7732883000000000    0.6288649700000000 O
   0.0034247000000000    0.2082539600000000    0.5685108600000000 O
   0.7917460400000000    0.9965753000000001    0.9314891400000000 O
   0.9965753000000001    0.7917460400000000    0.4314891400000000 O
   0.2082539600000000    0.0034247000000000    0.0685108600000000 O
   0.2267117000000000    0.5159582500000000    0.8711350300000000 O
   0.5159582500000000    0.2267117000000000    0.3711350300000000 O
