Sr4 Cr4 O16
1.0
   6.6910836500000004    0.0000000000000000    0.0011836500000000
   0.0000000000000000    7.3806517100000004    0.0000000000000000
  -5.0804076399999998    0.0000000000000000    6.8928047399999999
Sr Cr O
4 4 16
direct
   0.6722249700000000    0.3425936600000000    0.7734268700000000 Sr
   0.3277750300000000    0.8425936600000000    0.7265731300000000 Sr
   0.3277750300000000    0.6574063400000000    0.2265731300000000 Sr
   0.6722249700000000    0.1574063400000000    0.2734268700000000 Sr
   0.1889415500000000    0.3350048300000000    0.8030948900000000 Cr
   0.8110584500000000    0.8350048300000000    0.6969051100000000 Cr
   0.8110584500000000    0.6649951700000000    0.1969051100000000 Cr
   0.1889415500000000    0.1649951700000000    0.3030948900000000 Cr
   0.9047926100000000    0.2793274400000000    0.6200792300000000 O
   0.0952073900000000    0.7793274400000000    0.8799207700000000 O
   0.0952073900000000    0.7206725600000000    0.3799207700000000 O
   0.9047926100000000    0.2206725600000000    0.1200792300000000 O
   0.3026512700000000    0.4972108000000000    0.7432997800000000 O
   0.6973487300000000    0.9972108000000000    0.7567002200000000 O
   0.6973487300000000    0.5027892000000000    0.2567002200000000 O
   0.3026512700000000    0.0027892000000000    0.2432997800000000 O
   0.1679635800000000    0.3987711400000000    0.9771794499999999 O
   0.8320364200000000    0.8987711400000000    0.5228205500000001 O
   0.8320364200000000    0.6012288600000000    0.0228205500000000 O
   0.1679635800000000    0.1012288600000000    0.4771794500000000 O
   0.3836803500000000    0.1607111800000000    0.8816452700000000 O
   0.6163196500000000    0.6607111800000000    0.6183547300000000 O
   0.6163196500000000    0.8392888200000000    0.1183547300000000 O
   0.3836803500000000    0.3392888200000000    0.3816452700000000 O
