Li2 Nb2 O6
1.0
   2.5913587699999998    1.4961216799999999    4.6512878799999999
  -2.5913587699999998    1.4961216799999999    4.6512878799999999
   0.0000000000000000   -2.9922433599999998    4.6512878799999999
Li Nb O
2 2 6
direct
   0.7203235700000000    0.7203235700000000    0.7203235700000000 Li
   0.2203235700000000    0.2203235700000000    0.2203235700000000 Li
   0.0033959900000000    0.0033959900000000    0.0033959900000000 Nb
   0.5033959900000000    0.5033959900000000    0.5033959900000000 Nb
   0.8911410100000000    0.6323504800000000    0.2791889600000000 O
   0.2791889600000000    0.8911410100000000    0.6323504800000000 O
   0.6323504800000000    0.2791889600000000    0.8911410100000000 O
   0.1323504800000000    0.3911410100000000    0.7791889600000000 O
   0.7791889600000000    0.1323504800000000    0.3911410100000000 O
   0.3911410100000000    0.7791889600000000    0.1323504800000000 O
