Sr4 Al4 Si2 O14
1.0
   5.2549807299999998    0.0000000000000000    0.0234022700000000
   0.0000000000000000    7.8375517200000004    0.0000000000000000
   0.0276132100000000    0.0000000000000000    7.8480415900000002
Sr Al Si O
4 4 2 14
direct
   0.4827883400000000    0.8435542499999999    0.0771341400000000 Sr
   0.5172116600000000    0.3435542500000000    0.9228658600000000 Sr
   0.4959374300000000    0.1650259400000000    0.4020856200000000 Sr
   0.5040625700000000    0.6650259400000000    0.5979143800000000 Sr
   0.0013734800000000    0.4993836600000000    0.2535773000000000 Al
   0.9986265200000000    0.9993836600000000    0.7464227000000000 Al
   0.0328822300000000    0.6415809500000000    0.8929278200000000 Al
   0.9671177700000000    0.1415809500000000    0.1070721800000000 Al
   0.0429437900000000    0.3572120100000000    0.6084500400000000 Si
   0.9570562100000000    0.8572120100000000    0.3915499600000000 Si
   0.8357110300000000    0.9868026800000000    0.2490483100000000 O
   0.1642889700000000    0.4868026800000000    0.7509516899999999 O
   0.7049701500000000    0.6425056600000000    0.8877598300000000 O
   0.2950298500000000    0.1425056600000000    0.1122401700000000 O
   0.7363564900000000    0.3586874100000000    0.6048134700000000 O
   0.2636435100000000    0.8586874100000000    0.3951865300000000 O
   0.1839784500000000    0.5859610900000000    0.0865358400000000 O
   0.8160215500000000    0.0859610900000000    0.9134641600000000 O
   0.1838547800000000    0.4179804500000000    0.4277520000000000 O
   0.8161452200000000    0.9179804499999999    0.5722480000000000 O
   0.8249606900000001    0.6706194700000000    0.3479156400000000 O
   0.1750393100000000    0.1706194700000000    0.6520843600000000 O
   0.8115356000000000    0.3306834300000000    0.1789838000000000 O
   0.1884644000000000    0.8306834300000000    0.8210162000000000 O
