Mo4 P8 O28
1.0
   7.3889604699999998    0.0000000000000000    0.0570573800000000
   0.0000000000000000    8.2607766100000006    0.0000000000000000
  -3.4055353400000001    0.0000000000000000    9.0391398800000005
Mo P O
4 8 28
direct
   0.7310247300000000    0.0090886400000000    0.7513627100000000 Mo
   0.2689752700000000    0.9909113600000000    0.2486372900000000 Mo
   0.7310247300000000    0.4909113600000000    0.2513627100000000 Mo
   0.2689752700000000    0.5090886400000000    0.7486372900000000 Mo
   0.3316640800000000    0.2887523500000000    0.0482787400000000 P
   0.6683359200000000    0.7112476500000000    0.9517212600000000 P
   0.3316640800000000    0.2112476500000000    0.5482787400000000 P
   0.9413284000000000    0.2521092700000000    0.5537132299999999 P
   0.6683359200000000    0.7887523500000000    0.4517212600000000 P
   0.0586716000000000    0.7521092700000001    0.9462867700000001 P
   0.9413284000000000    0.2478907300000000    0.0537132300000000 P
   0.0586716000000000    0.7478907299999999    0.4462867700000000 P
   0.8291200600000000    0.1326129300000000    0.6089677300000000 O
   0.8336201200000000    0.3049148200000000    0.3973418900000000 O
   0.4774586300000000    0.4008812500000000    0.1633652800000000 O
   0.0204194800000000    0.3991426200000000    0.6576676100000000 O
   0.1281446200000000    0.1515352500000000    0.5541349600000000 O
   0.1663798800000000    0.6950851800000000    0.6026581100000000 O
   0.5225413700000000    0.9008812500000000    0.3366347200000000 O
   0.1281446200000000    0.3484647500000000    0.0541349600000000 O
   0.5225413700000000    0.5991187500000000    0.8366347200000001 O
   0.1708799400000000    0.6326129300000000    0.8910322700000000 O
   0.8336201200000000    0.1950851800000000    0.8973418900000000 O
   0.6569186299999999    0.6849398700000000    0.1038096000000000 O
   0.3549994200000000    0.3881476600000000    0.5935323700000000 O
   0.1663798800000000    0.8049148200000000    0.1026581100000000 O
   0.9795805200000000    0.8991426200000000    0.8423323900000000 O
   0.1708799400000000    0.8673870700000000    0.3910322700000000 O
   0.8718553800000000    0.6515352500000000    0.9458650400000000 O
   0.4774586300000000    0.0991187500000000    0.6633652799999999 O
   0.8718553800000000    0.8484647500000000    0.4458650400000000 O
   0.3430813700000000    0.1849398700000000    0.3961904000000000 O
   0.6450005800000000    0.8881476600000000    0.9064676300000000 O
   0.0204194800000000    0.1008573800000000    0.1576676100000000 O
   0.6450005800000000    0.6118523400000000    0.4064676300000000 O
   0.3549994200000000    0.1118523400000000    0.0935323700000000 O
   0.8291200600000000    0.3673870700000000    0.1089677300000000 O
   0.9795805200000000    0.6008573800000000    0.3423323900000000 O
   0.6569186299999999    0.8150601300000000    0.6038095999999999 O
   0.3430813700000000    0.3150601300000000    0.8961904000000001 O
