Y2 Cu6 S6
1.0
   3.2930979100000002    1.9012708400000000    6.2654070600000002
  -3.2930978700000000    1.9012709000000001    6.2654070600000002
  -0.0000000300000000   -3.8025417500000001    6.2654070600000002
Y Cu S
2 6 6
direct
   0.8335903200000000    0.8335903200000000    0.8335903200000000 Y
   0.1664096800000000    0.1664096800000000    0.1664096800000000 Y
   0.9627051500000000    0.6245112100000000    0.2852002400000000 Cu
   0.2852002400000000    0.9627051500000000    0.6245112100000000 Cu
   0.6245112100000000    0.2852002400000000    0.9627051500000000 Cu
   0.3754887900000000    0.7147997600000000    0.0372948500000000 Cu
   0.7147997600000000    0.0372948500000000    0.3754887900000000 Cu
   0.0372948500000000    0.3754887900000000    0.7147997600000000 Cu
   0.7471786300000000    0.4169651700000000    0.0843115900000000 S
   0.4169651700000000    0.0843115900000000    0.7471786300000000 S
   0.0843115900000000    0.7471786300000000    0.4169651700000000 S
   0.9156884100000000    0.2528213700000000    0.5830348300000000 S
   0.5830348300000000    0.9156884100000000    0.2528213700000000 S
   0.2528213700000000    0.5830348300000000    0.9156884100000000 S
