Ba2 Zn4 Si4 O14
1.0
   6.4201530099999999   -3.9424923999999999    0.0000000000000000
   6.4201530099999999    3.9424923999999999    0.0000000000000000
   0.0000000000000000    0.0000000000000000    6.5386720499999997
Ba Zn Si O
2 4 4 14
direct
   0.7744858999999999    0.2255141000000000    0.2500000000000000 Ba
   0.2255141000000000    0.7744858999999999    0.7500000000000000 Ba
   0.2756330400000000    0.2756330400000000    0.5000000000000000 Zn
   0.7243669600000000    0.7243669600000000    0.5000000000000000 Zn
   0.2756330400000000    0.2756330400000000    0.0000000000000000 Zn
   0.7243669600000000    0.7243669600000000    0.0000000000000000 Zn
   0.6731270000000000    0.0853993000000000    0.7500000000000000 Si
   0.9146007000000000    0.3268730000000000    0.7500000000000000 Si
   0.0853993000000000    0.6731270000000000    0.2500000000000000 Si
   0.3268730000000000    0.9146007000000000    0.2500000000000000 Si
   0.8393700100000000    0.7709376700000000    0.2500000000000000 O
   0.4461807000000000    0.8209351499999999    0.4594552300000000 O
   0.7709376700000000    0.8393700100000000    0.7500000000000000 O
   0.4461807000000000    0.8209351499999999    0.0405447700000000 O
   0.1606299900000000    0.2290623300000000    0.7500000000000000 O
   0.8788295900000000    0.1211704100000000    0.7500000000000000 O
   0.5538193000000000    0.1790648500000000    0.5405447700000000 O
   0.1790648500000000    0.5538193000000000    0.4594552300000000 O
   0.5538193000000000    0.1790648500000000    0.9594552300000000 O
   0.8209351499999999    0.4461807000000000    0.9594552300000000 O
   0.1211704100000000    0.8788295900000000    0.2500000000000000 O
   0.1790648500000000    0.5538193000000000    0.0405447700000000 O
   0.8209351499999999    0.4461807000000000    0.5405447700000000 O
   0.2290623300000000    0.1606299900000000    0.2500000000000000 O
