Ag2 As2 O6
1.0
   2.4691079399999998    1.4255403900000001    5.5594992999999997
  -2.4691079399999998    1.4255403799999999    5.5594992999999997
   0.0000000000000000   -2.8510797900000000    5.5594992999999997
Ag As O
2 2 6
direct
   0.1444748200000000    0.1444748200000000    0.1444748200000000 Ag
   0.8555251800000000    0.8555251800000000    0.8555251800000000 Ag
   0.3358891200000000    0.3358891200000000    0.3358891200000000 As
   0.6641108800000000    0.6641108800000000    0.6641108800000000 As
   0.6806488800000000    0.0587042400000000    0.4499365900000000 O
   0.9412957600000000    0.5500634100000000    0.3193511200000000 O
   0.5500634100000000    0.3193511200000000    0.9412957600000000 O
   0.4499365900000000    0.6806488800000000    0.0587042400000000 O
   0.0587042400000000    0.4499365900000000    0.6806488800000000 O
   0.3193511200000000    0.9412957600000000    0.5500634100000000 O
