Ga4 Ge1 O8
1.0
   6.1181955600000002   -1.5101039900000000    0.0111117400000000
   6.1181955600000002    1.5101039900000000    0.0111117400000000
  -5.3972294300000003    0.0000000000000000    7.7257010599999996
Ga Ge O
4 1 8
direct
   0.5364150300000000    0.5364150300000000    0.7155110400000000 Ga
   0.4635849700000000    0.4635849700000000    0.2844889600000000 Ga
   0.2415662700000000    0.2415662700000000    0.6391426200000000 Ga
   0.7584337300000000    0.7584337300000000    0.3608573800000000 Ga
   0.0000000000000000    0.0000000000000000    0.0000000000000000 Ge
   0.1098155800000000    0.1098155800000000    0.6943527800000000 O
   0.8901844200000000    0.8901844200000000    0.3056472200000000 O
   0.5600313000000000    0.5600313000000000    0.9277582599999999 O
   0.4399687000000000    0.4399687000000000    0.0722417400000000 O
   0.3538195400000000    0.3538195400000000    0.5371255500000000 O
   0.1613063100000000    0.1613063100000000    0.2170420600000000 O
   0.8386936900000000    0.8386936900000000    0.7829579400000000 O
   0.6461804600000000    0.6461804600000000    0.4628744500000000 O
