Rb6 Ga2 O6
1.0
   3.6815176200000002   -5.7132651900000004    0.0041118600000000
   3.6815176200000002    5.7132651900000004    0.0041118600000000
  -1.5853214900000001    0.0000000000000000    6.5766310800000003
Rb Ga O
6 2 6
direct
   0.3722391900000000    0.3722391900000000    0.6535784400000000 Rb
   0.6277608099999999    0.6277608099999999    0.3464215600000000 Rb
   0.8058747200000000    0.1941252800000000    0.5000000000000000 Rb
   0.1941252800000000    0.8058747200000000    0.5000000000000000 Rb
   0.7392389300000000    0.2607610700000000    0.0000000000000000 Rb
   0.2607610700000000    0.7392389300000000    0.0000000000000000 Rb
   0.8343297700000000    0.8343297700000000    0.8510332700000000 Ga
   0.1656702300000000    0.1656702300000000    0.1489667300000000 Ga
   0.9020744700000000    0.9020744700000000    0.1455855400000000 O
   0.0979255300000000    0.0979255300000000    0.8544144600000000 O
   0.5812875400000000    0.8473202800000000    0.7331524200000000 O
   0.1526797200000000    0.4187124600000000    0.2668475800000000 O
   0.4187124600000000    0.1526797200000000    0.2668475800000000 O
   0.8473202800000000    0.5812875400000000    0.7331524200000000 O
