Rb4 Nb4 P4 S22
1.0
   6.8353839000000001    0.0000000000000000   -0.0165401300000000
   0.0000000000000000    7.0433627999999997    0.0000000000000000
  -2.7358380100000002    0.0000000000000000   18.2189792900000000
Rb Nb P S
4 4 4 22
direct
   0.2531935700000000    0.2500000000000000    0.9961642300000000 Rb
   0.7468064300000000    0.7500000000000000    0.0038357700000000 Rb
   0.2257473400000000    0.2500000000000000    0.5043040400000000 Rb
   0.7742526600000000    0.7500000000000000    0.4956959600000000 Rb
   0.6909580200000000    0.9526817200000000    0.7561347899999999 Nb
   0.3090419800000000    0.4526817200000000    0.2438652100000000 Nb
   0.3090419800000000    0.0473182800000000    0.2438652100000000 Nb
   0.6909580200000000    0.5473182800000000    0.7561347899999999 Nb
   0.6845644300000000    0.2500000000000000    0.8963445900000000 P
   0.7903694900000000    0.2500000000000000    0.6252901700000000 P
   0.3154355700000000    0.7500000000000000    0.1036554100000000 P
   0.2096305100000000    0.7500000000000000    0.3747098300000000 P
   0.3790610200000000    0.7500000000000000    0.7324744900000000 S
   0.2688576900000000    0.7500000000000000    0.4844297400000000 S
   0.4909213600000000    0.5194828400000000    0.1380521300000000 S
   0.0580302700000000    0.2500000000000000    0.1840824100000000 S
   0.2234912200000000    0.7500000000000000    0.9963570700000000 S
   0.5459581700000000    0.7500000000000000    0.6514261099999999 S
   0.4540418300000000    0.2500000000000000    0.3485738900000000 S
   0.7765087800000000    0.2500000000000000    0.0036429300000000 S
   0.5324681500000000    0.2500000000000000    0.6752633000000000 S
   0.1065572200000000    0.7500000000000000    0.1742031900000000 S
   0.9419697299999999    0.7500000000000000    0.8159175900000000 S
   0.9434106600000000    0.0141132600000000    0.6664028900000000 S
   0.4909213600000000    0.9805171600000000    0.1380521300000000 S
   0.6209389800000000    0.2500000000000000    0.2675255100000000 S
   0.7311423100000000    0.2500000000000000    0.5155702599999999 S
   0.9434106600000000    0.4858867400000000    0.6664028900000000 S
   0.5090786400000000    0.0194828400000000    0.8619478699999999 S
   0.5090786400000000    0.4805171600000000    0.8619478699999999 S
   0.0565893400000000    0.9858867400000000    0.3335971100000000 S
   0.8934427800000000    0.2500000000000000    0.8257968100000000 S
   0.4675318500000000    0.7500000000000000    0.3247367000000000 S
   0.0565893400000000    0.5141132600000000    0.3335971100000000 S
