Cd2 S2
1.0
   4.1231185100000003    0.0000000000000000    0.0000000000000000
  -2.0615592500000002    3.5707255999999998    0.0000000000000000
   0.0000000000000000    0.0000000000000000    6.7111491100000000
Cd S
2 2
direct
   0.3333330000000000    0.6666670000000000    0.9998119200000000 Cd
   0.6666670000000000    0.3333330000000000    0.4998119200000000 Cd
   0.3333330000000000    0.6666670000000000    0.3760480800000000 S
   0.6666670000000000    0.3333330000000000    0.8760480800000000 S
