Hg1 As2 O6
1.0
   4.9067172899999996    0.0000000000000000    0.0000000000000000
  -2.4533586500000002    4.2493415199999998    0.0000000000000000
   0.0000000000000000    0.0000000000000000    5.0093276900000001
Hg As O
1 2 6
direct
   0.0000000000000000    0.0000000000000000    0.0000000000000000 Hg
   0.6666670000000000    0.3333330000000000    0.5000000000000000 As
   0.3333330000000000    0.6666670000000000    0.5000000000000000 As
   0.3790008000000000    0.3790008000000000    0.7070615800000000 O
   0.6209992000000000    0.0000000000000000    0.7070615800000000 O
   0.0000000000000000    0.6209992000000000    0.7070615800000000 O
   0.3790008000000000    0.0000000000000000    0.2929384200000000 O
   1.0000000000000000    0.3790008000000000    0.2929384200000000 O
   0.6209992000000000    0.6209992000000000    0.2929384200000000 O
