Ba4 Si8 N8 O8
1.0
  14.3981570199999993    0.0000000000000000    0.0000000000000000
   0.0000000000000000    5.3274167900000000    0.0000000000000000
   0.0000000000000000    0.0000000000000000    4.8397510600000002
Ba Si N O
4 8 8 8
direct
   0.0000000000000000    0.7561789300000000    0.7500000000000000 Ba
   0.5000000000000000    0.7438210700000000    0.2500000000000000 Ba
   0.0000000000000000    0.2438210700000000    0.2500000000000000 Ba
   0.5000000000000000    0.2561789300000000    0.7500000000000000 Ba
   0.1993204300000000    0.6622401200000000    0.3041443600000000 Si
   0.3006795700000000    0.1622401200000000    0.3041443600000000 Si
   0.1993204300000000    0.3377598800000000    0.8041443600000000 Si
   0.6993204300000000    0.1622401200000000    0.1958556400000000 Si
   0.8006795700000000    0.3377598800000000    0.6958556400000000 Si
   0.6993204300000000    0.8377598800000000    0.6958556400000000 Si
   0.8006795700000000    0.6622401200000000    0.1958556400000000 Si
   0.3006795700000000    0.8377598800000000    0.8041443600000000 Si
   0.2197061000000000    0.3666081000000000    0.1593848700000000 N
   0.2802939000000000    0.8666081000000000    0.1593848700000000 N
   0.2802939000000000    0.1333919000000000    0.6593848700000000 N
   0.7802939000000000    0.3666081000000000    0.3406151300000000 N
   0.7197061000000000    0.1333919000000000    0.8406151300000000 N
   0.7802939000000000    0.6333919000000000    0.8406151300000000 N
   0.7197061000000000    0.8666081000000000    0.3406151300000000 N
   0.2197061000000000    0.6333919000000000    0.6593848700000000 N
   0.0920624700000000    0.7407617500000000    0.2481366300000000 O
   0.4079375300000000    0.7592382500000000    0.7481366300000000 O
   0.9079375300000000    0.7407617500000000    0.2518633700000000 O
   0.5920624700000000    0.7592382500000000    0.7518633700000000 O
   0.9079375300000000    0.2592382500000000    0.7518633700000000 O
   0.5920624700000000    0.2407617500000000    0.2518633700000000 O
   0.4079375300000000    0.2407617500000000    0.2481366300000000 O
   0.0920624700000000    0.2592382500000000    0.7481366300000000 O
