Ca4 V4 Bi4 O20
1.0
   5.7172895400000003    0.0000000000000000    0.0124062000000000
   0.0000000000000000   11.7033916399999995    0.0000000000000000
  -2.7883749899999999    0.0000000000000000    7.6774453500000002
Ca V Bi O
4 4 4 20
direct
   0.4532666900000000    0.9125409100000000    0.8125680300000000 Ca
   0.5467333100000000    0.0874590900000000    0.1874319700000000 Ca
   0.5467333100000000    0.4125409100000000    0.6874319700000000 Ca
   0.4532666900000000    0.5874590900000000    0.3125680300000000 Ca
   0.8311243400000000    0.6444864800000000    0.0266557700000000 V
   0.1688756600000000    0.3555135200000000    0.9733442300000000 V
   0.1688756600000000    0.1444864800000000    0.4733442300000000 V
   0.8311243400000000    0.8555135200000000    0.5266557700000000 V
   0.9630962500000000    0.0952571700000000    0.8334450500000000 Bi
   0.0369037500000000    0.9047428300000000    0.1665549500000000 Bi
   0.9630962500000000    0.4047428300000000    0.3334450500000000 Bi
   0.0369037500000000    0.5952571700000000    0.6665549500000000 Bi
   0.2340143000000000    0.0751548900000000    0.6716431300000000 O
   0.7488969800000000    0.9419956100000000    0.6744427500000000 O
   0.8626382900000000    0.1804442700000000    0.3939372800000000 O
   0.2293702500000000    0.5254654100000000    0.4868442100000000 O
   0.3117824800000000    0.2765228100000000    0.4973231100000000 O
   0.3117824800000000    0.2234771900000000    0.9973231100000000 O
   0.7488969800000000    0.5580043900000000    0.1744427500000000 O
   0.2511030200000000    0.4419956100000000    0.8255572500000000 O
   0.7706297500000000    0.4745345900000000    0.5131557900000000 O
   0.7659857000000000    0.5751548900000000    0.8283568700000000 O
   0.6882175200000000    0.7234771900000000    0.5026768900000000 O
   0.7659857000000000    0.9248451100000000    0.3283568700000000 O
   0.2340143000000000    0.4248451100000000    0.1716431300000000 O
   0.6882175200000000    0.7765228100000000    0.0026768900000000 O
   0.7706297500000000    0.0254654100000000    0.0131557900000000 O
   0.2293702500000000    0.9745345900000000    0.9868442100000000 O
   0.1373617100000000    0.8195557300000000    0.6060627200000001 O
   0.2511030200000000    0.0580043900000000    0.3255572500000000 O
   0.1373617100000000    0.6804442700000000    0.1060627200000000 O
   0.8626382900000000    0.3195557300000000    0.8939372799999999 O
