Ag4 Se2 O8
1.0
   0.0000000000000000    5.3158603099999997    6.3774992099999999
   2.9321193000000001    0.0000000000000000    6.3774992099999999
   2.9321193000000001    5.3158603099999997    0.0000000000000000
Ag Se O
4 2 8
direct
   0.9437698200000000    0.5562301800000000    0.9437698200000000 Ag
   0.5562301800000000    0.9437698200000000    0.5562301800000000 Ag
   0.3062301800000000    0.6937698200000000    0.3062301800000000 Ag
   0.6937698200000000    0.3062301800000000    0.6937698200000000 Ag
   0.0000000000000000    0.0000000000000000    0.0000000000000000 Se
   0.2500000000000000    0.2500000000000000    0.2500000000000000 Se
   0.8196961800000000    0.3299309500000000    0.9903660500000000 O
   0.8600078200000000    0.9903660500000000    0.3299309500000000 O
   0.3299309500000000    0.8196961800000000    0.8600078200000000 O
   0.9903660500000000    0.8600078200000000    0.8196961800000000 O
   0.2596339500000000    0.3899921800000000    0.4303038200000000 O
   0.9200690500000001    0.4303038200000000    0.3899921800000000 O
   0.3899921800000000    0.2596339500000000    0.9200690500000001 O
   0.4303038200000000    0.9200690500000001    0.2596339500000000 O
