Rb2 La2 Mo4 O16
1.0
   6.3392800100000004    0.0000000000000000    0.0000000000000000
   0.0000000000000000    6.3392800100000004    0.0000000000000000
   0.0000000000000000    0.0000000000000000    9.6919841800000004
Rb La Mo O
2 2 4 16
direct
   0.0000000000000000    0.0000000000000000    0.5000000000000000 Rb
   0.5000000000000000    0.5000000000000000    0.0000000000000000 Rb
   0.0000000000000000    0.0000000000000000    0.0000000000000000 La
   0.5000000000000000    0.5000000000000000    0.5000000000000000 La
   0.0000000000000000    0.5000000000000000    0.7500000000000000 Mo
   0.0000000000000000    0.5000000000000000    0.2500000000000000 Mo
   0.5000000000000000    0.0000000000000000    0.7500000000000000 Mo
   0.5000000000000000    0.0000000000000000    0.2500000000000000 Mo
   0.8067803099999999    0.6177917400000000    0.6395306100000000 O
   0.1932196900000000    0.3822082600000000    0.6395306100000000 O
   0.6177917400000000    0.8067803099999999    0.3604693900000000 O
   0.6177917400000000    0.1932196900000000    0.6395306100000000 O
   0.3822082600000000    0.8067803099999999    0.6395306100000000 O
   0.1932196900000000    0.6177917400000000    0.3604693900000000 O
   0.8067803099999999    0.3822082600000000    0.3604693900000000 O
   0.3822082600000000    0.1932196900000000    0.3604693900000000 O
   0.1177917400000000    0.3067803100000000    0.1395306100000000 O
   0.6932196900000001    0.1177917400000000    0.1395306100000000 O
   0.3067803100000000    0.8822082600000000    0.1395306100000000 O
   0.1177917400000000    0.6932196900000001    0.8604693900000000 O
   0.8822082600000000    0.3067803100000000    0.8604693900000000 O
   0.8822082600000000    0.6932196900000001    0.1395306100000000 O
   0.3067803100000000    0.1177917400000000    0.8604693900000000 O
   0.6932196900000001    0.8822082600000000    0.8604693900000000 O
