Ag2 Bi2 W4 O16
1.0
   5.0800778099999997   -5.5081626400000001   -0.0077224300000000
   5.0800778099999997    5.5081626400000001   -0.0077224300000000
  -4.4511753799999996    0.0000000000000000    5.6918478900000000
Ag Bi W O
2 2 4 16
direct
   0.7015911200000000    0.7015911200000000    0.5198104000000000 Ag
   0.2984088800000000    0.2984088800000000    0.4801896000000000 Ag
   0.2854520200000000    0.7145479800000000    0.0000000000000000 Bi
   0.7145479800000000    0.2854520200000000    0.0000000000000000 Bi
   0.8436818200000000    0.1563181800000000    0.5000000000000000 W
   0.1563181800000000    0.8436818200000000    0.5000000000000000 W
   0.7788812100000000    0.7788812100000000    0.0165682000000000 W
   0.2211187900000000    0.2211187900000000    0.9834318000000000 W
   0.6524877700000000    0.8949928900000000    0.2314939000000000 O
   0.8949928900000000    0.6524877700000000    0.2314939000000000 O
   0.3475122300000000    0.1050071100000000    0.7685061000000000 O
   0.1050071100000000    0.3475122300000000    0.7685061000000000 O
   0.3112212400000000    0.7989915900000000    0.3632479500000000 O
   0.7989915900000000    0.3112212400000000    0.3632479500000000 O
   0.6887787600000000    0.2010084100000000    0.6367520500000000 O
   0.2010084100000000    0.6887787600000000    0.6367520500000000 O
   0.4470055800000000    0.4470055800000000    0.1681285500000000 O
   0.5529944200000000    0.5529944200000000    0.8318714500000000 O
   0.3012388000000000    0.0517244300000000    0.1015803000000000 O
   0.0517244300000000    0.3012388000000000    0.1015803000000000 O
   0.6987612000000000    0.9482755700000000    0.8984197000000000 O
   0.9482755700000000    0.6987612000000000    0.8984197000000000 O
   0.0199613400000000    0.0199613400000000    0.3398275400000000 O
   0.9800386600000000    0.9800386600000000    0.6601724600000000 O
