Ba1 Bi6 P4 O20
1.0
   7.0466485700000003    0.0144364100000000   -0.0385010200000000
  -2.8393605399999999    7.1160425900000002    0.0115755200000000
  -0.4312662600000000   -3.0825218400000001    8.5464156399999993
Ba Bi P O
1 6 4 20
direct
   0.0000000000000000    0.5000000000000000    0.0000000000000000 Ba
   0.4439823400000000    0.2935542100000000    0.0907277100000000 Bi
   0.5560176600000000    0.7064457900000000    0.9092722900000000 Bi
   0.8041168500000000    0.8070851400000000    0.3312758600000000 Bi
   0.1958831500000000    0.1929148600000000    0.6687241400000000 Bi
   0.6762023800000000    0.3816867000000000    0.4987696300000000 Bi
   0.3237976200000000    0.6183133000000000    0.5012303700000000 Bi
   0.6471514900000001    0.0909971300000000    0.7365277400000000 P
   0.9540021300000000    0.2288341700000000    0.2493739400000000 P
   0.0459978700000000    0.7711658300000001    0.7506260600000000 P
   0.3528485100000000    0.9090028700000000    0.2634722600000000 P
   0.6393164900000000    0.1594555200000000    0.9126539700000000 O
   0.8628788900000000    0.6716214200000000    0.8265841900000001 O
   0.9644691300000000    0.7196373600000000    0.5735323600000000 O
   0.2033906200000000    0.6723750700000000    0.7571803100000000 O
   0.3606835100000000    0.8405444800000000    0.0873460300000000 O
   0.5160262300000000    0.8734256100000000    0.3591566600000000 O
   0.7966093800000000    0.3276249300000000    0.2428196900000000 O
   0.8509630000000000    0.9995449700000000    0.1677965300000000 O
   0.4421460900000000    0.4703834600000000    0.6356785900000000 O
   0.6743922600000000    0.5962567500000000    0.0980066300000000 O
   0.6078907800000000    0.8663218900000000    0.6783204900000001 O
   0.8633078500000000    0.2161555200000000    0.7101224800000000 O
   0.0355308700000000    0.2803626400000000    0.4264676400000000 O
   0.1371211100000000    0.3283785800000000    0.1734158100000000 O
   0.1490370000000000    0.0004550300000000    0.8322034699999999 O
   0.1366921500000000    0.7838444800000000    0.2898775200000000 O
   0.3256077400000000    0.4037432500000000    0.9019933700000000 O
   0.3921092200000000    0.1336781100000000    0.3216795100000000 O
   0.4839737700000000    0.1265743900000000    0.6408433400000000 O
   0.5578539100000000    0.5296165400000000    0.3643214100000000 O
