Mg6 V4 O16
1.0
   3.0221194400000000   -5.7299474600000000    0.0000000000000000
   3.0221194400000000    5.7299474600000000    0.0000000000000000
   0.0000000000000000    0.0000000000000000    8.3156284100000004
Mg V O
6 4 16
direct
   0.5000000000000000    0.5000000000000000    0.0000000000000000 Mg
   0.0000000000000000    0.0000000000000000    0.5000000000000000 Mg
   0.1141136400000000    0.3858863600000000    0.7500000000000000 Mg
   0.3858863600000000    0.1141136400000000    0.2500000000000000 Mg
   0.6141136400000000    0.8858863600000000    0.7500000000000000 Mg
   0.8858863600000000    0.6141136400000000    0.2500000000000000 Mg
   0.1196137400000000    0.8803862600000000    0.8799521800000000 V
   0.8803862600000000    0.1196137400000000    0.1200478200000000 V
   0.3803862600000000    0.6196137400000000    0.3799521800000000 V
   0.6196137400000000    0.3803862600000000    0.6200478200000000 V
   0.8478968800000000    0.6126105400000000    0.5002048900000000 O
   0.6126105400000000    0.8478968800000000    0.4997951100000000 O
   0.6521031200000000    0.8873894600000000    0.0002048900000000 O
   0.8873894600000000    0.6521031200000000    0.9997951100000000 O
   0.1521031200000000    0.3873894600000000    0.4997951100000000 O
   0.3873894600000000    0.1521031200000000    0.5002048900000000 O
   0.3478968800000000    0.1126105400000000    0.9997951100000000 O
   0.1126105400000000    0.3478968800000000    0.0002048900000000 O
   0.9960505200000001    0.0039494800000000    0.7450513000000000 O
   0.0039494800000000    0.9960505200000001    0.2549487000000000 O
   0.2483464600000000    0.7516535400000000    0.7727591600000000 O
   0.7516535400000000    0.2483464600000000    0.2272408400000000 O
   0.2516535400000000    0.7483464600000000    0.2727591600000000 O
   0.7483464600000000    0.2516535400000000    0.7272408400000000 O
   0.4960505200000000    0.5039494799999999    0.7549487000000000 O
   0.5039494799999999    0.4960505200000000    0.2450513000000000 O
