Cs12 P4 O16
1.0
  12.1280129500000005    0.0000000000000000    0.0000000000000000
   0.0000000000000000    8.8444657800000002    0.0000000000000000
   0.0000000000000000    0.0000000000000000    6.4220678800000002
Cs P O
12 4 16
direct
   0.4251022300000000    0.2500000000000000    0.3607631900000000 Cs
   0.6452978700000001    0.5079295300000000    0.1843046300000000 Cs
   0.9251022300000000    0.2500000000000000    0.1392368100000000 Cs
   0.8547021299999999    0.0079295300000000    0.6843046300000000 Cs
   0.0748977700000000    0.7500000000000000    0.8607631900000000 Cs
   0.3547021300000000    0.0079295300000000    0.8156953700000000 Cs
   0.3547021300000000    0.4920704700000000    0.8156953700000000 Cs
   0.1452978700000000    0.9920704700000000    0.3156953700000000 Cs
   0.5748977700000000    0.7500000000000000    0.6392368100000000 Cs
   0.8547021299999999    0.4920704700000000    0.6843046300000000 Cs
   0.6452978700000001    0.9920704700000000    0.1843046300000000 Cs
   0.1452978700000000    0.5079295300000000    0.3156953700000000 Cs
   0.1124518600000000    0.2500000000000000    0.7257937500000000 P
   0.3875481400000000    0.7500000000000000    0.2257937500000000 P
   0.8875481400000000    0.7500000000000000    0.2742062500000000 P
   0.6124518600000000    0.2500000000000000    0.7742062500000000 P
   0.6060151300000000    0.1046680200000000    0.6366632000000000 O
   0.8939848700000000    0.8953319800000000    0.1366632000000000 O
   0.3939848700000000    0.6046680200000000    0.3633368000000000 O
   0.1060151300000000    0.3953319800000000    0.8633368000000000 O
   0.7231298500000000    0.2500000000000000    0.8996710600000000 O
   0.9856686000000000    0.7500000000000000    0.4330971500000000 O
   0.0143314000000000    0.2500000000000000    0.5669028500000000 O
   0.5143314000000000    0.2500000000000000    0.9330971500000000 O
   0.1060151300000000    0.1046680200000000    0.8633368000000000 O
   0.8939848700000000    0.6046680200000000    0.1366632000000000 O
   0.3939848700000000    0.8953319800000000    0.3633368000000000 O
   0.2768701500000000    0.7500000000000000    0.1003289400000000 O
   0.6060151300000000    0.3953319800000000    0.6366632000000000 O
   0.4856686000000000    0.7500000000000000    0.0669028500000000 O
   0.7768701500000000    0.7500000000000000    0.3996710600000000 O
   0.2231298500000000    0.2500000000000000    0.6003289400000000 O
