Na10 W2 N2 O8
1.0
   4.8898543999999999   -2.8487014199999998    0.0000000000000000
   4.8898543999999999    2.8487014199999998    0.0000000000000000
   0.0000000000000000    0.0000000000000000   10.5288262899999996
Na W N O
10 2 2 8
direct
   0.4658322400000000    0.1633843200000000    0.2392534100000000 Na
   0.1731323300000000    0.2117426300000000    0.9896330300000000 Na
   0.8268676700000001    0.7882573700000000    0.4896330300000000 Na
   0.1633843200000000    0.4658322400000000    0.7392534100000000 Na
   0.4153644800000000    0.5846355200000000    0.9712140900000000 Na
   0.5846355200000000    0.4153644800000000    0.4712140900000000 Na
   0.8366156800000000    0.5341677600000000    0.2392534100000000 Na
   0.2117426300000000    0.1731323300000000    0.4896330300000000 Na
   0.7882573700000000    0.8268676700000001    0.9896330300000000 Na
   0.5341677600000000    0.8366156800000000    0.7392534100000000 Na
   0.2099558900000000    0.7900441100000000    0.2537849900000000 W
   0.7900441100000000    0.2099558900000000    0.7537849900000000 W
   0.0965232400000000    0.9034767600000000    0.7837101500000000 N
   0.9034767600000000    0.0965232400000000    0.2837101500000000 N
   0.1938273400000000    0.5301133200000000    0.3693099400000000 O
   0.8061726600000000    0.4698866800000000    0.8693099399999999 O
   0.1402682000000000    0.5859712300000000    0.1224485100000000 O
   0.5301133200000000    0.1938273400000000    0.8693099399999999 O
   0.4698866800000000    0.8061726600000000    0.3693099400000000 O
   0.4140287700000000    0.8597318000000000    0.1224485100000000 O
   0.5859712300000000    0.1402682000000000    0.6224485100000000 O
   0.8597318000000000    0.4140287700000000    0.6224485100000000 O
