Na2 Sr6 Bi2 O12
1.0
   4.9647176899999996    2.8663810999999999    3.9043782299999998
  -4.9647176899999996    2.8663810999999999    3.9043782299999998
   0.0000000000000000   -5.7327621899999999    3.9043782299999998
Na Sr Bi O
2 6 2 12
direct
   0.2500000000000000    0.2500000000000000    0.2500000000000000 Na
   0.7500000000000000    0.7500000000000000    0.7500000000000000 Na
   0.7500000000000000    0.1006213200000000    0.3993786800000000 Sr
   0.8993786800000000    0.6006213200000000    0.2500000000000000 Sr
   0.1006213200000000    0.3993786800000000    0.7500000000000000 Sr
   0.2500000000000000    0.8993786800000000    0.6006213200000000 Sr
   0.3993786800000000    0.7500000000000000    0.1006213200000000 Sr
   0.6006213200000000    0.2500000000000000    0.8993786800000000 Sr
   0.0000000000000000    0.0000000000000000    0.0000000000000000 Bi
   0.5000000000000000    0.5000000000000000    0.5000000000000000 Bi
   0.5733753100000000    0.7929672000000000    0.4458705800000000 O
   0.7929672000000000    0.4458705800000000    0.5733753100000000 O
   0.2070328000000000    0.5541294200000000    0.4266246900000000 O
   0.0733753100000000    0.9458705800000000    0.2929672000000000 O
   0.5541294200000000    0.4266246900000000    0.2070328000000000 O
   0.4266246900000000    0.2070328000000000    0.5541294200000000 O
   0.9458705800000000    0.2929672000000000    0.0733753100000000 O
   0.2929672000000000    0.0733753100000000    0.9458705800000000 O
   0.9266246900000000    0.0541294200000000    0.7070328000000000 O
   0.4458705800000000    0.5733753100000000    0.7929672000000000 O
   0.0541294200000000    0.7070328000000000    0.9266246900000000 O
   0.7070328000000000    0.9266246900000000    0.0541294200000000 O
