Re4 S4 O26
1.0
   8.5067053999999995    0.0000000000000000    0.0000000000000000
   0.0000000000000000    9.6896832400000008    0.0000000000000000
   0.0000000000000000    0.0000000000000000    6.2117749299999998
Re S O
4 4 26
direct
   0.1762307000000000    0.6082460200000001    0.9696003700000000 Re
   0.8237693000000000    0.3917539800000000    0.9696003700000000 Re
   0.6762307000000000    0.8917539799999999    0.9696003700000000 Re
   0.3237693000000000    0.1082460200000000    0.9696003700000000 Re
   0.3632517600000000    0.8248275500000000    0.2847046700000000 S
   0.6367482400000000    0.1751724500000000    0.2847046700000000 S
   0.8632517600000000    0.6751724500000000    0.2847046700000000 S
   0.1367482400000000    0.3248275500000000    0.2847046700000000 S
   0.3364290800000000    0.6891151900000000    0.1520957900000000 O
   0.6635709200000000    0.3108848100000000    0.1520957900000000 O
   0.8364290800000000    0.8108848100000000    0.1520957900000000 O
   0.1635709200000000    0.1891151900000000    0.1520957900000000 O
   0.2704969100000000    0.9327329600000001    0.1698414400000000 O
   0.7295030900000000    0.0672670400000000    0.1698414400000000 O
   0.7704969100000000    0.5672670399999999    0.1698414400000000 O
   0.2295030900000000    0.4327329600000000    0.1698414400000000 O
   0.5343193899999999    0.8506554800000000    0.2571178300000000 O
   0.4656806100000000    0.1493445200000000    0.2571178300000000 O
   0.0343193900000000    0.6493445200000000    0.2571178300000000 O
   0.9656806100000001    0.3506554800000000    0.2571178300000000 O
   0.3184485400000000    0.8044380500000000    0.5022105100000001 O
   0.6815514600000000    0.1955619500000000    0.5022105100000001 O
   0.8184485400000000    0.6955619500000000    0.5022105100000001 O
   0.1815514600000000    0.3044380500000000    0.5022105100000001 O
   0.0000000000000000    0.5000000000000000    0.8949140000000000 O
   0.5000000000000000    0.0000000000000000    0.8949140000000000 O
   0.1093978800000000    0.7597435800000000    0.8643923100000001 O
   0.8906021200000001    0.2402564200000000    0.8643923100000001 O
   0.6093978799999999    0.7402564200000000    0.8643923100000001 O
   0.3906021200000000    0.2597435800000000    0.8643923100000001 O
   0.3021141200000000    0.5488699400000000    0.7776810700000000 O
   0.6978858800000000    0.4511300600000000    0.7776810700000000 O
   0.8021141200000000    0.9511300600000000    0.7776810700000000 O
   0.1978858800000000    0.0488699400000000    0.7776810700000000 O
