Ba1 Ag2 Ge1 S4
1.0
  -3.3727416200000002    3.3727416200000002    4.0109002100000000
   3.3727416200000002   -3.3727416200000002    4.0109002100000000
   3.3727416200000002    3.3727416200000002   -4.0109002100000000
Ba Ag Ge S
1 2 1 4
direct
   0.0000000000000000    0.0000000000000000    0.0000000000000000 Ba
   0.2500000000000000    0.7500000000000000    0.5000000000000000 Ag
   0.7500000000000000    0.2500000000000000    0.5000000000000000 Ag
   0.5000000000000000    0.5000000000000000    0.0000000000000000 Ge
   0.1495477600000000    0.1495477600000000    0.6162059500000000 S
   0.8504522400000000    0.4666581900000000    0.0000000000000000 S
   0.4666581900000000    0.8504522400000000    0.0000000000000000 S
   0.5333418100000000    0.5333418100000000    0.3837940500000000 S
