Mo4 Pb4 Se4 O24
1.0
   6.8154019699999999   -0.0056708800000000    0.0294140700000000
   0.0155844000000000    7.2521692099999999    0.0144075800000000
   1.9115874799999999    1.7993401300000000   10.5152604499999995
Mo Pb Se O
4 4 4 24
direct
   0.8341062900000000    0.0468151400000000    0.7993145300000000 Mo
   0.1658937100000000    0.9531848600000000    0.2006854700000000 Mo
   0.8341433000000000    0.5500063800000000    0.7962611700000000 Mo
   0.1658567000000000    0.4499936200000000    0.2037388300000000 Mo
   0.2402843900000000    0.1378377100000000    0.5106087800000000 Pb
   0.7597156100000000    0.8621622900000000    0.4893912200000000 Pb
   0.3403612900000000    0.2907851200000000    0.8431796700000000 Pb
   0.6596387100000000    0.7092148800000000    0.1568203300000000 Pb
   0.7087909500000000    0.3608893700000000    0.5287972000000000 Se
   0.2912090500000000    0.6391106300000000    0.4712028000000000 Se
   0.3787681700000000    0.8081693900000000    0.7822647000000000 Se
   0.6212318300000000    0.1918306100000000    0.2177353000000000 Se
   0.8252315200000000    0.9471290400000000    0.9571352700000000 O
   0.1747684800000000    0.0528709600000000    0.0428647300000000 O
   0.0937410600000000    0.1135593400000000    0.7529209700000000 O
   0.9062589400000000    0.8864406600000000    0.2470790300000000 O
   0.8610758800000000    0.8164248800000000    0.7260581600000000 O
   0.1389241200000000    0.1835751200000000    0.2739418400000000 O
   0.7315298800000000    0.2890324900000000    0.8250171300000000 O
   0.2684701200000000    0.7109675100000000    0.1749828700000000 O
   0.8167807600000000    0.1583697900000000    0.5964109700000000 O
   0.1832192400000000    0.8416302100000000    0.4035890300000000 O
   0.5199253700000001    0.9806596000000000    0.8216997900000000 O
   0.4800746300000000    0.0193404000000000    0.1783002100000000 O
   0.8069197800000000    0.5657330100000000    0.9565097500000000 O
   0.1930802200000000    0.4342669900000000    0.0434902500000000 O
   0.0891760400000000    0.5021463900000001    0.7575845600000000 O
   0.9108239600000000    0.4978536100000000    0.2424154400000000 O
   0.7952852300000000    0.5334899400000001    0.6024210300000000 O
   0.2047147700000000    0.4665100600000000    0.3975789700000000 O
   0.5144732500000000    0.6091101300000000    0.8086351500000000 O
   0.4855267500000000    0.3908898700000000    0.1913648500000000 O
   0.4641243600000000    0.3266879100000000    0.6062632300000000 O
   0.5358756400000000    0.6733120900000000    0.3937367700000000 O
   0.4266345600000000    0.8659712600000000    0.6184112100000000 O
   0.5733654400000000    0.1340287400000000    0.3815887900000000 O
