Na6 S6
1.0
   7.5385062300000003    0.0000000000000000    0.0000000000000000
  -3.7692536099999998    6.5285381400000002    0.0000000000000000
   0.0000000000000000    0.0000000000000000    5.2802083299999998
Na S
6 6
direct
   0.3111153300000000    0.0000000000000000    0.0000000000000000 Na
   0.6888846700000000    0.6888846700000000    0.0000000000000000 Na
   0.0000000000000000    0.3111153300000000    0.0000000000000000 Na
   0.6447875700000000    0.0000000000000000    0.5000000000000000 Na
   0.3552124300000000    0.3552124300000000    0.5000000000000000 Na
   0.0000000000000000    0.6447875700000000    0.5000000000000000 Na
   0.0000000000000000    0.0000000000000000    0.2988903800000000 S
   0.0000000000000000    0.0000000000000000    0.7011096200000000 S
   0.3333330000000000    0.6666670000000000    0.2027378500000000 S
   0.3333330000000000    0.6666670000000000    0.7972621500000000 S
   0.6666670000000000    0.3333330000000000    0.7972621500000000 S
   0.6666670000000000    0.3333330000000000    0.2027378500000000 S
