Rb6 Al2 O6
1.0
   3.6175360799999998   -5.6899551700000002    0.0068223100000000
   3.6175360799999998    5.6899551700000002    0.0068223100000000
  -1.6614745600000000    0.0000000000000000    6.5363276499999996
Rb Al O
6 2 6
direct
   0.6296725800000000    0.6296725800000000    0.3476432600000000 Rb
   0.3703274200000000    0.3703274200000000    0.6523567400000000 Rb
   0.8021997800000000    0.1978002200000000    0.5000000000000000 Rb
   0.1978002200000000    0.8021997800000000    0.5000000000000000 Rb
   0.7335596200000000    0.2664403800000000    0.0000000000000000 Rb
   0.2664403800000000    0.7335596200000000    0.0000000000000000 Rb
   0.1577148300000000    0.1577148300000000    0.1462699100000000 Al
   0.8422851700000000    0.8422851700000000    0.8537300900000000 Al
   0.1484927600000000    0.4037789700000000    0.2625304100000000 O
   0.5962210300000000    0.8515072400000000    0.7374695900000000 O
   0.8515072400000000    0.5962210300000000    0.7374695900000000 O
   0.4037789700000000    0.1484927600000000    0.2625304100000000 O
   0.0987718900000000    0.0987718900000000    0.8646318700000000 O
   0.9012281100000000    0.9012281100000000    0.1353681300000000 O
