Na2 Sb10 O26
1.0
   3.3079529600000002   -4.4750447400000004    0.0000000000000000
   3.3079529600000002    4.4750447400000004    0.0000000000000000
   0.0000000000000000    0.0000000000000000   16.5877494399999996
Na Sb O
2 10 26
direct
   0.1255400800000000    0.8744599199999999    0.2500000000000000 Na
   0.8744599199999999    0.1255400800000000    0.7500000000000000 Na
   0.6147587900000000    0.3852412100000000    0.9200081700000000 Sb
   0.3852412100000000    0.6147587900000000    0.0799918300000000 Sb
   0.0000000000000000    0.0000000000000000    0.0000000000000000 Sb
   0.6147587900000000    0.3852412100000000    0.5799918300000000 Sb
   0.3852412100000000    0.6147587900000000    0.4200081700000000 Sb
   0.0000000000000000    0.0000000000000000    0.5000000000000000 Sb
   0.2322459800000000    0.7677540200000000    0.6392136200000000 Sb
   0.2322459800000000    0.7677540200000000    0.8607863800000000 Sb
   0.7677540200000000    0.2322459800000000    0.1392136200000000 Sb
   0.7677540200000000    0.2322459800000000    0.3607863800000000 Sb
   0.0666074200000000    0.5324049900000000    0.1365791300000000 O
   0.5324049900000000    0.0666074200000000    0.6365791300000000 O
   0.5324049900000000    0.0666074200000000    0.8634208700000000 O
   0.0666074200000000    0.5324049900000000    0.3634208700000000 O
   0.3110211700000000    0.3110211700000000    0.0000000000000000 O
   0.3110211700000000    0.3110211700000000    0.5000000000000000 O
   0.9867780100000000    0.0132219900000000    0.3844202900000000 O
   0.8325095500000000    0.1674904500000000    0.2500000000000000 O
   0.7736083300000000    0.2263916700000000    0.0105626400000000 O
   0.7736083300000000    0.2263916700000000    0.4894373600000000 O
   0.5524379800000000    0.4475620200000000    0.3447120200000000 O
   0.4475620200000000    0.5524379800000000    0.8447120200000000 O
   0.2263916700000000    0.7736083300000000    0.5105626400000000 O
   0.0132219900000000    0.9867780100000000    0.6155797100000000 O
   0.4475620200000000    0.5524379800000000    0.6552879800000000 O
   0.0132219900000000    0.9867780100000000    0.8844202900000000 O
   0.1674904500000000    0.8325095500000000    0.7500000000000000 O
   0.2263916700000000    0.7736083300000000    0.9894373600000000 O
   0.9867780100000000    0.0132219900000000    0.1155797100000000 O
   0.5524379800000000    0.4475620200000000    0.1552879800000000 O
   0.6889788300000000    0.6889788300000000    0.5000000000000000 O
   0.6889788300000000    0.6889788300000000    0.0000000000000000 O
   0.9333925800000000    0.4675950100000000    0.6365791300000000 O
   0.4675950100000000    0.9333925800000000    0.3634208700000000 O
   0.4675950100000000    0.9333925800000000    0.1365791300000000 O
   0.9333925800000000    0.4675950100000000    0.8634208700000000 O
