Tl4 Zn4 P4 O16
1.0
   8.6474107199999999    0.0000000000000000   -0.0032875100000000
   0.0000000000000000    5.4302742700000000    0.0000000000000000
  -0.0948299300000000    0.0000000000000000    8.7901161699999992
Tl Zn P O
4 4 4 16
direct
   0.4959498100000000    0.5105556999999999    0.6857846100000000 Tl
   0.5040501900000000    0.0105557000000000    0.3142153900000000 Tl
   0.9987124400000000    0.4904089000000000    0.8093588100000000 Tl
   0.0012875600000000    0.9904089000000000    0.1906411900000000 Tl
   0.3258542800000000    0.4762545600000000    0.0736845000000000 Zn
   0.6741457199999999    0.9762545600000000    0.9263155000000000 Zn
   0.8243521100000000    0.5040201200000000    0.4038660200000000 Zn
   0.1756478900000000    0.0040201200000000    0.5961339800000000 Zn
   0.6938699900000000    0.4780158200000000    0.0691565800000000 P
   0.3061300100000000    0.9780158200000000    0.9308434200000000 P
   0.1930771500000000    0.5034309900000000    0.4014339200000000 P
   0.8069228500000000    0.0034309900000000    0.5985660800000000 P
   0.3160125600000000    0.9260043400000000    0.7583572800000000 O
   0.6839874400000000    0.4260043400000000    0.2416427200000000 O
   0.7709305900000000    0.2761261300000000    0.5584978500000000 O
   0.2290694100000000    0.7761261300000000    0.4415021500000000 O
   0.7832981600000000    0.2661117500000000    0.9889402700000000 O
   0.2167018400000000    0.7661117500000000    0.0110597300000000 O
   0.6866335000000000    0.9133531800000000    0.7157662800000000 O
   0.3133665000000000    0.4133531800000000    0.2842337200000000 O
   0.2092376900000000    0.3423954400000000    0.5464112900000000 O
   0.7907623100000000    0.8423954400000000    0.4535887100000000 O
   0.7818565000000000    0.7224022700000000    0.0384637600000000 O
   0.2181435000000000    0.2224022700000000    0.9615362400000000 O
   0.0291925400000000    0.4819373100000000    0.3297974500000000 O
   0.9708074600000000    0.9819373100000000    0.6702025500000000 O
   0.4698831500000000    0.9969804799999999    0.0019283600000000 O
   0.5301168500000000    0.4969804800000000    0.9980716400000000 O
