Ba3 La1 Zn1 Re1 W1 O12
1.0
   2.8225106100000001    1.6295774599999999    9.1075056700000001
  -2.8225106100000001    1.6295774599999999    9.1075056700000001
   0.0000000000000000   -3.2591539200000001    9.1075056700000001
Ba La Zn Re W O
3 1 1 1 1 12
direct
   0.2914407800000000    0.2914407800000000    0.2914407800000000 Ba
   0.7077439800000001    0.7077439800000001    0.7077439800000001 Ba
   0.8689436000000000    0.8689436000000000    0.8689436000000000 Ba
   0.1212703300000000    0.1212703300000000    0.1212703300000000 La
   0.9989050000000000    0.9989050000000000    0.9989050000000000 Zn
   0.5786279900000000    0.5786279900000000    0.5786279900000000 Re
   0.4224950900000000    0.4224950900000000    0.4224950900000000 W
   0.7149026000000001    0.2132977100000000    0.2132977100000000 O
   0.2132977100000000    0.2132977100000000    0.7149026000000001 O
   0.2132977100000000    0.7149026000000001    0.2132977100000000 O
   0.6207979600000000    0.1313404300000000    0.6207979600000000 O
   0.6207979600000000    0.6207979600000000    0.1313404300000000 O
   0.1313404300000000    0.6207979600000000    0.6207979600000000 O
   0.8631287700000000    0.3829404500000000    0.3829404500000000 O
   0.3829404500000000    0.3829404500000000    0.8631287700000000 O
   0.3829404500000000    0.8631287700000000    0.3829404500000000 O
   0.7812139500000000    0.3047002800000000    0.7812139500000000 O
   0.7812139500000000    0.7812139500000000    0.3047002800000000 O
   0.3047002800000000    0.7812139500000000    0.7812139500000000 O
