Na16 Mo4 O20
1.0
   5.5874310800000000    0.0084188200000000    0.0169604300000000
  -1.0671927500000000    9.7769700000000004    0.0122301100000000
  -1.1076769300000000   -4.0435626400000002    8.9193733099999992
Na Mo O
16 4 20
direct
   0.7381083500000000    0.6443852500000000    0.8420920500000000 Na
   0.7788884000000000    0.4512028000000000    0.0649222400000000 Na
   0.2211116000000000    0.5487972000000000    0.9350777600000000 Na
   0.7554699800000000    0.0532994200000000    0.4614005500000000 Na
   0.0000000000000000    0.0000000000000000    0.0000000000000000 Na
   0.5000000000000000    0.5000000000000000    0.5000000000000000 Na
   0.5081188100000000    0.1032423700000000    0.9099688900000000 Na
   0.4918811900000000    0.8967576300000000    0.0900311100000000 Na
   0.0020376300000000    0.3980163800000000    0.5984270300000000 Na
   0.9979623700000000    0.6019836200000001    0.4015729700000000 Na
   0.2791332700000000    0.1516864500000000    0.3578605200000000 Na
   0.7208667300000000    0.8483135500000000    0.6421394800000000 Na
   0.9853805600000000    0.1961587000000000    0.8046921900000000 Na
   0.0146194400000000    0.8038413000000000    0.1953078100000000 Na
   0.2618916500000000    0.3556147500000000    0.1579079500000000 Na
   0.2445300200000000    0.9467005800000000    0.5385994500000000 Na
   0.5194789600000000    0.6997876300000000    0.2641242100000000 Mo
   0.4805210400000000    0.3002123700000000    0.7358757900000000 Mo
   0.2184926800000000    0.7834844600000000    0.7521951400000000 Mo
   0.7815073200000000    0.2165155400000000    0.2478048600000000 Mo
   0.8111489700000000    0.4005052400000000    0.8101333100000000 O
   0.9362205900000000    0.6427900100000000    0.6480440500000000 O
   0.0637794100000000    0.3572099900000000    0.3519559500000000 O
   0.1888510300000000    0.5994947600000000    0.1898666900000000 O
   0.8826559300000000    0.0392967200000000    0.2269044500000000 O
   0.1173440700000000    0.9607032800000000    0.7730955500000000 O
   0.8628648799999999    0.2281197600000000    0.0664833800000000 O
   0.1371351200000000    0.7718802400000000    0.9335166200000000 O
   0.4017681100000000    0.4723652700000000    0.7129836200000000 O
   0.5982318900000000    0.5276347300000001    0.2870163800000000 O
   0.1928195600000000    0.1890476300000000    0.5947490900000000 O
   0.8071804400000000    0.8109523700000000    0.4052509100000000 O
   0.3756781300000000    0.3224404800000000    0.9107588599999999 O
   0.6243218699999999    0.6775595200000000    0.0892411400000000 O
   0.6606664100000000    0.2708617500000000    0.4301269300000000 O
   0.3393335900000000    0.7291382500000000    0.5698730700000000 O
   0.6029086000000000    0.1143648100000000    0.6818729900000000 O
   0.5498759300000000    0.8500885800000000    0.8520440300000000 O
   0.4501240700000000    0.1499114200000000    0.1479559700000000 O
   0.3970914000000000    0.8856351900000000    0.3181270100000000 O
