Ca1 Mg1 C2 O6
1.0
   2.4071805199999998    1.3897862599999999    5.2788913199999996
  -2.4071804999999999    1.3897862900000000    5.2788913199999996
  -0.0000000200000000   -2.7795725500000001    5.2788913199999996
Ca Mg C O
1 1 2 6
direct
   0.0000000000000000    0.0000000000000000    0.0000000000000000 Ca
   0.5000000000000000    0.5000000000000000    0.5000000000000000 Mg
   0.2429235100000000    0.2429235100000000    0.2429235100000000 C
   0.7570764900000000    0.7570764900000000    0.7570764900000000 C
   0.2761657000000000    0.4950343900000000    0.9607233500000000 O
   0.9607233500000000    0.2761657000000000    0.4950343900000000 O
   0.4950343900000000    0.9607233500000000    0.2761657000000000 O
   0.7238343000000000    0.5049656100000000    0.0392766500000000 O
   0.0392766500000000    0.7238343000000000    0.5049656100000000 O
   0.5049656100000000    0.0392766500000000    0.7238343000000000 O
