Ba2 S4
1.0
   4.5529119700000003   -2.3675216799999999    0.0022647700000000
   4.5529119700000003    2.3675216799999999    0.0022647700000000
  -4.1527752400000004    0.0000000000000000    7.9753428099999999
Ba S
2 4
direct
   0.8609453500000001    0.1390546500000000    0.2500000000000000 Ba
   0.1390546500000000    0.8609453500000001    0.7500000000000000 Ba
   0.1985741600000000    0.4833953800000000    0.9793793100000000 S
   0.5166046200000000    0.8014258399999999    0.5206206900000000 S
   0.4833953800000000    0.1985741600000000    0.4793793100000000 S
   0.8014258399999999    0.5166046200000000    0.0206206900000000 S
