Rb2 Ti1 Te3 O12
1.0
   3.6061918799999999    2.0820360899999999    5.8575871399999997
  -3.6061918799999999    2.0820360899999999    5.8575871399999997
   0.0000000000000000   -4.1640711899999996    5.8575871399999997
Rb Ti Te O
2 1 3 12
direct
   0.8688281600000000    0.8688281600000000    0.8688281600000000 Rb
   0.1311718400000000    0.1311718400000000    0.1311718400000000 Rb
   0.5000000000000000    0.5000000000000000    0.5000000000000000 Ti
   0.5000000000000000    0.5000000000000000    0.0000000000000000 Te
   0.0000000000000000    0.5000000000000000    0.5000000000000000 Te
   0.5000000000000000    0.0000000000000000    0.5000000000000000 Te
   0.1746299400000000    0.5719585700000001    0.1746299400000000 O
   0.5679654700000000    0.1767196100000000    0.5679654700000000 O
   0.5679654700000000    0.5679654700000000    0.1767196100000000 O
   0.1746299400000000    0.1746299400000000    0.5719585700000001 O
   0.1767196100000000    0.5679654700000000    0.5679654700000000 O
   0.5719585700000001    0.1746299400000000    0.1746299400000000 O
   0.8253700600000000    0.4280414300000000    0.8253700600000000 O
   0.4320345300000000    0.8232803900000000    0.4320345300000000 O
   0.4320345300000000    0.4320345300000000    0.8232803900000000 O
   0.8253700600000000    0.8253700600000000    0.4280414300000000 O
   0.8232803900000000    0.4320345300000000    0.4320345300000000 O
   0.4280414300000000    0.8253700600000000    0.8253700600000000 O
