Nb4 N4 O4
1.0
   5.0430091299999997    0.0000000000000000    0.0008824000000000
   0.0000000000000000    5.1013720500000002    0.0000000000000000
  -0.9014683600000000    0.0000000000000000    5.1642384400000001
Nb N O
4 4 4
direct
   0.2928730100000000    0.5456965200000000    0.7151232500000000 Nb
   0.7071269900000000    0.0456965200000000    0.7848767500000000 Nb
   0.7071269900000000    0.4543034800000000    0.2848767500000000 Nb
   0.2928730100000000    0.9543034800000000    0.2151232500000000 Nb
   0.4427861400000000    0.2557198500000000    0.9812778900000000 N
   0.5572138599999999    0.7557198500000000    0.5187221100000000 N
   0.5572138599999999    0.7442801500000000    0.0187221100000000 N
   0.4427861400000000    0.2442801500000000    0.4812778900000000 N
   0.0630044200000000    0.6731982700000000    0.3474055800000000 O
   0.9369955800000001    0.1731982700000000    0.1525944200000000 O
   0.9369955800000001    0.3268017300000000    0.6525944200000000 O
   0.0630044200000000    0.8268017300000000    0.8474055800000000 O
