Ag4 Mo2 O8
1.0
   0.0000000000000000    4.5971884599999999    4.5971884599999999
   4.5971884599999999    0.0000000000000000    4.5971884599999999
   4.5971884599999999    4.5971884599999999    0.0000000000000000
Ag Mo O
4 2 8
direct
   0.1250000000000000    0.6250000000000000    0.1250000000000000 Ag
   0.1250000000000000    0.1250000000000000    0.6250000000000000 Ag
   0.6250000000000000    0.1250000000000000    0.1250000000000000 Ag
   0.1250000000000000    0.1250000000000000    0.1250000000000000 Ag
   0.7500000000000000    0.7500000000000000    0.7500000000000000 Mo
   0.5000000000000000    0.5000000000000000    0.5000000000000000 Mo
   0.3871428000000000    0.3871428000000000    0.3871428000000000 O
   0.8628572000000000    0.4114274000000000    0.8628572000000000 O
   0.3871428000000000    0.8385726000000000    0.3871428000000000 O
   0.8628572000000000    0.8628572000000000    0.4114274000000000 O
   0.4114274000000000    0.8628572000000000    0.8628572000000000 O
   0.8628572000000000    0.8628572000000000    0.8628572000000000 O
   0.8385726000000000    0.3871428000000000    0.3871428000000000 O
   0.3871428000000000    0.3871428000000000    0.8385726000000000 O
