Ta1 Cu3 S4
1.0
   5.4668983300000003    0.0000000000000000    0.0000000000000000
   0.0000000000000000    5.4668983300000003    0.0000000000000000
   0.0000000000000000    0.0000000000000000    5.4668983300000003
Ta Cu S
1 3 4
direct
   0.0000000000000000    0.0000000000000000    0.0000000000000000 Ta
   0.5000000000000000    0.0000000000000000    0.0000000000000000 Cu
   0.0000000000000000    0.0000000000000000    0.5000000000000000 Cu
   0.0000000000000000    0.5000000000000000    0.0000000000000000 Cu
   0.2440753200000000    0.2440753200000000    0.2440753200000000 S
   0.7559246800000000    0.7559246800000000    0.2440753200000000 S
   0.7559246800000000    0.2440753200000000    0.7559246800000000 S
   0.2440753200000000    0.7559246800000000    0.7559246800000000 S
