Na4 In2 P2 C2 O14
1.0
   5.2011360000000000    0.0000000000000000    0.0000000000000000
   0.0000000000000000    6.7542489999999997    0.0000000000000000
  -0.2000410000000000    0.0000000000000000    9.0872209999999995
Na In P C O
4 2 2 2 14
direct
   0.2336740000000000    0.5010880000000000    0.7859130000000000 Na
   0.2336740000000000    0.9989120000000000    0.7859130000000000 Na
   0.7663260000000000    0.4989120000000000    0.2140870000000000 Na
   0.7663260000000000    0.0010880000000000    0.2140870000000000 Na
   0.7812620000000000    0.2500000000000000    0.6339080000000000 In
   0.2187380000000000    0.7500000000000000    0.3660920000000000 In
   0.7200080000000000    0.7500000000000000    0.5794899999999999 P
   0.2799920000000000    0.2500000000000000    0.4205100000000000 P
   0.7287169999999999    0.2500000000000000    0.9221990000000000 C
   0.2712830000000000    0.7500000000000000    0.0778010000000000 C
   0.3083300000000000    0.7500000000000000    0.9416380000000000 O
   0.9564319999999999    0.2500000000000000    0.8642390000000000 O
   0.5330940000000000    0.2500000000000000    0.8253120000000000 O
   0.8230229999999999    0.9332260000000000    0.6623170000000000 O
   0.8230229999999999    0.5667740000000000    0.6623170000000000 O
   0.1904850000000000    0.2500000000000000    0.5828470000000000 O
   0.4179780000000000    0.7500000000000000    0.5758070000000000 O
   0.5820220000000000    0.2500000000000000    0.4241930000000000 O
   0.8095150000000000    0.7500000000000000    0.4171530000000000 O
   0.1769770000000000    0.4332260000000000    0.3376830000000000 O
   0.1769770000000000    0.0667740000000000    0.3376830000000000 O
   0.4669060000000000    0.7500000000000000    0.1746880000000000 O
   0.0435680000000000    0.7500000000000000    0.1357610000000000 O
   0.6916700000000000    0.2500000000000000    0.0583620000000000 O
