Na6 P4 Pb3 S16
1.0
   9.5999448699999999    5.5425311300000004    2.0268291500000002
  -9.5999448699999999    5.5425311300000004    2.0268291500000002
   0.0000000000000000  -11.0850622500000000    2.0268291500000002
Na P Pb S
6 4 3 16
direct
   0.8489829900000000    0.6543580300000000    0.3990387000000000 Na
   0.3990387000000000    0.6543580300000000    0.8489829900000000 Na
   0.8489829900000000    0.3990387000000000    0.6543580300000000 Na
   0.6543580300000000    0.8489829900000000    0.3990387000000000 Na
   0.3990387000000000    0.8489829900000000    0.6543580300000000 Na
   0.6543580300000000    0.3990387000000000    0.8489829900000000 Na
   0.2344576700000000    0.7601594500000000    0.2344576700000000 P
   0.7601594500000000    0.2344576700000000    0.2344576700000000 P
   0.2344576700000000    0.2344576700000000    0.7601594500000000 P
   0.4237370700000000    0.4237370700000000    0.4237370700000000 P
   0.0039700400000000    0.2695860100000000    0.0039700400000000 Pb
   0.0039700400000000    0.0039700400000000    0.2695860100000000 Pb
   0.2695860100000000    0.0039700400000000    0.0039700400000000 Pb
   0.2019594700000000    0.5668527900000000    0.0270665500000000 S
   0.4727207500000000    0.4727207500000000    0.6491250300000000 S
   0.0270665500000000    0.2019594700000000    0.5668527900000000 S
   0.0854984300000000    0.0854984300000000    0.0854984300000000 S
   0.4727207500000000    0.6491250300000000    0.4727207500000000 S
   0.0662038300000000    0.5772269700000000    0.5772269700000000 S
   0.1070824300000000    0.8141054100000000    0.1070824300000000 S
   0.5772269700000000    0.0662038300000000    0.5772269700000000 S
   0.5772269700000000    0.5772269700000000    0.0662038300000000 S
   0.0270665500000000    0.5668527900000000    0.2019594700000000 S
   0.6491250300000000    0.4727207500000000    0.4727207500000000 S
   0.2019594700000000    0.0270665500000000    0.5668527900000000 S
   0.5668527900000000    0.2019594700000000    0.0270665500000000 S
   0.5668527900000000    0.0270665500000000    0.2019594700000000 S
   0.8141054100000000    0.1070824300000000    0.1070824300000000 S
   0.1070824300000000    0.1070824300000000    0.8141054100000000 S
