Rb2 Nb2 W2 O12
1.0
  -3.6579196600000001    3.7111911900000001    5.2246536800000003
   3.6579196600000001   -3.7111911900000001    5.2246536800000003
   3.6579196600000001    3.7111911900000001   -5.2246536800000003
Rb Nb W O
2 2 2 12
direct
   0.6145296000000000    0.8645296000000000    0.7500000000000000 Rb
   0.3854704000000000    0.1354704000000000    0.2500000000000000 Rb
   0.5000000000000000    0.5000000000000000    0.0000000000000000 Nb
   0.0000000000000000    0.5000000000000000    0.5000000000000000 Nb
   0.0000000000000000    0.5000000000000000    0.0000000000000000 W
   0.0000000000000000    0.0000000000000000    0.5000000000000000 W
   0.0565976700000000    0.8065976700000000    0.2500000000000000 O
   0.6824667200000000    0.4324667200000000    0.2500000000000000 O
   0.0593398500000000    0.8206776500000000    0.6242502900000000 O
   0.6964273600000001    0.4350895600000000    0.8757497100000000 O
   0.6964273600000001    0.8206776500000000    0.2613388000000000 O
   0.0593398500000000    0.4350895600000000    0.2386612000000000 O
   0.9434023300000000    0.1934023300000000    0.7500000000000000 O
   0.3175332800000000    0.5675332800000000    0.7500000000000000 O
   0.9406601500000000    0.1793223500000000    0.3757497100000000 O
   0.3035726400000000    0.5649104400000000    0.1242502900000000 O
   0.3035726400000000    0.1793223500000000    0.7386612000000000 O
   0.9406601500000000    0.5649104400000000    0.7613388000000000 O
