Li2 B2 O4
1.0
  -2.0978744499999999    2.0978744499999999    3.2641787199999999
   2.0978744499999999   -2.0978744499999999    3.2641787199999999
   2.0978744499999999    2.0978744499999999   -3.2641787199999999
Li B O
2 2 4
direct
   0.2500000000000000    0.7500000000000000    0.5000000000000000 Li
   0.5000000000000000    0.5000000000000000    0.0000000000000000 Li
   0.7500000000000000    0.2500000000000000    0.5000000000000000 B
   0.0000000000000000    0.0000000000000000    0.0000000000000000 B
   0.7165608700000000    0.6250000000000000    0.5915608700000000 O
   0.3750000000000000    0.9665608700000000    0.0915608700000000 O
   0.8750000000000000    0.2834391300000000    0.9084391300000000 O
   0.0334391300000000    0.1250000000000000    0.4084391300000000 O
