Nb4 V4 O20
1.0
  12.0425440399999992    0.0000000000000000    0.0000000000000000
   0.0000000000000000    5.6160566400000000    0.0000000000000000
   0.0000000000000000    0.0000000000000000    7.0562724499999998
Nb V O
4 4 20
direct
   0.0592274400000000    0.7500000000000000    0.8410479700000000 Nb
   0.4407725600000000    0.2500000000000000    0.3410479700000000 Nb
   0.5592274400000000    0.7500000000000000    0.6589520300000000 Nb
   0.9407725600000000    0.2500000000000000    0.1589520300000000 Nb
   0.1543197700000000    0.2500000000000000    0.5297615600000000 V
   0.3456802300000000    0.7500000000000000    0.0297615600000000 V
   0.6543197700000000    0.2500000000000000    0.9702384400000000 V
   0.8456802300000000    0.7500000000000000    0.4702384400000000 V
   0.0000000000000000    0.0000000000000000    0.0000000000000000 O
   0.0000000000000000    0.5000000000000000    0.0000000000000000 O
   0.0773226300000000    0.2500000000000000    0.3234941300000000 O
   0.1239869200000000    0.0006012000000000    0.6575994100000000 O
   0.1239869200000000    0.4993988000000000    0.6575994100000000 O
   0.2052396800000000    0.7500000000000000    0.9724998500000001 O
   0.2947603200000000    0.2500000000000000    0.4724998500000000 O
   0.3760130800000000    0.9993988000000000    0.1575994100000000 O
   0.3760130800000000    0.5006012000000000    0.1575994100000000 O
   0.4226773700000000    0.7500000000000000    0.8234941300000000 O
   0.5000000000000000    0.0000000000000000    0.5000000000000000 O
   0.5000000000000000    0.5000000000000000    0.5000000000000000 O
   0.5773226299999999    0.2500000000000000    0.1765058700000000 O
   0.6239869200000000    0.0006012000000000    0.8424005900000000 O
   0.6239869200000000    0.4993988000000000    0.8424005900000000 O
   0.7052396800000000    0.7500000000000000    0.5275001499999999 O
   0.7947603200000000    0.2500000000000000    0.0275001500000000 O
   0.8760130800000000    0.5006012000000000    0.3424005900000000 O
   0.8760130800000000    0.9993988000000000    0.3424005900000000 O
   0.9226773700000001    0.7500000000000000    0.6765058700000000 O
