Zr4 B8 O20
1.0
   4.4240851499999998    0.0000000000000000   -0.0007137800000000
   0.0000000000000000    6.9569933600000002    0.0000000000000000
  -0.1489620200000000    0.0000000000000000    9.0231421199999993
Zr B O
4 8 20
direct
   0.9984637800000000    0.1133822800000000    0.3285625700000000 Zr
   0.0015362200000000    0.6133822799999999    0.1714374300000000 Zr
   0.0015362200000000    0.8866177200000001    0.6714374300000000 Zr
   0.9984637800000000    0.3866177200000000    0.8285625700000000 Zr
   0.5348168900000000    0.4125141500000000    0.3345770600000000 B
   0.5270227000000000    0.7297178400000000    0.9227854000000000 B
   0.4651831100000000    0.5874858500000000    0.6654229400000000 B
   0.4729773000000000    0.2702821600000000    0.0772146000000000 B
   0.5348168900000000    0.0874858500000000    0.8345770600000000 B
   0.4729773000000000    0.2297178400000000    0.5772146000000000 B
   0.4651831100000000    0.9125141500000000    0.1654229400000000 B
   0.5270227000000000    0.7702821600000000    0.4227854000000000 B
   0.7863569200000000    0.5914936700000000    0.6783407900000000 O
   0.6933042600000000    0.3445385500000000    0.1932108700000000 O
   0.6676990800000000    0.8960710100000000    0.8501990800000000 O
   0.6514471500000000    0.2787720300000000    0.4467421500000000 O
   0.3485528500000000    0.7212279700000001    0.5532578500000001 O
   0.7669506100000000    0.5975025500000000    0.9664203500000000 O
   0.6514471500000000    0.2212279700000000    0.9467421499999999 O
   0.2136430800000000    0.0914936700000000    0.8216592100000000 O
   0.7669506100000000    0.9024974500000000    0.4664203500000000 O
   0.6933042600000000    0.1554614500000000    0.6932108700000000 O
   0.7863569200000000    0.9085063300000000    0.1783407900000000 O
   0.3066957400000000    0.8445385500000000    0.3067891300000000 O
   0.3485528500000000    0.7787720299999999    0.0532578500000000 O
   0.2136430800000000    0.4085063300000000    0.3216592100000000 O
   0.6676990800000000    0.6039289900000000    0.3501990800000000 O
   0.3323009200000000    0.1039289900000000    0.1498009200000000 O
   0.2330493900000000    0.0975025500000000    0.5335796500000000 O
   0.3066957400000000    0.6554614500000000    0.8067891300000000 O
   0.3323009200000000    0.3960710100000000    0.6498009200000000 O
   0.2330493900000000    0.4024974500000000    0.0335796500000000 O
