Ba2 Sr1 W1 O6
1.0
   5.2043032599999997   -3.0070747199999999   -0.0065139600000000
   5.2043032599999997    3.0070747199999999   -0.0065139600000000
  -3.5022167899999999    0.0000000000000000    5.0281687399999999
Ba Sr W O
2 1 1 6
direct
   0.7525234100000000    0.7525234100000000    0.7601744200000000 Ba
   0.2474765900000000    0.2474765900000000    0.2398255800000000 Ba
   0.0000000000000000    0.0000000000000000    0.5000000000000000 Sr
   0.5000000000000000    0.5000000000000000    0.0000000000000000 W
   0.7678692499999999    0.3149167700000000    0.8234096100000000 O
   0.6850832300000000    0.2321307500000000    0.1765903900000000 O
   0.2321307500000000    0.6850832300000000    0.1765903900000000 O
   0.3149167700000000    0.7678692499999999    0.8234096100000000 O
   0.2807514700000000    0.2807514700000000    0.7073470100000000 O
   0.7192485300000000    0.7192485300000000    0.2926529900000000 O
