Ba8 Zn4 S12
1.0
  11.9507122799999994    0.0000000000000000    0.0000000000000000
   0.0000000000000000    4.1591636500000000    0.0000000000000000
   0.0000000000000000    0.0000000000000000   12.5010758200000005
Ba Zn S
8 4 12
direct
   0.4887973800000000    0.2500000000000000    0.3264058900000000 Ba
   0.5112026200000001    0.7500000000000000    0.6735941100000000 Ba
   0.9887973799999999    0.2500000000000000    0.1735941100000000 Ba
   0.0112026200000000    0.7500000000000000    0.8264058900000000 Ba
   0.8270753800000000    0.2500000000000000    0.5181638300000000 Ba
   0.1729246200000000    0.7500000000000000    0.4818361700000000 Ba
   0.3270753800000000    0.2500000000000000    0.9818361700000000 Ba
   0.6729246200000000    0.7500000000000000    0.0181638300000000 Ba
   0.7445191500000000    0.2500000000000000    0.8038825700000000 Zn
   0.2445191500000000    0.2500000000000000    0.6961174300000000 Zn
   0.2554808500000000    0.7500000000000000    0.1961174300000000 Zn
   0.7554808500000000    0.7500000000000000    0.3038825700000000 Zn
   0.9397576700000000    0.7500000000000000    0.3594609000000000 S
   0.4397576700000000    0.7500000000000000    0.1405391000000000 S
   0.0602423300000000    0.2500000000000000    0.6405391000000000 S
   0.5602423300000000    0.2500000000000000    0.8594609000000000 S
   0.2247872500000000    0.2500000000000000    0.2897796000000000 S
   0.7752127500000000    0.7500000000000000    0.7102204000000000 S
   0.7247872500000000    0.2500000000000000    0.2102204000000000 S
   0.2752127500000000    0.7500000000000000    0.7897796000000000 S
   0.6368273800000001    0.7500000000000000    0.4472706900000000 S
   0.3631726200000000    0.2500000000000000    0.5527293100000000 S
   0.1368273800000000    0.7500000000000000    0.0527293100000000 S
   0.8631726199999999    0.2500000000000000    0.9472706900000000 S
