Na8 Zn8 S12
1.0
   7.2052419900000002   -6.4387300900000000    0.0304432400000000
   7.2052419900000002    6.4387300900000000    0.0304432400000000
  -2.9540157800000002    0.0000000000000000    5.8515218700000000
Na Zn S
8 8 12
direct
   0.5689193500000000    0.4310806500000000    0.7500000000000000 Na
   0.4310806500000000    0.5689193500000000    0.2500000000000000 Na
   0.2827792500000000    0.7172207500000000    0.7500000000000000 Na
   0.7172207500000000    0.2827792500000000    0.2500000000000000 Na
   0.1891044200000000    0.0180696600000000    0.6291445100000000 Na
   0.9819303400000000    0.8108955799999999    0.8708554900000000 Na
   0.8108955799999999    0.9819303400000000    0.3708554900000000 Na
   0.0180696600000000    0.1891044200000000    0.1291445100000000 Na
   0.6380765200000000    0.7922301000000000    0.7981143700000000 Zn
   0.2077699000000000    0.3619234800000000    0.7018856300000000 Zn
   0.3619234800000000    0.2077699000000000    0.2018856300000000 Zn
   0.7922301000000000    0.6380765200000000    0.2981143700000000 Zn
   0.9182017900000000    0.4518289500000000    0.7609591300000000 Zn
   0.5481710500000000    0.0817982100000000    0.7390408700000000 Zn
   0.0817982100000000    0.5481710500000000    0.2390408700000000 Zn
   0.4518289500000000    0.9182017900000000    0.2609591300000000 Zn
   0.7282051899999999    0.5799621300000000    0.5739168700000000 S
   0.4200378700000000    0.2717948100000000    0.9260831300000000 S
   0.2717948100000000    0.4200378700000000    0.4260831300000000 S
   0.5799621300000000    0.7282051899999999    0.0739168700000000 S
   0.4220722000000000    0.8530844700000000    0.5542928499999999 S
   0.1469155300000000    0.5779278000000000    0.9457071500000001 S
   0.5779278000000000    0.1469155300000000    0.4457071500000000 S
   0.8530844700000000    0.4220722000000000    0.0542928500000000 S
   0.9932656300000000    0.2322842600000000    0.5591816600000000 S
   0.7677157400000000    0.0067343700000000    0.9408183400000000 S
   0.0067343700000000    0.7677157400000000    0.4408183400000000 S
   0.2322842600000000    0.9932656300000000    0.0591816600000000 S
