Cs4 Cu4 Te4 S12
1.0
   8.9951281400000003    0.0000000000000000    0.0000000000000000
   0.0000000000000000    8.9951281400000003    0.0000000000000000
   0.0000000000000000    0.0000000000000000    8.9951281400000003
Cs Cu Te S
4 4 4 12
direct
   0.4180806000000000    0.4180806000000000    0.4180806000000000 Cs
   0.0819194000000000    0.5819194000000000    0.9180806000000000 Cs
   0.5819194000000000    0.9180806000000000    0.0819194000000000 Cs
   0.9180806000000000    0.0819194000000000    0.5819194000000000 Cs
   0.6454397200000001    0.6454397200000001    0.6454397200000001 Cu
   0.8545602799999999    0.3545602800000000    0.1454397200000000 Cu
   0.3545602800000000    0.1454397200000000    0.8545602799999999 Cu
   0.1454397200000000    0.8545602799999999    0.3545602800000000 Cu
   0.0715177200000000    0.0715177200000000    0.0715177200000000 Te
   0.4284822800000000    0.9284822800000000    0.5715177200000000 Te
   0.9284822800000000    0.5715177200000000    0.4284822800000000 Te
   0.5715177200000000    0.4284822800000000    0.9284822800000000 Te
   0.0365903000000000    0.3603832900000000    0.3106490600000000 S
   0.4634097000000000    0.6396167100000000    0.8106490600000000 S
   0.9634097000000000    0.8603832900000000    0.1893509400000000 S
   0.3106490600000000    0.0365903000000000    0.3603832900000000 S
   0.5365903000000000    0.1396167100000000    0.6893509400000000 S
   0.8106490600000000    0.4634097000000000    0.6396167100000000 S
   0.1893509400000000    0.9634097000000000    0.8603832900000000 S
   0.6893509400000000    0.5365903000000000    0.1396167100000000 S
   0.3603832900000000    0.3106490600000000    0.0365903000000000 S
   0.8603832900000000    0.1893509400000000    0.9634097000000000 S
   0.1396167100000000    0.6893509400000000    0.5365903000000000 S
   0.6396167100000000    0.8106490600000000    0.4634097000000000 S
