Rb2 O1
1.0
   0.0000000000000000    3.3508770000000001    3.3508770000000001
   3.3508770000000001    0.0000000000000000    3.3508770000000001
   3.3508770000000001    3.3508770000000001    0.0000000000000000
Rb O
2 1
direct
   0.7500000000000000    0.7500000000000000    0.7500000000000000 Rb
   0.2500000000000000    0.2500000000000000    0.2500000000000000 Rb
   0.0000000000000000    0.0000000000000000    0.0000000000000000 O
