Zn4 P6 N12 O1
1.0
  -3.9870333800000002    3.9870333800000002    3.9870333800000002
   3.9870333800000002   -3.9870333800000002    3.9870333800000002
   3.9870333800000002    3.9870333800000002   -3.9870333800000002
Zn P N O
4 6 12 1
direct
   0.0000000000000000    0.2959066500000000    0.0000000000000000 Zn
   0.7040933500000000    0.7040933500000000    0.7040933500000000 Zn
   0.2959066500000000    0.0000000000000000    0.0000000000000000 Zn
   0.0000000000000000    0.0000000000000000    0.2959066500000000 Zn
   0.7500000000000000    0.2500000000000000    0.5000000000000000 P
   0.2500000000000000    0.7500000000000000    0.5000000000000000 P
   0.5000000000000000    0.7500000000000000    0.2500000000000000 P
   0.5000000000000000    0.2500000000000000    0.7500000000000000 P
   0.7500000000000000    0.5000000000000000    0.2500000000000000 P
   0.2500000000000000    0.5000000000000000    0.7500000000000000 P
   0.5339708500000000    0.2611092200000000    0.0000000000000000 N
   0.4660291500000000    0.4660291500000000    0.7271383700000000 N
   0.0000000000000000    0.2611092200000000    0.5339708500000000 N
   0.2611092200000000    0.0000000000000000    0.5339708500000000 N
   0.7271383700000000    0.4660291500000000    0.4660291500000000 N
   0.0000000000000000    0.5339708500000000    0.2611092200000000 N
   0.5339708500000000    0.0000000000000000    0.2611092200000000 N
   0.4660291500000000    0.7271383700000000    0.4660291500000000 N
   0.2611092200000000    0.5339708500000000    0.0000000000000000 N
   0.7388907800000000    0.2728616300000000    0.7388907800000000 N
   0.7388907800000000    0.7388907800000000    0.2728616300000000 N
   0.2728616300000000    0.7388907800000000    0.7388907800000000 N
   0.0000000000000000    0.0000000000000000    0.0000000000000000 O
