Rb1 La1 S2
1.0
   2.1332254000000002    1.2316183100000000    7.5422197100000004
  -2.1332254000000002    1.2316183100000000    7.5422197100000004
   0.0000000000000000   -2.4632366299999999    7.5422197100000004
Rb La S
1 1 2
direct
   0.0000000000000000    0.0000000000000000    0.0000000000000000 Rb
   0.5000000000000000    0.5000000000000000    0.5000000000000000 La
   0.2330360400000000    0.2330360400000000    0.2330360400000000 S
   0.7669639600000000    0.7669639600000000    0.7669639600000000 S
