Y4 Se6 O24
1.0
   3.5224605499999999   -5.7198048899999998   -0.0041520300000000
   3.5224605499999999    5.7198048899999998   -0.0041520300000000
  -3.4951086199999999    0.0000000000000000   10.5989418099999995
Y Se O
4 6 24
direct
   0.9508153900000000    0.7009337000000000    0.4074203100000000 Y
   0.7009337000000000    0.9508153900000000    0.9074203100000000 Y
   0.2990663000000000    0.0491846100000000    0.0925796900000000 Y
   0.0491846100000000    0.2990663000000000    0.5925796900000000 Y
   0.7869020900000000    0.5482866700000000    0.0765646300000000 Se
   0.5482866700000000    0.7869020900000000    0.5765646300000000 Se
   0.8671287700000000    0.1328712300000000    0.2500000000000000 Se
   0.1328712300000000    0.8671287700000000    0.7500000000000000 Se
   0.4517133300000000    0.2130979100000000    0.4234353700000000 Se
   0.2130979100000000    0.4517133300000000    0.9234353700000000 Se
   0.7359230000000000    0.6306365800000000    0.2118054300000000 O
   0.9995742300000000    0.4180403200000000    0.2881401400000000 O
   0.9404945900000000    0.0442406800000000    0.1215692700000000 O
   0.6196401800000000    0.6861606000000000    0.4553830500000000 O
   0.6550700300000000    0.2545257200000000    0.0438321200000000 O
   0.3188905000000000    0.9265622700000000    0.3938033600000000 O
   0.6306365800000000    0.7359230000000000    0.7118054300000000 O
   0.0734377300000000    0.6811095000000000    0.1061966400000000 O
   0.7454742800000000    0.3449299700000000    0.4561678800000000 O
   0.3138394000000000    0.3803598200000000    0.0446169500000000 O
   0.9557593200000000    0.0595054100000000    0.3784307300000000 O
   0.4180403200000000    0.9995742300000000    0.7881401400000000 O
   0.5819596800000000    0.0004257700000000    0.2118598600000000 O
   0.0442406800000000    0.9404945900000000    0.6215692700000000 O
   0.6861606000000000    0.6196401800000000    0.9553830500000000 O
   0.2545257200000000    0.6550700300000000    0.5438321200000000 O
   0.9265622700000000    0.3188905000000000    0.8938033600000000 O
   0.3693634200000000    0.2640770000000000    0.2881945700000000 O
   0.6811095000000000    0.0734377300000000    0.6061966400000000 O
   0.3449299700000000    0.7454742800000000    0.9561678800000000 O
   0.3803598200000000    0.3138394000000000    0.5446169500000000 O
   0.0595054100000000    0.9557593200000000    0.8784307300000000 O
   0.0004257700000000    0.5819596800000000    0.7118598600000000 O
   0.2640770000000000    0.3693634200000000    0.7881945700000000 O
