Cs2 Na2 Se2
1.0
   4.9369407100000000    0.0000000000000000    0.0000000000000000
   0.0000000000000000    4.9369407100000000    0.0000000000000000
   0.0000000000000000    0.0000000000000000    7.9829606599999998
Cs Na Se
2 2 2
direct
   0.5000000000000000    0.0000000000000000    0.6518858100000000 Cs
   0.0000000000000000    0.5000000000000000    0.3481141900000000 Cs
   0.5000000000000000    0.5000000000000000    0.0000000000000000 Na
   0.0000000000000000    0.0000000000000000    0.0000000000000000 Na
   0.0000000000000000    0.5000000000000000    0.8027348900000000 Se
   0.5000000000000000    0.0000000000000000    0.1972651100000000 Se
