Sb2 P2 O10
1.0
   3.3981832000000001   -4.0729730499999999    0.0014029600000000
   3.3981832000000001    4.0729730499999999    0.0014029600000000
  -3.1105000899999999    0.0000000000000000    6.3537220000000003
Sb P O
2 2 10
direct
   0.0000000000000000    0.0000000000000000    0.5000000000000000 Sb
   0.0000000000000000    0.0000000000000000    0.0000000000000000 Sb
   0.6702174300000000    0.3297825700000000    0.2500000000000000 P
   0.3297825700000000    0.6702174300000000    0.7500000000000000 P
   0.3770926000000000    0.2569542600000000    0.0933894400000000 O
   0.7430457400000000    0.6229074000000000    0.4066105600000000 O
   0.6229074000000000    0.7430457400000000    0.9066105600000000 O
   0.2569542600000000    0.3770926000000000    0.5933894400000000 O
   0.9053495900000000    0.0946504100000000    0.7500000000000000 O
   0.0946504100000000    0.9053495900000000    0.2500000000000000 O
   0.6823578000000000    0.1257071200000000    0.3694508300000000 O
   0.8742928800000000    0.3176422000000000    0.1305491700000000 O
   0.3176422000000000    0.8742928800000000    0.6305491700000000 O
   0.1257071200000000    0.6823578000000000    0.8694508300000000 O
