Na8 Mo4 Se4 O24
1.0
   8.2913930400000009    0.0000000000000000    0.0000000000000000
   0.0000000000000000    8.2913930400000009    0.0000000000000000
   0.0000000000000000    0.0000000000000000    8.2913930400000009
Na Mo Se O
8 4 4 24
direct
   0.7547062800000000    0.2452937200000000    0.7452937200000000 Na
   0.4679902100000000    0.4679902100000000    0.4679902100000000 Na
   0.5320097900000000    0.9679902100000000    0.0320097900000000 Na
   0.2547062800000000    0.2547062800000000    0.2547062800000000 Na
   0.7452937200000000    0.7547062800000000    0.2452937200000000 Na
   0.0320097900000000    0.5320097900000000    0.9679902100000000 Na
   0.9679902100000000    0.0320097900000000    0.5320097900000000 Na
   0.2452937200000000    0.7452937200000000    0.7547062800000000 Na
   0.9884877600000000    0.5115122400000000    0.4884877600000000 Mo
   0.0115122400000000    0.0115122400000000    0.0115122400000000 Mo
   0.4884877600000000    0.9884877600000000    0.5115122400000000 Mo
   0.5115122400000000    0.4884877600000000    0.9884877600000000 Mo
   0.3250344200000000    0.1749655800000000    0.8250344200000000 Se
   0.8250344200000000    0.3250344200000000    0.1749655800000000 Se
   0.6749655800000000    0.6749655800000000    0.6749655800000000 Se
   0.1749655800000000    0.8250344200000000    0.3250344200000000 Se
   0.3969631000000000    0.9910119400000000    0.7578397800000000 O
   0.4910119400000000    0.7421602200000000    0.6030369000000000 O
   0.6916227000000000    0.0076667500000000    0.5793940700000000 O
   0.0089880600000000    0.2578397800000000    0.1030369000000000 O
   0.1916227000000000    0.4923332500000000    0.4206059300000000 O
   0.7578397800000000    0.3969631000000000    0.9910119400000000 O
   0.0793940700000000    0.8083773000000000    0.9923332499999999 O
   0.0076667500000000    0.5793940700000000    0.6916227000000000 O
   0.3083773000000000    0.5076667500000001    0.9206059300000000 O
   0.9910119400000000    0.7578397800000000    0.3969631000000000 O
   0.8969631000000000    0.5089880600000000    0.2421602200000000 O
   0.9206059300000000    0.3083773000000000    0.5076667500000001 O
   0.5076667500000001    0.9206059300000000    0.3083773000000000 O
   0.2421602200000000    0.8969631000000000    0.5089880600000000 O
   0.1030369000000000    0.0089880600000000    0.2578397800000000 O
   0.4206059300000000    0.1916227000000000    0.4923332500000000 O
   0.2578397800000000    0.1030369000000000    0.0089880600000000 O
   0.9923332499999999    0.0793940700000000    0.8083773000000000 O
   0.6030369000000000    0.4910119400000000    0.7421602200000000 O
   0.8083773000000000    0.9923332499999999    0.0793940700000000 O
   0.7421602200000000    0.6030369000000000    0.4910119400000000 O
   0.4923332500000000    0.4206059300000000    0.1916227000000000 O
   0.5793940700000000    0.6916227000000000    0.0076667500000000 O
   0.5089880600000000    0.2421602200000000    0.8969631000000000 O
