Li4 Cu4 O4
1.0
  -4.1764384000000003    4.1764384000000003    1.9174457199999999
   4.1764384000000003   -4.1764384000000003    1.9174457199999999
   4.1764384000000003    4.1764384000000003   -1.9174457199999999
Li Cu O
4 4 4
direct
   0.1493449300000000    0.5000000000000000    0.6493449300000000 Li
   0.5000000000000000    0.1493449300000000    0.6493449300000000 Li
   0.5000000000000000    0.8506550700000000    0.3506550700000000 Li
   0.8506550700000000    0.5000000000000000    0.3506550700000000 Li
   0.8426324600000000    0.1573675400000000    0.0000000000000000 Cu
   0.8426324600000000    0.8426324600000000    0.6852659200000000 Cu
   0.1573675400000000    0.1573675400000000    0.3147340800000000 Cu
   0.1573675400000000    0.8426324600000000    0.0000000000000000 Cu
   0.6914922200000000    0.0000000000000000    0.6914922200000000 O
   0.0000000000000000    0.6914922200000000    0.6914922200000000 O
   0.0000000000000000    0.3085077800000000    0.3085077800000000 O
   0.3085077800000000    0.0000000000000000    0.3085077800000000 O
