Na3 In1 P2 O8
1.0
   4.3224520000000002   -2.7384590000000002    0.0000000000000000
   4.3224520000000002    2.7384590000000002    0.0000000000000000
  -0.0027680000000000    0.0000000000000000    6.9687989999999997
Na In P O
3 1 2 8
direct
   0.0000000000000000    0.0000000000000000    0.5000000000000000 Na
   0.3124290000000000    0.3124290000000000    0.2878110000000000 Na
   0.6875710000000000    0.6875710000000000    0.7121890000000000 Na
   0.0000000000000000    0.0000000000000000    0.0000000000000000 In
   0.3469750000000000    0.3469750000000000    0.7770530000000000 P
   0.6530250000000000    0.6530250000000000    0.2229470000000000 P
   0.2495870000000000    0.2495870000000000    0.9631180000000000 O
   0.7504130000000000    0.7504130000000000    0.0368820000000000 O
   0.2456220000000000    0.2456220000000000    0.5994699999999999 O
   0.7543780000000000    0.7543780000000000    0.4005300000000000 O
   0.7740480000000000    0.3139150000000000    0.2265300000000000 O
   0.6860849999999999    0.2259520000000000    0.7734700000000000 O
   0.2259520000000000    0.6860849999999999    0.7734700000000000 O
   0.3139150000000000    0.7740480000000000    0.2265300000000000 O
