Ca1 As2 O6
1.0
   4.8690786399999997   -0.0000000000000000    0.0000000000000000
  -2.4345388200000002    4.2167453699999999    0.0000000000000000
   0.0000000000000000    0.0000000000000000    5.0735267799999999
Ca As O
1 2 6
direct
   0.0000000000000000    0.0000000000000000    0.0000000000000000 Ca
   0.3333330000000000    0.6666670000000000    0.5000000000000000 As
   0.6666670000000000    0.3333330000000000    0.5000000000000000 As
   0.3761600200000000    0.3761600200000000    0.7054841100000000 O
   0.6238399800000000    1.0000000000000000    0.7054841100000000 O
   0.0000000000000000    0.6238399800000000    0.7054841100000000 O
   0.3761600200000000    0.0000000000000000    0.2945158900000000 O
   1.0000000000000000    0.3761600200000000    0.2945158900000000 O
   0.6238399800000000    0.6238399800000000    0.2945158900000000 O
