Na4 C2 O6
1.0
   4.3815156499999999   -2.6266328600000000   -0.0471295800000000
   4.3815156499999999    2.6266328600000000   -0.0471295800000000
  -1.2790391600000000    0.0000000000000000    5.7780584900000003
Na C O
4 2 6
direct
   0.3309591800000000    0.3309591800000000    0.2586907400000000 Na
   0.6690408200000000    0.6690408200000000    0.7413092600000000 Na
   0.0000000000000000    0.0000000000000000    0.0000000000000000 Na
   0.0000000000000000    0.0000000000000000    0.5000000000000000 Na
   0.6639158800000000    0.6639158800000000    0.2493379700000000 C
   0.3360841200000000    0.3360841200000000    0.7506620300000000 C
   0.7890045400000000    0.7890045400000000    0.1675515300000000 O
   0.6120928600000000    0.1859403600000000    0.7084837100000000 O
   0.8140596400000000    0.3879071400000000    0.2915162900000000 O
   0.1859403600000000    0.6120928600000000    0.7084837100000000 O
   0.3879071400000000    0.8140596400000000    0.2915162900000000 O
   0.2109954600000000    0.2109954600000000    0.8324484700000000 O
