Na6 P6 O18
1.0
   7.0217416300000002    0.0073414200000000    0.0204016800000000
  -0.0233751200000000    7.0347161600000003    0.0199745300000000
  -1.8275139899999999   -0.5452680500000000    7.5861487900000002
Na P O
6 6 18
direct
   0.5761137500000000    0.7589317700000000    0.8003366700000000 Na
   0.4238862500000000    0.2410682300000000    0.1996633300000000 Na
   0.0554095700000000    0.7509108400000000    0.7803725700000000 Na
   0.9445904300000000    0.2490891600000000    0.2196274300000000 Na
   0.2548628900000000    0.9775525700000000    0.5137366799999999 Na
   0.7451371100000000    0.0224474300000000    0.4862633200000000 Na
   0.6213732000000000    0.2346972900000000    0.8210560500000000 P
   0.3786268000000000    0.7653027100000001    0.1789439500000000 P
   0.0427853600000000    0.2344556700000000    0.8205771500000000 P
   0.9572146400000000    0.7655443300000000    0.1794228500000000 P
   0.2805015100000000    0.4469915800000000    0.6166320500000000 P
   0.7194984900000000    0.5530084199999999    0.3833679500000000 P
   0.5569625499999999    0.0595094500000000    0.7006473800000000 O
   0.4430374500000000    0.9404905500000000    0.2993526200000000 O
   0.0452733400000000    0.0588917500000000    0.7010874900000000 O
   0.9547266599999999    0.9411082500000000    0.2989125100000000 O
   0.3653707100000000    0.7698573700000000    0.9865036900000000 O
   0.6346292900000000    0.2301426300000000    0.0134963100000000 O
   0.8716769900000000    0.7693912300000000    0.9863841700000000 O
   0.1283230100000000    0.2306087700000000    0.0136158300000000 O
   0.8244359200000000    0.3150602800000000    0.7891572500000000 O
   0.1755640800000000    0.6849397200000000    0.2108427500000000 O
   0.4923399300000000    0.4147343900000000    0.7459479200000000 O
   0.5076600700000000    0.5852656100000000    0.2540520800000000 O
   0.1352554500000000    0.4137875800000000    0.7466314700000000 O
   0.8647445499999999    0.5862124200000000    0.2533685300000000 O
   0.2747142300000000    0.6573479700000000    0.5974846500000000 O
   0.7252857700000001    0.3426520300000000    0.4025153500000000 O
   0.7606297700000000    0.6948196900000000    0.5388788700000000 O
   0.2393702300000000    0.3051803100000000    0.4611211300000000 O
