Rb2 V6 Se4 O24
1.0
   7.0340819899999998    0.0000008700000000    0.0000000000000000
  -3.5170412600000001    6.0916933599999998    0.0000000000000000
   0.0000000000000000    0.0000000000000000   11.6603917999999993
Rb V Se O
2 6 4 24
direct
   0.6666670000000000    0.3333330000000000    0.0446633300000000 Rb
   0.3333330000000000    0.6666670000000000    0.5446633300000000 Rb
   0.3328539000000000    0.2033312400000000    0.7084814400000000 V
   0.8704763500000000    0.6671461000000000    0.7084814400000000 V
   0.2033312400000000    0.8704763500000000    0.2084814400000000 V
   0.6671461000000000    0.7966687600000000    0.2084814400000000 V
   0.7966687600000000    0.1295236500000000    0.7084814400000000 V
   0.1295236500000000    0.3328539000000000    0.2084814400000000 V
   0.0000000000000000    0.0000000000000000    0.9306762100000000 Se
   0.6666670000000000    0.3333330000000000    0.4827869600000000 Se
   0.3333330000000000    0.6666670000000000    0.9827869600000000 Se
   0.0000000000000000    0.0000000000000000    0.4306762100000000 Se
   0.8736414300000001    0.1235479400000000    0.1777857500000000 O
   0.7500924900000000    0.8736414300000001    0.6777857500000000 O
   0.1235479400000000    0.2499075100000000    0.6777857500000000 O
   0.8764520600000000    0.7500924900000000    0.1777857500000000 O
   0.2499075100000000    0.1263585700000000    0.1777857500000000 O
   0.1263585700000000    0.8764520600000000    0.6777857500000000 O
   0.0829522400000000    0.5433768700000000    0.2320163700000000 O
   0.5395753700000000    0.0829522400000000    0.7320163700000000 O
   0.5433768700000000    0.4604246300000000    0.7320163700000000 O
   0.4566231300000000    0.5395753700000000    0.2320163700000000 O
   0.4604246300000000    0.9170477600000000    0.2320163700000000 O
   0.9170477600000000    0.4566231300000000    0.7320163700000000 O
   0.7904590800000000    0.5899438700000000    0.5451322400000000 O
   0.2005152100000000    0.7904590800000000    0.0451322400000000 O
   0.5899438700000000    0.7994847899999999    0.0451322400000000 O
   0.4100561300000000    0.2005152100000000    0.5451322400000000 O
   0.7994847899999999    0.2095409200000000    0.5451322400000000 O
   0.2095409200000000    0.4100561300000000    0.0451322400000000 O
   0.8682248400000000    0.7435312800000000    0.8661117000000000 O
   0.1246935600000000    0.8682248400000000    0.3661117000000000 O
   0.7435312800000000    0.8753064400000000    0.3661117000000000 O
   0.2564687200000000    0.1246935600000000    0.8661117000000000 O
   0.8753064400000000    0.1317751600000000    0.8661117000000000 O
   0.1317751600000000    0.2564687200000000    0.3661117000000000 O
