Na4 Ga4 O8
1.0
   5.5293762700000002    0.0000000000000000    0.0000000000000000
   0.0000000000000000    7.1259308800000003    0.0000000000000000
   0.0000000000000000    0.0000000000000000    5.2867520099999998
Na Ga O
4 4 8
direct
   0.0707209900000000    0.6223119000000000    0.0138833700000000 Na
   0.4292790100000000    0.1223119000000000    0.5138833700000000 Na
   0.9292790100000000    0.3776881000000000    0.5138833700000000 Na
   0.5707209900000000    0.8776881000000000    0.0138833700000000 Na
   0.0647359100000000    0.1262007000000000    0.9999708000000000 Ga
   0.9352640900000000    0.8737992999999999    0.4999708000000000 Ga
   0.4352640900000000    0.6262007000000001    0.4999708000000000 Ga
   0.5647359100000000    0.3737993000000000    0.9999708000000000 Ga
   0.4578292000000000    0.5913388400000000    0.1525164400000000 O
   0.5421708000000000    0.4086611600000000    0.6525164400000000 O
   0.0421708000000000    0.0913388400000000    0.6525164400000000 O
   0.9578292000000000    0.9086611600000000    0.1525164400000000 O
   0.8887876000000000    0.3393154100000000    0.0831304000000000 O
   0.3887876000000000    0.1606845900000000    0.0831304000000000 O
   0.6112124000000000    0.8393154100000000    0.5831304000000000 O
   0.1112124000000000    0.6606845900000000    0.5831304000000000 O
