Na4 Ge2 Pb1 S6
1.0
   3.3895301199999999   -5.8483279699999997    0.0025169300000000
   3.3895301199999999    5.8483279699999997    0.0025169300000000
  -2.2418887000000001    0.0000000000000000    7.3309042000000000
Na Ge Pb S
4 2 1 6
direct
   0.1764692000000000    0.8235308000000000    0.0000000000000000 Na
   0.8225173700000000    0.1774826300000000    0.0000000000000000 Na
   0.5012275000000000    0.4987725000000000    0.0000000000000000 Na
   0.3340888100000000    0.6659111900000000    0.5000000000000000 Na
   0.0526137000000000    0.0527947100000000    0.6640737500000000 Ge
   0.9472052900000000    0.9473863000000000    0.3359262500000000 Ge
   0.6651666200000000    0.3348333800000000    0.5000000000000000 Pb
   0.3987583300000000    0.0814204100000000    0.7527704000000000 S
   0.0846470600000000    0.4002819100000000    0.7537516100000000 S
   0.5997180900000000    0.9153529400000000    0.2462483900000000 S
   0.9185795900000000    0.6012416700000000    0.2472296000000000 S
   0.7687464100000000    0.7697359900000000    0.7563495200000000 S
   0.2302640100000000    0.2312535900000000    0.2436504800000000 S
