Hf1 S2
1.0
   3.6549519500000001   -0.0000000100000000    0.0000000000000000
  -1.8274764900000000    3.1652814500000002   -0.0000000000000000
   0.0000000000000000    0.0000000000000000    5.9751262900000004
Hf S
1 2
direct
   0.0000000000000000    0.0000000000000000    0.0000000000000000 Hf
   0.6666670000000000    0.3333330000000000    0.7568381900000000 S
   0.3333330000000000    0.6666670000000000    0.2431618100000000 S
