Ba3 Zn3 O6
1.0
   5.8276749499999996    0.0000000000000000    0.0000000000000000
  -2.9138374800000002    5.0469145800000002    0.0000000000000000
   0.0000000000000000    0.0000000000000000    6.6589763399999997
Ba Zn O
3 3 6
direct
   0.6527798600000000    0.0000000000000000    0.8333330000000000 Ba
   0.0000000000000000    0.6527798600000000    0.1666670000000000 Ba
   0.3472201400000000    0.3472201400000000    0.5000000000000000 Ba
   0.4227241600000000    0.4227241600000000    0.0000000000000000 Zn
   1.0000000000000000    0.5772758400000000    0.6666670000000000 Zn
   0.5772758400000000    0.0000000000000000    0.3333330000000000 Zn
   0.1345953200000000    0.4259207000000000    0.8717481600000000 O
   0.5740793000000000    0.7086746200000000    0.2050821600000000 O
   0.2913253800000000    0.8654046800000000    0.5384151600000000 O
   0.7086746200000000    0.5740793000000000    0.7949178400000000 O
   0.4259207000000000    0.1345953200000000    0.1282518400000000 O
   0.8654046800000000    0.2913253800000000    0.4615848400000000 O
