Ca2 Ga4 S8
1.0
   2.9838786599999998   -4.9822669499999996    0.0000000000000000
   2.9838786599999998    4.9822669499999996    0.0000000000000000
   0.0000000000000000    0.0000000000000000   10.0204170300000008
Ca Ga S
2 4 8
direct
   0.5000000000000000    0.5000000000000000    0.7500000000000000 Ca
   0.5000000000000000    0.5000000000000000    0.2500000000000000 Ca
   0.7693007700000000    0.2346567700000000    0.5000000000000000 Ga
   0.2306992300000000    0.7653432300000000    0.5000000000000000 Ga
   0.7653432300000000    0.2306992300000000    0.0000000000000000 Ga
   0.2346567700000000    0.7693007700000000    0.0000000000000000 Ga
   0.3521878500000000    0.1969407800000000    0.5000000000000000 S
   0.6478121500000000    0.8030592200000000    0.5000000000000000 S
   0.8030592200000000    0.6478121500000000    0.0000000000000000 S
   0.1969407800000000    0.3521878500000000    0.0000000000000000 S
   0.5000000000000000    0.0000000000000000    0.8266080800000000 S
   0.0000000000000000    0.5000000000000000    0.6733919200000000 S
   0.5000000000000000    0.0000000000000000    0.1733919200000000 S
   0.0000000000000000    0.5000000000000000    0.3266080800000000 S
