Sr4 Se8 O20
1.0
   6.9000883999999996    0.0047658100000000   -0.0094786600000000
   1.2389463700000001    6.8129684700000004   -0.0032082600000000
   1.6437553700000000    0.6865726200000000   10.7448946400000001
Sr Se O
4 8 20
direct
   0.1930108600000000    0.3607890600000000    0.8931019200000000 Sr
   0.8069891400000000    0.6392109400000000    0.1068980800000000 Sr
   0.6857062700000000    0.6087468800000000    0.7584488500000000 Sr
   0.3142937300000000    0.3912531200000000    0.2415511500000000 Sr
   0.5861823100000000    0.1667284600000000    0.6206289000000000 Se
   0.4138176900000000    0.8332715400000000    0.3793711000000000 Se
   0.1252214600000000    0.2713963600000000    0.5659344500000000 Se
   0.8747785400000000    0.7286036400000000    0.4340655500000000 Se
   0.1198891900000000    0.8397501700000000    0.7854613499999999 Se
   0.8801108100000000    0.1602498300000000    0.2145386500000000 Se
   0.3041284200000000    0.8428542100000000    0.0431247200000000 Se
   0.6958715800000000    0.1571457900000000    0.9568752800000000 Se
   0.7113053600000000    0.9451967300000000    0.6587160700000000 O
   0.2886946400000000    0.0548032700000000    0.3412839300000000 O
   0.5419453800000000    0.2844298400000000    0.7561768300000000 O
   0.4580546200000000    0.7155701600000000    0.2438231700000000 O
   0.0306558300000000    0.3716359700000000    0.7023165800000000 O
   0.9693441699999999    0.6283640300000000    0.2976834200000000 O
   0.2407320400000000    0.4389814400000000    0.4780680200000000 O
   0.7592679600000000    0.5610185600000001    0.5219319800000000 O
   0.3403376700000000    0.0943146500000000    0.6221205400000001 O
   0.6596623300000000    0.9056853499999999    0.3778794600000000 O
   0.3188947100000000    0.6615395500000000    0.7654041300000000 O
   0.6811052900000000    0.3384604500000000    0.2345958700000000 O
   0.8155620500000000    0.0209731500000000    0.0955044000000000 O
   0.1844379500000000    0.9790268500000000    0.9044956000000000 O
   0.4624545600000000    0.2211057700000000    0.0285567600000000 O
   0.5375454400000000    0.7788942300000000    0.9714432400000000 O
   0.7917800100000000    0.3681500700000000    0.9452048600000000 O
   0.2082199900000000    0.6318499300000000    0.0547951400000000 O
   0.0510300100000000    0.2865788500000000    0.1303128900000000 O
   0.9489699900000000    0.7134211499999999    0.8696871100000000 O
