Li8 Te4 O12
1.0
   2.5037992400000002   -4.7863595500000002   -0.0036505400000000
   2.5037992400000002    4.7863595500000002   -0.0036505400000000
  -1.1905642700000001    0.0000000000000000   13.1979829899999999
Li Te O
8 4 12
direct
   0.5434951800000000    0.0391678600000000    0.1786268500000000 Li
   0.9608321399999999    0.4565048200000000    0.3213731500000000 Li
   0.4565048200000000    0.9608321399999999    0.8213731500000000 Li
   0.0391678600000000    0.5434951800000000    0.6786268500000000 Li
   0.1430826000000000    0.2755157200000000    0.8176573499999999 Li
   0.7244842800000000    0.8569174000000001    0.6823426500000001 Li
   0.8569174000000001    0.7244842800000000    0.1823426500000000 Li
   0.2755157200000000    0.1430826000000000    0.3176573500000000 Li
   0.1662790800000000    0.3494000200000000    0.0833262900000000 Te
   0.6505999800000000    0.8337209200000000    0.4166737100000000 Te
   0.8337209200000000    0.6505999800000000    0.9166737100000000 Te
   0.3494000200000000    0.1662790800000000    0.5833262900000000 Te
   0.5463340000000000    0.7238242700000000    0.1028971900000000 O
   0.1220965900000000    0.2385896400000000    0.6675094300000000 O
   0.8779034100000001    0.7614103600000000    0.3324905700000000 O
   0.2385896400000000    0.1220965900000000    0.1675094300000000 O
   0.4247709200000000    0.9453795800000000    0.6704079500000000 O
   0.0546204200000000    0.5752290799999999    0.8295920500000000 O
   0.5752290799999999    0.0546204200000000    0.3295920500000000 O
   0.9453795800000000    0.4247709200000000    0.1704079500000000 O
   0.4536660000000000    0.2761757300000000    0.8971028100000000 O
   0.7238242700000000    0.5463340000000000    0.6028971900000000 O
   0.7614103600000000    0.8779034100000001    0.8324905700000000 O
   0.2761757300000000    0.4536660000000000    0.3971028100000000 O
