Ba8 Bi4 O17
1.0
   9.9116579300000005   -4.3946584000000000    0.0620255800000000
   9.9116579300000005    4.3946584000000000    0.0620255800000000
  -1.8755522499999999    0.0000000000000000    5.9863839299999997
Ba Bi O
8 4 17
direct
   0.4202734900000000    0.9413566100000000    0.1749914300000000 Ba
   0.2309364300000000    0.7418075600000000    0.4422590000000000 Ba
   0.9413566100000000    0.4202734900000000    0.1749914300000000 Ba
   0.1140622200000000    0.5844889500000000    0.8352828900000000 Ba
   0.5247730400000000    0.5247730400000000    0.9590480800000000 Ba
   0.1573476700000000    0.1573476700000000    0.6615276600000000 Ba
   0.7418075600000000    0.2309364300000000    0.4422590000000000 Ba
   0.5844889500000000    0.1140622200000000    0.8352828900000000 Ba
   0.8340212200000000    0.8340212200000000    0.3239396300000000 Bi
   0.6730541300000000    0.6730541300000000    0.6737376400000000 Bi
   0.3375271900000000    0.3375271900000000    0.3171593600000000 Bi
   0.9995404200000000    0.9995404200000000    0.9948326700000000 Bi
   0.4243273900000000    0.8209443600000000    0.7298342900000000 O
   0.7313208000000000    0.7313208000000000    0.0274765000000000 O
   0.6189569400000000    0.6189569400000000    0.3314492800000000 O
   0.7683439399999999    0.7683439399999999    0.5921073000000000 O
   0.9359869700000000    0.9359869700000000    0.6401651900000001 O
   0.8982815100000000    0.8982815100000000    0.0916911600000000 O
   0.2232888100000000    0.7531044900000000    0.9975066400000000 O
   0.8209443600000000    0.4243273900000000    0.7298342900000000 O
   0.0894479400000000    0.5786131100000000    0.3203454900000000 O
   0.0473764800000000    0.0473764800000000    0.3441475400000000 O
   0.4095327000000000    0.4095327000000000    0.6423499400000000 O
   0.2695925000000000    0.2695925000000000    0.9865066800000000 O
   0.2486382900000000    0.2486382900000000    0.4440946700000000 O
   0.1029717700000000    0.1029717700000000    0.9743626200000000 O
   0.4251170600000000    0.4251170600000000    0.1848965800000000 O
   0.5786131100000000    0.0894479400000000    0.3203454900000000 O
   0.7531044900000000    0.2232888100000000    0.9975066400000000 O
