Sr1 O1
1.0
   0.0000000000000000    2.5670813300000002    2.5670813300000002
   2.5670813300000002    0.0000000000000000    2.5670813300000002
   2.5670813300000002    2.5670813300000002    0.0000000000000000
Sr O
1 1
direct
   0.0000000000000000    0.0000000000000000    0.0000000000000000 Sr
   0.5000000000000000    0.5000000000000000    0.5000000000000000 O
