La4 Mg2 Ti2 O12
1.0
   5.5424196999999999    0.0000000000000000    0.0017331700000000
   0.0000000000000000    5.6103573300000003    0.0000000000000000
  -5.5516824199999997    0.0000000000000000    7.8541135200000003
La Mg Ti O
4 2 2 12
direct
   0.7593741899999999    0.5396384600000000    0.2507558100000000 La
   0.2406258100000000    0.0396384600000000    0.2492441900000000 La
   0.2406258100000000    0.4603615400000000    0.7492441900000000 La
   0.7593741899999999    0.9603615400000000    0.7507558100000000 La
   0.0000000000000000    0.5000000000000000    0.0000000000000000 Mg
   0.0000000000000000    0.0000000000000000    0.5000000000000000 Mg
   0.5000000000000000    0.0000000000000000    0.0000000000000000 Ti
   0.5000000000000000    0.5000000000000000    0.5000000000000000 Ti
   0.3394251200000000    0.4776153800000000    0.2553818400000000 O
   0.6605748800000000    0.9776153800000000    0.2446181600000000 O
   0.6605748800000000    0.5223846200000000    0.7446181600000000 O
   0.3394251200000000    0.0223846200000000    0.7553818400000000 O
   0.2493931600000000    0.7154666300000000    0.9539944400000000 O
   0.7506068400000000    0.2154666300000000    0.5460055600000000 O
   0.7506068400000000    0.2845333700000000    0.0460055600000000 O
   0.2493931600000000    0.7845333700000000    0.4539944400000000 O
   0.8272636200000000    0.7949446600000000    0.0437019700000000 O
   0.1727363800000000    0.2949446600000000    0.4562980300000000 O
   0.1727363800000000    0.2050553400000000    0.9562980300000000 O
   0.8272636200000000    0.7050553400000000    0.5437019700000000 O
