Mg4 Se8
1.0
   6.4229067300000002    0.0000000000000000    0.0000000000000000
   0.0000000000000000    6.4229067300000002    0.0000000000000000
   0.0000000000000000    0.0000000000000000    6.4229067300000002
Mg Se
4 8
direct
   0.5000000000000000    0.5000000000000000    0.0000000000000000 Mg
   0.5000000000000000    0.0000000000000000    0.5000000000000000 Mg
   0.0000000000000000    0.5000000000000000    0.5000000000000000 Mg
   0.0000000000000000    0.0000000000000000    0.0000000000000000 Mg
   0.1072153200000000    0.8927846800000000    0.3927846800000000 Se
   0.8927846800000000    0.3927846800000000    0.1072153200000000 Se
   0.3927846800000000    0.1072153200000000    0.8927846800000000 Se
   0.6072153200000000    0.6072153200000000    0.6072153200000000 Se
   0.8927846800000000    0.1072153200000000    0.6072153200000000 Se
   0.1072153200000000    0.6072153200000000    0.8927846800000000 Se
   0.6072153200000000    0.8927846800000000    0.1072153200000000 Se
   0.3927846800000000    0.3927846800000000    0.3927846800000000 Se
