Tl4 V2 O7
1.0
   5.9169919699999998   -0.0000000100000000    0.0000000000000000
  -2.9584955000000002    5.1242654999999999    0.0000000000000000
   0.0000000000000000    0.0000000000000000    7.7019405200000000
Tl V O
4 2 7
direct
   0.6666670000000000    0.3333330000000000    0.9201036300000000 Tl
   0.3333330000000000    0.6666670000000000    0.0798963700000000 Tl
   0.6666670000000000    0.3333330000000000    0.4120263100000000 Tl
   0.3333330000000000    0.6666670000000000    0.5879736900000000 Tl
   0.0000000000000000    0.0000000000000000    0.7349075900000001 V
   0.0000000000000000    0.0000000000000000    0.2650924100000000 V
   0.8419287000000000    0.1580713000000000    0.1947344900000000 O
   0.8419287000000000    0.6838573900000000    0.1947344900000000 O
   0.3161426100000000    0.1580713000000000    0.1947344900000000 O
   0.6838573900000000    0.8419287000000000    0.8052655100000000 O
   0.1580713000000000    0.3161426100000000    0.8052655100000000 O
   0.1580713000000000    0.8419287000000000    0.8052655100000000 O
   0.0000000000000000    0.0000000000000000    0.5000000000000000 O
