Mg2 Ag4 P4 S12
1.0
   3.1334518700000000   -5.4162025900000001   -0.0131765200000000
   3.1334518700000000    5.4162025900000001   -0.0131765200000000
  -2.0044001800000002    0.0000000000000000   13.2275820700000004
Mg Ag P S
2 4 4 12
direct
   0.5789531500000000    0.4210468500000000    0.7500000000000000 Mg
   0.4210468500000000    0.5789531500000000    0.2500000000000000 Mg
   0.9545401000000000    0.1275210800000000    0.8646226700000000 Ag
   0.0454599000000000    0.8724789200000000    0.1353773300000000 Ag
   0.8724789200000000    0.0454599000000000    0.6353773300000000 Ag
   0.1275210800000000    0.9545401000000000    0.3646226700000000 Ag
   0.7832462200000000    0.2770121200000000    0.3349352100000000 P
   0.2167537800000000    0.7229878800000000    0.6650647900000000 P
   0.7229878800000000    0.2167537800000000    0.1650647900000000 P
   0.2770121200000000    0.7832462200000000    0.8349352100000000 P
   0.5192335200000000    0.3486971100000000    0.3802742800000000 S
   0.4807664800000000    0.6513028900000000    0.6197257200000000 S
   0.6513028900000000    0.4807664800000000    0.1197257200000000 S
   0.3486971100000000    0.5192335200000000    0.8802742800000000 S
   0.9572565500000000    0.7428825900000000    0.8816781900000000 S
   0.0427434500000000    0.2571174100000000    0.1183218100000000 S
   0.2571174100000000    0.0427434500000000    0.6183218100000000 S
   0.7428825900000000    0.9572565500000000    0.3816781900000000 S
   0.8668260900000000    0.4289264200000000    0.6216147500000000 S
   0.1331739100000000    0.5710735800000000    0.3783852500000000 S
   0.5710735800000000    0.1331739100000000    0.8783852500000000 S
   0.4289264200000000    0.8668260900000000    0.1216147500000000 S
