Cs4 Ti2 P8 O26
1.0
   5.1776547300000004    0.0195456200000000   -0.0083569800000000
   1.3658815200000001    7.9629022000000003   -0.0410505500000000
   1.6716604600000000    1.2688537900000001   15.5623758399999996
Cs Ti P O
4 2 8 26
direct
   0.6864932600000000    0.7432816000000000    0.9896535400000001 Cs
   0.3135067400000000    0.2567184000000000    0.0103464600000000 Cs
   0.2702167200000000    0.3073892300000000    0.5273404500000000 Cs
   0.7297832800000000    0.6926107700000000    0.4726595500000000 Cs
   0.4529654600000000    0.0612244600000000    0.2597966900000000 Ti
   0.5470345400000000    0.9387755400000000    0.7402033099999999 Ti
   0.8816614500000000    0.2261853400000000    0.3514492600000000 P
   0.1183385500000000    0.7738146600000000    0.6485507400000000 P
   0.6691449300000000    0.4094036900000000    0.1938336400000000 P
   0.3308550700000000    0.5905963100000000    0.8061663600000000 P
   0.3183629900000000    0.6789051400000000    0.2882715400000000 P
   0.6816370100000000    0.3210948600000000    0.7117284600000000 P
   0.0283212800000000    0.9034565800000000    0.1618321800000000 P
   0.9716787200000000    0.0965434200000000    0.8381678200000000 P
   0.7205417800000000    0.0895654300000000    0.3336758500000000 O
   0.2794582200000000    0.9104345700000001    0.6663241500000000 O
   0.7887783600000000    0.3111602900000000    0.4318409700000000 O
   0.2112216400000000    0.6888397100000000    0.5681590300000000 O
   0.8588868900000000    0.3641624300000000    0.2688702700000000 O
   0.1411131100000000    0.6358375700000000    0.7311297300000000 O
   0.1762712100000000    0.1494452000000000    0.3479224100000000 O
   0.8237287900000000    0.8505548000000001    0.6520775900000000 O
   0.5168072400000000    0.5950226000000000    0.2123055800000000 O
   0.4831927600000000    0.4049774000000000    0.7876944200000000 O
   0.8129631899999999    0.4223740900000000    0.1076671400000000 O
   0.1870368100000000    0.5776259100000000    0.8923328600000000 O
   0.4641389800000000    0.2910892900000000    0.2068607000000000 O
   0.5358610200000000    0.7089107100000001    0.7931393000000000 O
   0.4414166000000000    0.8285998800000000    0.3093559000000000 O
   0.5585834000000000    0.1714001200000000    0.6906441000000000 O
   0.0625994900000000    0.7540177900000000    0.2401425100000000 O
   0.9374005100000000    0.2459822100000000    0.7598574900000000 O
   0.2592242900000000    0.5595771500000000    0.3617352800000000 O
   0.7407757100000000    0.4404228500000000    0.6382647200000000 O
   0.1297820100000000    0.8353648200000000    0.0777827600000000 O
   0.8702179900000000    0.1646351800000000    0.9222172400000000 O
   0.7304202500000000    0.9699567300000000    0.1704201100000000 O
   0.2695797500000000    0.0300432700000000    0.8295798900000000 O
   0.1810910600000000    0.0390219700000000    0.1865364600000000 O
   0.8189089400000000    0.9609780300000000    0.8134635400000000 O
