Cs2 La2 O4
1.0
   3.7364261999999999   -0.0000000000000000    0.0000000000000000
  -1.8682126100000001    3.2358400500000002    0.0000000000000000
   0.0000000000000000    0.0000000000000000   13.5645321499999998
Cs La O
2 2 4
direct
   0.6666670000000000    0.3333330000000000    0.2500000000000000 Cs
   0.3333330000000000    0.6666670000000000    0.7500000000000000 Cs
   0.0000000000000000    0.0000000000000000    0.5000000000000000 La
   0.0000000000000000    0.0000000000000000    0.0000000000000000 La
   0.6666670000000000    0.3333330000000000    0.9142661700000000 O
   0.6666670000000000    0.3333330000000000    0.5857338300000000 O
   0.3333330000000000    0.6666670000000000    0.0857338300000000 O
   0.3333330000000000    0.6666670000000000    0.4142661700000000 O
