Ba8 B8 O20
1.0
   8.4137059999999995    0.0000000000000000    0.0000000000000000
   0.0000000000000000    5.5125460000000004    0.0000000000000000
  -0.4309800000000000    0.0000000000000000   12.2722409999999993
Ba B O
8 8 20
direct
   0.3842360000000000    0.5335450000000000    0.6337490000000000 Ba
   0.8788710000000000    0.5793640000000000    0.6542800000000000 Ba
   0.1211290000000000    0.0793640000000000    0.8457200000000000 Ba
   0.6157640000000000    0.0335450000000000    0.8662510000000000 Ba
   0.3842360000000000    0.9664550000000000    0.1337490000000000 Ba
   0.8788710000000000    0.9206360000000000    0.1542800000000000 Ba
   0.1211290000000000    0.4206360000000000    0.3457200000000000 Ba
   0.6157640000000000    0.4664550000000000    0.3662510000000000 Ba
   0.6608250000000000    0.0350160000000000    0.5784690000000000 B
   0.1650520000000000    0.0620470000000000    0.5960870000000000 B
   0.8349480000000000    0.5620470000000000    0.9039130000000000 B
   0.3391750000000000    0.5350160000000000    0.9215310000000000 B
   0.6608250000000000    0.4649840000000000    0.0784690000000000 B
   0.1650520000000000    0.4379530000000000    0.0960870000000000 B
   0.8349480000000000    0.9379530000000000    0.4039130000000000 B
   0.3391750000000000    0.9649840000000000    0.4215310000000000 B
   0.7440200000000000    0.8953730000000000    0.4983330000000000 O
   0.6492210000000000    0.2809440000000000    0.5716150000000000 O
   0.1104470000000000    0.2712330000000000    0.6423200000000000 O
   0.1453870000000000    0.8404810000000000    0.6418800000000000 O
   0.6055930000000000    0.8924299999999999    0.6602110000000000 O
   0.3944070000000000    0.3924300000000000    0.8397890000000000 O
   0.8546130000000000    0.3404810000000000    0.8581200000000000 O
   0.8895530000000000    0.7712329999999999    0.8576800000000000 O
   0.3507790000000000    0.7809440000000000    0.9283850000000000 O
   0.7440200000000000    0.6046270000000000    0.9983330000000000 O
   0.2559800000000000    0.3953730000000000    0.0016670000000000 O
   0.6492210000000000    0.2190560000000000    0.0716150000000000 O
   0.1104470000000000    0.2287670000000000    0.1423200000000000 O
   0.1453870000000000    0.6595190000000000    0.1418800000000000 O
   0.6055930000000000    0.6075700000000001    0.1602110000000000 O
   0.3944070000000000    0.1075700000000000    0.3397890000000000 O
   0.8546130000000000    0.1595190000000000    0.3581200000000000 O
   0.8895530000000000    0.7287670000000001    0.3576800000000000 O
   0.3507790000000000    0.7190560000000000    0.4283850000000000 O
   0.2559800000000000    0.1046270000000000    0.5016670000000000 O
