Nb2 Sb6 O16
1.0
   4.9081662799999997    0.0000000000000000    0.0122929700000000
   0.0000000000000000    5.5269456100000003    0.0000000000000000
  -4.8166272899999996    0.0000000000000000   11.8063584099999996
Nb Sb O
2 6 16
direct
   0.0712039300000000    0.6192740799999999    0.5727707900000000 Nb
   0.0712039300000000    0.3807259200000000    0.0727707900000000 Nb
   0.5648975800000000    0.8803844900000000    0.0697904300000000 Sb
   0.5648975800000000    0.1196155100000000    0.5697904300000000 Sb
   0.3632918400000000    0.2258474200000000    0.8223490200000000 Sb
   0.7812607000000000    0.2791473400000000    0.3198725600000000 Sb
   0.3632918400000000    0.7741525800000000    0.3223490200000000 Sb
   0.7812607000000000    0.7208526600000000    0.8198725600000000 Sb
   0.5775762300000000    0.8992834900000000    0.9110762600000000 O
   0.7474181700000000    0.5997488300000000    0.4120672800000000 O
   0.5775762300000000    0.1007165100000000    0.4110762600000000 O
   0.7474181700000000    0.4002511700000000    0.9120672800000000 O
   0.5606029700000000    0.9383271900000000    0.2247870300000000 O
   0.3877450200000000    0.5635185600000000    0.7246478300000000 O
   0.5606029700000000    0.0616728100000000    0.7247870300000000 O
   0.3877450200000000    0.4364814400000000    0.2246478300000000 O
   0.9107245100000000    0.1005628000000000    0.1211599000000000 O
   0.8301572600000000    0.3950023100000000    0.6254599400000000 O
   0.9107245100000000    0.8994372000000000    0.6211599000000000 O
   0.8301572600000000    0.6049976900000000    0.1254599400000000 O
   0.3172047300000000    0.1732291000000000    0.0121578600000000 O
   0.2139180700000000    0.3263882000000000    0.5098620900000000 O
   0.3172047300000000    0.8267709000000000    0.5121578600000000 O
   0.2139180700000000    0.6736118000000000    0.0098620900000000 O
