Na4 Cd6 Si6 O20
1.0
   8.2871837500000005   -2.5513656400000002    0.0319847800000000
   8.2871837500000005    2.5513656400000002    0.0319847800000000
  -0.8173608900000000    0.0000000000000000   10.9453002200000000
Na Cd Si O
4 6 6 20
direct
   0.8122084700000000    0.2840994700000000    0.9671447900000000 Na
   0.7159005300000000    0.1877915300000000    0.5328552100000000 Na
   0.1877915300000000    0.7159005300000000    0.0328552100000000 Na
   0.2840994700000000    0.8122084700000000    0.4671447900000000 Na
   0.6302682600000000    0.0550385900000000    0.7940894800000000 Cd
   0.9449614100000000    0.3697317400000000    0.7059105200000000 Cd
   0.3697317400000000    0.9449614100000000    0.2059105200000000 Cd
   0.0550385900000000    0.6302682600000000    0.2940894800000000 Cd
   0.0000000000000000    0.5000000000000000    0.0000000000000000 Cd
   0.5000000000000000    0.0000000000000000    0.5000000000000000 Cd
   0.4607508300000000    0.8411551600000000    0.8989631100000000 Si
   0.1588448400000000    0.5392491700000001    0.6010368900000000 Si
   0.5392491700000001    0.1588448400000000    0.1010368900000000 Si
   0.8411551600000000    0.4607508300000000    0.3989631100000000 Si
   0.1852785900000000    0.8147214100000000    0.7500000000000000 Si
   0.8147214100000000    0.1852785900000000    0.2500000000000000 Si
   0.1477863700000000    0.1646475300000000    0.8960769400000000 O
   0.8353524700000000    0.8522136300000001    0.6039230600000000 O
   0.8522136300000001    0.8353524700000000    0.1039230600000000 O
   0.1646475300000000    0.1477863700000000    0.3960769400000000 O
   0.6887319900000000    0.7535584500000000    0.8287265000000000 O
   0.2464415500000000    0.3112680100000000    0.6712735000000000 O
   0.3112680100000000    0.2464415500000000    0.1712735000000000 O
   0.7535584500000000    0.6887319900000000    0.3287265000000000 O
   0.4584488200000000    0.6665228700000000    0.8262910100000000 O
   0.3334771300000000    0.5415511800000000    0.6737089900000000 O
   0.5415511800000000    0.3334771300000000    0.1737089900000000 O
   0.6665228700000000    0.4584488200000000    0.3262910100000000 O
   0.9704998200000000    0.9386293600000000    0.8499407000000000 O
   0.0613706400000000    0.0295001800000000    0.6500593000000000 O
   0.0295001800000000    0.0613706400000000    0.1500593000000000 O
   0.9386293600000000    0.9704998200000000    0.3499407000000000 O
   0.2954655000000000    0.4085444000000000    0.4657879800000000 O
   0.5914556000000000    0.7045345000000000    0.0342120200000000 O
   0.7045345000000000    0.5914556000000000    0.5342120200000000 O
   0.4085444000000000    0.2954655000000000    0.9657879800000000 O
