Ba2 Be4 B4 O12
1.0
   0.0000000000000000    5.8567553099999996    6.5155366800000003
   3.1392023400000002    0.0000000000000000    6.5155366800000003
   3.1392023400000002    5.8567553099999996    0.0000000000000000
Ba Be B O
2 4 4 12
direct
   0.2500000000000000    0.2500000000000000    0.2500000000000000 Ba
   0.0000000000000000    0.0000000000000000    0.0000000000000000 Ba
   0.4077383000000000    0.4077383000000000    0.5922617000000000 Be
   0.8422617000000000    0.8422617000000000    0.6577383000000000 Be
   0.6577383000000000    0.6577383000000000    0.8422617000000000 Be
   0.5922617000000000    0.5922617000000000    0.4077383000000000 Be
   0.2843983600000000    0.7156016400000000    0.2843983600000000 B
   0.5343983600000000    0.9656016400000000    0.5343983600000000 B
   0.7156016400000000    0.2843983600000000    0.7156016400000000 B
   0.9656016400000000    0.5343983600000000    0.9656016400000000 B
   0.5977740499999999    0.4022259500000000    0.5977740499999999 O
   0.1560069100000000    0.5221123800000000    0.8923145300000001 O
   0.7278876200000000    0.0939930900000000    0.8204338200000000 O
   0.4295661800000000    0.8923145300000001    0.5221123800000000 O
   0.0939930900000000    0.7278876200000000    0.3576854700000000 O
   0.8923145300000001    0.4295661800000000    0.1560069100000000 O
   0.4022259500000000    0.5977740499999999    0.4022259500000000 O
   0.8477740499999999    0.6522259500000001    0.8477740499999999 O
   0.8204338200000000    0.3576854700000000    0.7278876200000000 O
   0.3576854700000000    0.8204338200000000    0.0939930900000000 O
   0.6522259500000001    0.8477740499999999    0.6522259500000001 O
   0.5221123800000000    0.1560069100000000    0.4295661800000000 O
