Cs4 Ti2 Cu4 Se8
1.0
   5.8346770499999998    0.0000000000000000    0.0000000000000000
   0.0000000000000000    5.8346770499999998    0.0000000000000000
   0.0000000000000000    0.0000000000000000   14.1389166700000004
Cs Ti Cu Se
4 2 4 8
direct
   0.7574299600000000    0.7574299600000000    0.0000000000000000 Cs
   0.2425700400000000    0.7574299600000000    0.5000000000000000 Cs
   0.7574299600000000    0.2425700400000000    0.5000000000000000 Cs
   0.2425700400000000    0.2425700400000000    0.0000000000000000 Cs
   0.5000000000000000    0.5000000000000000    0.2500000000000000 Ti
   0.5000000000000000    0.5000000000000000    0.7500000000000000 Ti
   0.0000000000000000    0.5000000000000000    0.7500000000000000 Cu
   0.5000000000000000    0.0000000000000000    0.7500000000000000 Cu
   0.5000000000000000    0.0000000000000000    0.2500000000000000 Cu
   0.0000000000000000    0.5000000000000000    0.2500000000000000 Cu
   0.7439373800000000    0.2560626200000000    0.1555784400000000 Se
   0.7439373800000000    0.7439373800000000    0.3444215600000000 Se
   0.2560626200000000    0.2560626200000000    0.6555784400000000 Se
   0.7439373800000000    0.7439373800000000    0.6555784400000000 Se
   0.2560626200000000    0.2560626200000000    0.3444215600000000 Se
   0.7439373800000000    0.2560626200000000    0.8444215600000000 Se
   0.2560626200000000    0.7439373800000000    0.8444215600000000 Se
   0.2560626200000000    0.7439373800000000    0.1555784400000000 Se
