Na8 Ti2 P4 O18
1.0
   3.5186557700000001   -7.7216513200000003    0.0000000000000000
   3.5186557700000001    7.7216513200000003    0.0000000000000000
   0.0000000000000000    0.0000000000000000    7.5713070499999997
Na Ti P O
8 2 4 18
direct
   0.0000000000000000    0.5000000000000000    0.0000000000000000 Na
   0.5000000000000000    0.0000000000000000    0.0000000000000000 Na
   0.2500000000000000    0.2500000000000000    0.5000000000000000 Na
   0.7500000000000000    0.7500000000000000    0.5000000000000000 Na
   0.8833633200000000    0.1166366800000000    0.2339220700000000 Na
   0.1166366800000000    0.8833633200000000    0.7660779300000000 Na
   0.3833633200000000    0.6166366800000000    0.7660779300000000 Na
   0.6166366800000000    0.3833633200000000    0.2339220700000000 Na
   0.0000000000000000    0.5000000000000000    0.5000000000000000 Ti
   0.5000000000000000    0.0000000000000000    0.5000000000000000 Ti
   0.3827088800000000    0.6172911200000000    0.2392228900000000 P
   0.6172911200000000    0.3827088800000000    0.7607771100000000 P
   0.8827088800000000    0.1172911200000000    0.7607771100000000 P
   0.1172911200000000    0.8827088800000000    0.2392228900000000 P
   0.3555776200000000    0.6444223800000000    0.0456807300000000 O
   0.6444223800000000    0.3555776200000000    0.9543192700000001 O
   0.8555776200000000    0.1444223800000000    0.9543192700000001 O
   0.1444223800000000    0.8555776200000000    0.0456807300000000 O
   0.8416565600000000    0.5270356200000000    0.6743697900000000 O
   0.5270356200000000    0.8416565600000000    0.3256302100000000 O
   0.9729643800000000    0.6583434400000000    0.3256302100000000 O
   0.6583434400000000    0.9729643800000000    0.6743697900000000 O
   0.1583434400000000    0.4729643800000000    0.3256302100000000 O
   0.4729643800000000    0.1583434400000000    0.6743697900000000 O
   0.0270356200000000    0.3416565600000000    0.6743697900000000 O
   0.3416565600000000    0.0270356200000000    0.3256302100000000 O
   0.4785752400000000    0.5214247600000000    0.2877564800000000 O
   0.5214247600000000    0.4785752400000000    0.7122435200000000 O
   0.9785752400000000    0.0214247600000000    0.7122435200000000 O
   0.0214247600000000    0.9785752400000000    0.2877564800000000 O
   0.2500000000000000    0.7500000000000000    0.5980871200000000 O
   0.7500000000000000    0.2500000000000000    0.4019128800000000 O
