Sr2 Li4 Ta4 O14
1.0
   9.0534225999999993   -2.8047217799999999    0.0000000000000000
   9.0534225999999993    2.8047217799999999    0.0000000000000000
   0.0000000000000000    0.0000000000000000    5.5991699600000002
Sr Li Ta O
2 4 4 14
direct
   0.2547693600000000    0.7452306400000001    0.7500000000000000 Sr
   0.7452306400000001    0.2547693600000000    0.2500000000000000 Sr
   0.2598776600000000    0.2598776600000000    0.0000000000000000 Li
   0.7401223400000000    0.7401223400000000    0.0000000000000000 Li
   0.7401223400000000    0.7401223400000000    0.5000000000000000 Li
   0.2598776600000000    0.2598776600000000    0.5000000000000000 Li
   0.3612367400000000    0.8678701599999999    0.2500000000000000 Ta
   0.1321298400000000    0.6387632600000001    0.2500000000000000 Ta
   0.8678701599999999    0.3612367400000000    0.7500000000000000 Ta
   0.6387632600000001    0.1321298400000000    0.7500000000000000 Ta
   0.0938960600000000    0.0938960600000000    0.5000000000000000 O
   0.5646402400000000    0.9993096800000000    0.7500000000000000 O
   0.3847036500000000    0.3847036500000000    0.5000000000000000 O
   0.0938960600000000    0.0938960600000000    0.0000000000000000 O
   0.0006903200000000    0.4353597600000000    0.7500000000000000 O
   0.9061039400000001    0.9061039400000001    0.5000000000000000 O
   0.3847036500000000    0.3847036500000000    0.0000000000000000 O
   0.6152963500000000    0.6152963500000000    0.0000000000000000 O
   0.9061039400000001    0.9061039400000001    0.0000000000000000 O
   0.9993096800000000    0.5646402400000000    0.2500000000000000 O
   0.2953994300000000    0.7046005700000000    0.2500000000000000 O
   0.4353597600000000    0.0006903200000000    0.2500000000000000 O
   0.6152963500000000    0.6152963500000000    0.5000000000000000 O
   0.7046005700000000    0.2953994300000000    0.7500000000000000 O
