Na6 P2 S6 O2
1.0
   4.7134813199999996   -5.7355402199999999    0.0000000000000000
   4.7134813199999996    5.7355402199999999    0.0000000000000000
   0.0000000000000000    0.0000000000000000    5.8566934200000000
Na P S O
6 2 6 2
direct
   0.9151015100000000    0.6810866500000000    0.2557858500000000 Na
   0.6319501600000000    0.3680498400000000    0.7044386900000000 Na
   0.3680498400000000    0.6319501600000000    0.2044386900000000 Na
   0.3189133500000000    0.0848984900000000    0.2557858500000000 Na
   0.0848984900000000    0.3189133500000000    0.7557858500000000 Na
   0.6810866500000000    0.9151015100000000    0.7557858500000000 Na
   0.7940823800000000    0.2059176200000000    0.1448022500000000 P
   0.2059176200000000    0.7940823800000000    0.6448022500000000 P
   0.0481300300000000    0.3138117300000000    0.2735710900000000 S
   0.6179948199999999    0.3820051800000000    0.2276266100000000 S
   0.3820051800000000    0.6179948199999999    0.7276266100000000 S
   0.9518699700000000    0.6861882700000000    0.7735710900000000 S
   0.6861882700000000    0.9518699700000000    0.2735710900000000 S
   0.3138117300000000    0.0481300300000000    0.7735710900000000 S
   0.8044530400000000    0.1955469600000000    0.8825175800000000 O
   0.1955469600000000    0.8044530400000000    0.3825175800000000 O
