Ba2 Te4 O12
1.0
   2.7959971700000001   -6.4142120699999996    0.0000000000000000
   2.7959971700000001    6.4142120699999996    0.0000000000000000
   0.0000000000000000    0.0000000000000000    7.3872377000000000
Ba Te O
2 4 12
direct
   0.7211008800000001    0.2788991200000000    0.7500000000000000 Ba
   0.2788991200000000    0.7211008800000001    0.2500000000000000 Ba
   0.0000000000000000    0.0000000000000000    0.0000000000000000 Te
   0.0000000000000000    0.0000000000000000    0.5000000000000000 Te
   0.5845735500000000    0.4154264500000000    0.2500000000000000 Te
   0.4154264500000000    0.5845735500000000    0.7500000000000000 Te
   0.8692647200000000    0.6557574500000000    0.0449354700000000 O
   0.6557574500000000    0.8692647200000000    0.9550645300000000 O
   0.1307352800000000    0.3442425500000000    0.5449354700000000 O
   0.3442425500000000    0.1307352800000000    0.4550645300000000 O
   0.1307352800000000    0.3442425500000000    0.9550645300000000 O
   0.3442425500000000    0.1307352800000000    0.0449354700000000 O
   0.0491649100000000    0.9508350900000000    0.7500000000000000 O
   0.9508350900000000    0.0491649100000000    0.2500000000000000 O
   0.2715829400000000    0.7284170599999999    0.7500000000000000 O
   0.7284170599999999    0.2715829400000000    0.2500000000000000 O
   0.6557574500000000    0.8692647200000000    0.5449354700000000 O
   0.8692647200000000    0.6557574500000000    0.4550645300000000 O
