Li4 Mg4 P4 O16
1.0
  10.1389843699999993    0.0000000000000000    0.0000000000000000
   0.0000000000000000    5.8923000600000002    0.0000000000000000
   0.0000000000000000    0.0000000000000000    4.6841734700000002
Li Mg P O
4 4 4 16
direct
   0.0000000000000000    0.0000000000000000    0.0000000000000000 Li
   0.5000000000000000    0.0000000000000000    0.5000000000000000 Li
   0.0000000000000000    0.5000000000000000    0.0000000000000000 Li
   0.5000000000000000    0.5000000000000000    0.5000000000000000 Li
   0.7226473000000000    0.7500000000000000    0.0165553400000000 Mg
   0.2773527000000000    0.2500000000000000    0.9834446600000000 Mg
   0.2226473000000000    0.7500000000000000    0.4834446600000000 Mg
   0.7773527000000000    0.2500000000000000    0.5165553400000000 Mg
   0.5944375800000000    0.2500000000000000    0.0818221400000000 P
   0.0944375800000000    0.2500000000000000    0.4181778600000000 P
   0.4055624200000000    0.7500000000000000    0.9181778600000000 P
   0.9055624200000000    0.7500000000000000    0.5818221400000000 P
   0.3336346900000000    0.5424930900000000    0.7796863400000000 O
   0.6663653100000000    0.4575069100000000    0.2203136600000000 O
   0.8336346900000000    0.5424930900000000    0.7203136600000000 O
   0.3336346900000000    0.9575069100000000    0.7796863400000000 O
   0.1663653100000000    0.0424930900000000    0.2796863400000000 O
   0.1004125700000000    0.2500000000000000    0.7451465900000001 O
   0.1663653100000000    0.4575069100000000    0.2796863400000000 O
   0.6663653100000000    0.0424930900000000    0.2203136600000000 O
   0.8995874300000000    0.7500000000000000    0.2548534100000000 O
   0.6004125700000000    0.2500000000000000    0.7548534099999999 O
   0.5479825600000000    0.7500000000000000    0.7992780700000000 O
   0.3995874300000000    0.7500000000000000    0.2451465900000000 O
   0.0479825600000000    0.7500000000000000    0.7007219300000000 O
   0.9520174400000000    0.2500000000000000    0.2992780700000000 O
   0.4520174400000000    0.2500000000000000    0.2007219300000000 O
   0.8336346900000000    0.9575069100000000    0.7203136600000000 O
