Sr1 Bi6 P4 O20
1.0
   6.9580249700000003    0.0185199500000000   -0.0354347600000000
  -2.8720600400000000    7.0475960500000001    0.0155990600000000
  -0.5449023700000000   -3.1089385599999999    8.5390669999999993
Sr Bi P O
1 6 4 20
direct
   0.0000000000000000    0.5000000000000000    0.0000000000000000 Sr
   0.1895409900000000    0.1976853800000000    0.6704633100000000 Bi
   0.5627385900000000    0.7098229700000001    0.9124822299999999 Bi
   0.3297707100000000    0.6274002000000000    0.5049539100000000 Bi
   0.8104590100000000    0.8023146200000000    0.3295366900000000 Bi
   0.4372614100000000    0.2901770300000000    0.0875177700000000 Bi
   0.6702292900000000    0.3725998000000000    0.4950460900000000 Bi
   0.0496495600000000    0.7702931600000000    0.7552792400000000 P
   0.6530686600000000    0.1002472900000000    0.7414284400000000 P
   0.9503504400000000    0.2297068400000000    0.2447207600000000 P
   0.3469313400000000    0.8997527100000000    0.2585715600000000 P
   0.3510586000000000    0.8277524000000001    0.0824688600000000 O
   0.4465494500000000    0.4729414700000000    0.6376286300000000 O
   0.8697653900000000    0.2400180300000000    0.7187773800000000 O
   0.2178157900000000    0.6808552000000000    0.7579544000000000 O
   0.6276355600000000    0.8781923400000000    0.6844252000000000 O
   0.8759304200000000    0.6687327199999999    0.8383837600000000 O
   0.8516779700000000    0.9972026600000000    0.1667206300000000 O
   0.3172045400000000    0.4088580800000000    0.9041409200000000 O
   0.1240695800000000    0.3312672800000000    0.1616162400000000 O
   0.5231530800000000    0.8803556400000000    0.3579933600000000 O
   0.3723644400000000    0.1218076600000000    0.3155748000000000 O
   0.6827954600000000    0.5911419200000000    0.0958590800000000 O
   0.9558562700000000    0.7117717500000000    0.5782836500000000 O
   0.1483220300000000    0.0027973400000000    0.8332793700000000 O
   0.1302346100000000    0.7599819700000000    0.2812226200000000 O
   0.5534505500000000    0.5270585300000000    0.3623713700000000 O
   0.6489414000000000    0.1722476000000000    0.9175311400000000 O
   0.7821842100000000    0.3191448000000000    0.2420456000000000 O
   0.4768469200000000    0.1196443600000000    0.6420066400000000 O
   0.0441437300000000    0.2882282500000000    0.4217163500000000 O
