Rb4 V4 O12
1.0
   5.2888421599999997    0.0000000000000000    0.0000000000000000
   0.0000000000000000   11.3082481599999998    0.0000000000000000
   0.0000000000000000    0.0000000000000000    5.7467273800000003
Rb V O
4 4 12
direct
   0.9309102299999999    0.1015316900000000    0.7500000000000000 Rb
   0.9309102299999999    0.3984683100000000    0.2500000000000000 Rb
   0.0690897700000000    0.8984683100000000    0.2500000000000000 Rb
   0.0690897700000000    0.6015316900000000    0.7500000000000000 Rb
   0.4673248400000000    0.3350819600000000    0.7500000000000000 V
   0.4673248400000000    0.1649180400000000    0.2500000000000000 V
   0.5326751600000000    0.6649180400000000    0.2500000000000000 V
   0.5326751600000000    0.8350819600000000    0.7500000000000000 V
   0.4282610300000000    0.7500000000000000    0.5000000000000000 O
   0.5717389700000000    0.2500000000000000    0.0000000000000000 O
   0.5717389700000000    0.2500000000000000    0.5000000000000000 O
   0.4282610300000000    0.7500000000000000    0.0000000000000000 O
   0.6032915300000000    0.4666792000000000    0.7500000000000000 O
   0.6032915300000000    0.0333208000000000    0.2500000000000000 O
   0.3967084700000000    0.5333208000000000    0.2500000000000000 O
   0.3967084700000000    0.9666792000000000    0.7500000000000000 O
   0.8458698300000000    0.8497480500000000    0.7500000000000000 O
   0.8458698300000000    0.6502519500000000    0.2500000000000000 O
   0.1541301700000000    0.1502519500000000    0.2500000000000000 O
   0.1541301700000000    0.3497480500000000    0.7500000000000000 O
