Sr3 V2 O8
1.0
   2.7959466700000002    1.6142409400000000    6.6958312500000003
  -2.7959466700000002    1.6142409400000000    6.6958312500000003
   0.0000000000000000   -3.2284809000000001    6.6958312500000003
Sr V O
3 2 8
direct
   0.2019833700000000    0.2019833700000000    0.2019833700000000 Sr
   0.7980166300000000    0.7980166300000000    0.7980166300000000 Sr
   0.0000000000000000    0.0000000000000000    0.0000000000000000 Sr
   0.4062038200000000    0.4062038200000000    0.4062038200000000 V
   0.5937961800000000    0.5937961800000000    0.5937961800000000 V
   0.2673841700000000    0.2673841700000000    0.7708895900000000 O
   0.2673841700000000    0.7708895900000000    0.2673841700000000 O
   0.7708895900000000    0.2673841700000000    0.2673841700000000 O
   0.7326158300000000    0.7326158300000000    0.2291104100000000 O
   0.7326158300000000    0.2291104100000000    0.7326158300000000 O
   0.6788109400000000    0.6788109400000000    0.6788109400000000 O
   0.3211890600000000    0.3211890600000000    0.3211890600000000 O
   0.2291104100000000    0.7326158300000000    0.7326158300000000 O
