Li2 Ge1 Te1 O6
1.0
   2.5217079999999998    1.4559088899999999    4.7886054400000004
  -2.5217079899999999    1.4559088899999999    4.7886054400000004
  -0.0000000000000000   -2.9118177799999998    4.7886054400000004
Li Ge Te O
2 1 1 6
direct
   0.8692965200000000    0.8692965200000000    0.8692965200000000 Li
   0.1332835800000000    0.1332835800000000    0.1332835800000000 Li
   0.3399232100000000    0.3399232100000000    0.3399232100000000 Ge
   0.6595649200000000    0.6595649200000000    0.6595649200000000 Te
   0.9379227700000000    0.5484492700000000    0.2841529000000000 O
   0.2841529000000000    0.9379227700000000    0.5484492700000000 O
   0.5484492700000000    0.2841529000000000    0.9379227700000000 O
   0.0660744700000000    0.4470847300000000    0.7101476300000000 O
   0.7101476300000000    0.0660744700000000    0.4470847300000000 O
   0.4470847300000000    0.7101476300000000    0.0660744700000000 O
