Mg2 As2 O7
1.0
   3.2367944199999998   -4.3080061900000004    0.0156613000000000
   3.2367944199999998    4.3080061900000004    0.0156613000000000
  -1.0624219399999999    0.0000000000000000    4.6816186000000002
Mg As O
2 2 7
direct
   0.3097552700000000    0.6902447300000000    0.5000000000000000 Mg
   0.6902447300000000    0.3097552700000000    0.5000000000000000 Mg
   0.2406746700000000    0.2406746700000000    0.8978570100000000 As
   0.7593253300000000    0.7593253300000000    0.1021429900000000 As
   0.0697187100000000    0.4017925400000000    0.7069498100000000 O
   0.5982074600000000    0.9302812900000000    0.2930501900000000 O
   0.9302812900000000    0.5982074600000000    0.2930501900000000 O
   0.4017925400000000    0.0697187100000000    0.7069498100000000 O
   0.0000000000000000    0.0000000000000000    0.0000000000000000 O
   0.4091902600000000    0.4091902600000000    0.2262317800000000 O
   0.5908097400000000    0.5908097400000000    0.7737682200000000 O
