Li16 Ge4 S16
1.0
  14.0612263199999994    0.0000000000000000    0.0000000000000000
   0.0000000000000000    7.7245933300000003    0.0000000000000000
   0.0000000000000000    0.0000000000000000    6.0912841300000000
Li Ge S
16 4 16
direct
   0.5869005600000000    0.2500000000000000    0.6284114700000000 Li
   0.9130994400000000    0.7500000000000000    0.1284114700000000 Li
   0.4130994400000000    0.7500000000000000    0.3715885300000000 Li
   0.0869005600000000    0.2500000000000000    0.8715885300000000 Li
   0.8226024400000000    0.0001652600000000    0.6905432400000000 Li
   0.6773975600000000    0.9998347400000001    0.1905432400000000 Li
   0.1773975600000000    0.5001652599999999    0.3094567600000000 Li
   0.3226024400000000    0.4998347400000000    0.8094567600000000 Li
   0.1773975600000000    0.9998347400000001    0.3094567600000000 Li
   0.3226024400000000    0.0001652600000000    0.8094567600000000 Li
   0.8226024400000000    0.4998347400000000    0.6905432400000000 Li
   0.6773975600000000    0.5001652599999999    0.1905432400000000 Li
   0.0000000000000000    0.0000000000000000    0.5000000000000000 Li
   0.5000000000000000    0.0000000000000000    0.0000000000000000 Li
   0.0000000000000000    0.5000000000000000    0.5000000000000000 Li
   0.5000000000000000    0.5000000000000000    0.0000000000000000 Li
   0.0887481100000000    0.7500000000000000    0.8527439200000000 Ge
   0.9112518900000000    0.2500000000000000    0.1472560800000000 Ge
   0.5887481100000000    0.7500000000000000    0.6472560800000000 Ge
   0.4112518900000000    0.2500000000000000    0.3527439200000000 Ge
   0.0626436500000000    0.2500000000000000    0.2713736700000000 S
   0.5626436500000001    0.2500000000000000    0.2286263300000000 S
   0.4373563500000000    0.7500000000000000    0.7713736700000000 S
   0.9373563499999999    0.7500000000000000    0.7286263300000000 S
   0.6565727700000000    0.9879937100000000    0.7813578300000000 S
   0.8434272300000000    0.0120062900000000    0.2813578300000000 S
   0.3434272300000000    0.4879937100000000    0.2186421700000000 S
   0.1565727700000000    0.5120062900000000    0.7186421700000000 S
   0.3434272300000000    0.0120062900000000    0.2186421700000000 S
   0.1565727700000000    0.9879937100000000    0.7186421700000000 S
   0.6565727700000000    0.5120062900000000    0.7813578300000000 S
   0.8434272300000000    0.4879937100000000    0.2813578300000000 S
   0.9153554000000000    0.2500000000000000    0.7820688500000000 S
   0.5846446000000000    0.7500000000000000    0.2820688500000000 S
   0.0846446000000000    0.7500000000000000    0.2179311500000000 S
   0.4153554000000000    0.2500000000000000    0.7179311500000000 S
