Sr4 B8 S16
1.0
   6.4399355900000002    0.0000000000000000   -0.0378731000000000
   0.0000000000000000   14.0852044900000006    0.0000000000000000
  -2.0548828000000001    0.0000000000000000    5.7033685700000003
Sr B S
4 8 16
direct
   0.6887578000000000    0.3967743600000000    0.3012688700000000 Sr
   0.3112422000000000    0.8967743600000000    0.1987311300000000 Sr
   0.3112422000000000    0.6032256400000000    0.6987311300000000 Sr
   0.6887578000000000    0.1032256400000000    0.8012688700000000 Sr
   0.0339528000000000    0.4162051800000000    0.9290727100000000 B
   0.9660472000000000    0.9162051800000000    0.5709272900000000 B
   0.9660472000000000    0.5837948200000000    0.0709272900000000 B
   0.0339528000000000    0.0837948200000000    0.4290727100000000 B
   0.7698357400000000    0.7272962500000000    0.3224214600000000 B
   0.2301642600000000    0.2272962500000000    0.1775785400000000 B
   0.2301642600000000    0.2727037500000000    0.6775785400000000 B
   0.7698357400000000    0.7727037500000000    0.8224214600000000 B
   0.7653192100000000    0.4928469600000000    0.8546574900000000 S
   0.5828356000000000    0.7384677900000000    0.5080220900000000 S
   0.5828356000000000    0.7615322100000000    0.0080220900000000 S
   0.4171644000000000    0.2384677900000000    0.9919779100000000 S
   0.1307367200000000    0.0985874800000000    0.1668499500000000 S
   0.8692632800000000    0.5985874799999999    0.3331500500000000 S
   0.8692632800000000    0.9014125200000001    0.8331500500000000 S
   0.1307367200000000    0.4014125200000000    0.6668499500000000 S
   0.9698303500000000    0.1968184300000000    0.5564333200000000 S
   0.0301696500000000    0.6968184300000000    0.9435666800000000 S
   0.0301696500000000    0.8031815700000000    0.4435666800000000 S
   0.9698303500000000    0.3031815700000000    0.0564333200000000 S
   0.2346807900000000    0.5071530400000001    0.1453425100000000 S
   0.7653192100000000    0.0071530400000000    0.3546574900000000 S
   0.4171644000000000    0.2615322100000000    0.4919779100000000 S
   0.2346807900000000    0.9928469599999999    0.6453425100000000 S
