Tl2 P2 Au2 Se6
1.0
   6.0134734999999999   -3.5506521400000000   -0.0062780800000000
   6.0134734999999999    3.5506521400000000   -0.0062780800000000
  -4.5087642600000004    0.0000000000000000    7.0467532799999999
Tl P Au Se
2 2 2 6
direct
   0.2860395100000000    0.2860395100000000    0.2215793300000000 Tl
   0.7139604899999999    0.7139604899999999    0.7784206700000000 Tl
   0.0356414700000000    0.0356414700000000    0.6542646700000000 P
   0.9643585300000000    0.9643585300000000    0.3457353300000000 P
   0.2251409000000000    0.7748591000000000    0.0000000000000000 Au
   0.7748591000000000    0.2251409000000000    0.0000000000000000 Au
   0.7496925700000000    0.7496925700000000    0.1791339600000000 Se
   0.8024368800000000    0.3198448700000000    0.3267412000000000 Se
   0.2503074300000000    0.2503074300000000    0.8208660400000000 Se
   0.1975631200000000    0.6801551300000001    0.6732588000000000 Se
   0.3198448700000000    0.8024368800000000    0.3267412000000000 Se
   0.6801551300000001    0.1975631200000000    0.6732588000000000 Se
