Li12 Nb4 S16
1.0
  -5.1205101400000004    5.1205101400000004    5.1205101400000004
   5.1205101400000004   -5.1205101400000004    5.1205101400000004
   5.1205101400000004    5.1205101400000004   -5.1205101400000004
Li Nb S
12 4 16
direct
   0.0000000000000000    0.5042772599999999    0.2421804100000000 Li
   0.5042772599999999    0.0000000000000000    0.2421804100000000 Li
   0.7578195900000000    0.2620968500000000    0.7578195900000000 Li
   0.7379031500000000    0.4957227400000000    0.4957227400000000 Li
   0.7578195900000000    0.7578195900000000    0.2620968500000000 Li
   0.2421804100000000    0.5042772599999999    0.0000000000000000 Li
   0.4957227400000000    0.4957227400000000    0.7379031500000000 Li
   0.5042772599999999    0.2421804100000000    0.0000000000000000 Li
   0.0000000000000000    0.2421804100000000    0.5042772599999999 Li
   0.4957227400000000    0.7379031500000000    0.4957227400000000 Li
   0.2421804100000000    0.0000000000000000    0.5042772599999999 Li
   0.2620968500000000    0.7578195900000000    0.7578195900000000 Li
   0.7209005800000000    0.0000000000000000    0.0000000000000000 Nb
   0.2790994200000000    0.2790994200000000    0.2790994200000000 Nb
   0.0000000000000000    0.7209005800000000    0.0000000000000000 Nb
   0.0000000000000000    0.0000000000000000    0.7209005800000000 Nb
   0.7591580100000000    0.2465176800000000    0.2465176800000000 S
   0.7534823200000000    0.5126403300000000    0.0000000000000000 S
   0.2304539600000000    0.0000000000000000    0.0000000000000000 S
   0.0000000000000000    0.2304539600000000    0.0000000000000000 S
   0.0000000000000000    0.0000000000000000    0.2304539600000000 S
   0.4873596700000000    0.4873596700000000    0.2408419900000000 S
   0.4873596700000000    0.2408419900000000    0.4873596700000000 S
   0.5126403300000000    0.0000000000000000    0.7534823200000000 S
   0.0000000000000000    0.5126403300000000    0.7534823200000000 S
   0.2408419900000000    0.4873596700000000    0.4873596700000000 S
   0.2465176800000000    0.7591580100000000    0.2465176800000000 S
   0.7534823200000000    0.0000000000000000    0.5126403300000000 S
   0.2465176800000000    0.2465176800000000    0.7591580100000000 S
   0.7695460400000000    0.7695460400000000    0.7695460400000000 S
   0.5126403300000000    0.7534823200000000    0.0000000000000000 S
   0.0000000000000000    0.7534823200000000    0.5126403300000000 S
