La4 C2 O10
1.0
  15.9037764500000005    0.0000000000000000    0.0000000000000000
   0.0000000000000000    3.4689160800000001    2.0375781399999999
   0.0000000000000000   -3.4689160800000001    2.0375781399999999
La C O
4 2 10
direct
   0.4049931800000000    0.6619251600000000    0.3276728900000000 La
   0.5950068200000000    0.3276728900000000    0.6619251600000000 La
   0.9049931800000000    0.3276728900000000    0.6619251600000000 La
   0.0950068200000000    0.6619251600000000    0.3276728900000000 La
   0.2500000000000000    0.1417107200000000    0.0699522700000000 C
   0.7500000000000000    0.0699522700000000    0.1417107200000000 C
   0.3220108000000000    0.9669477100000000    0.9798202200000000 O
   0.6779892000000000    0.9798202200000000    0.9669477100000000 O
   0.8220108000000000    0.9798202200000000    0.9669477100000000 O
   0.1779892000000000    0.9669477100000000    0.9798202200000000 O
   0.9434696900000000    0.6614302800000000    0.3262010400000000 O
   0.0565303100000000    0.3262010400000000    0.6614302800000000 O
   0.4434696900000000    0.3262010400000000    0.6614302800000000 O
   0.5565303100000000    0.6614302800000000    0.3262010400000000 O
   0.2500000000000000    0.5068126600000000    0.2587697200000000 O
   0.7500000000000000    0.2587697200000000    0.5068126600000000 O
