Ge6 S12
1.0
   0.0000000000000000   11.2731995299999994    3.5377216699999998
   5.8528826299999999    0.0000000000000000    3.5377216699999998
   5.8528826299999999   11.2731995299999994    0.0000000000000000
Ge S
6 12
direct
   0.2660572500000000    0.7380376800000000    0.0100327200000000 Ge
   0.2399672800000000    0.2641276500000000    0.9839427500000000 Ge
   0.2641276500000000    0.2399672800000000    0.5119623200000000 Ge
   0.7380376800000000    0.2660572500000000    0.9858723500000000 Ge
   0.2415018600000000    0.2415018600000000    0.2584981400000000 Ge
   0.9915018600000000    0.9915018600000000    0.0084981400000000 Ge
   0.0175523500000000    0.0738214200000000    0.3331146800000000 S
   0.9168853200000000    0.6744884500000000    0.2324476500000000 S
   0.2193846500000000    0.5818537200000000    0.2402484200000000 S
   0.0097515800000000    0.2914867900000000    0.0306153500000000 S
   0.0738214200000000    0.0175523500000000    0.5755115500000000 S
   0.6744884500000000    0.9168853200000000    0.1761785800000000 S
   0.4829248100000000    0.6151502500000000    0.7604580300000000 S
   0.4895419700000000    0.1085330900000000    0.7670751900000000 S
   0.5818537200000000    0.2193846500000000    0.9585132100000000 S
   0.2914867900000000    0.0097515800000000    0.6681462800000000 S
   0.1085330900000000    0.4895419700000000    0.6348497500000000 S
   0.6151502500000000    0.4829248100000000    0.1414669100000000 S
