Tl2 P2 S6
1.0
  -3.3977917700000000    3.8673758399999998    4.4560500599999999
   3.3977917700000000   -3.8673758399999998    4.4560500599999999
   3.3977917700000000    3.8673758399999998   -4.4560500599999999
Tl P S
2 2 6
direct
   0.2626679300000000    0.0000000000000000    0.2626679300000000 Tl
   0.7373320700000000    0.0000000000000000    0.7373320700000000 Tl
   0.3356241500000000    0.3356241500000000    0.0000000000000000 P
   0.6643758500000000    0.6643758500000000    0.0000000000000000 P
   0.2181045100000000    0.9705260200000000    0.7524225000000000 S
   0.7818954900000000    0.5343179900000000    0.7524225000000000 S
   0.2982797600000000    0.5000000000000000    0.7982797600000000 S
   0.7017202400000000    0.5000000000000000    0.2017202400000000 S
   0.7818954900000000    0.0294739800000000    0.2475775000000000 S
   0.2181045100000000    0.4656820100000000    0.2475775000000000 S
