Sr1 Hg1 O2
1.0
   1.9125313200000000    1.1042002399999999    6.3375399600000000
  -1.9125313200000000    1.1042002399999999    6.3375399600000000
   0.0000000000000000   -2.2084014700000001    6.3375399600000000
Sr Hg O
1 1 2
direct
   0.5000000000000000    0.5000000000000000    0.5000000000000000 Sr
   0.0000000000000000    0.0000000000000000    0.0000000000000000 Hg
   0.1039193700000000    0.1039193700000000    0.1039193700000000 O
   0.8960806300000000    0.8960806300000000    0.8960806300000000 O
