Cs10 Ga6 Se14
1.0
   9.0546663100000000   -6.4019442700000004   -0.0826261500000000
   9.0546663100000000    6.4019442700000004   -0.0826261500000000
  -3.0378063399999999    0.0000000000000000    9.1474644099999995
Cs Ga Se
10 6 14
direct
   0.9783096100000001    0.5582740000000000    0.7184623300000000 Cs
   0.5582740000000000    0.9783096100000001    0.7184623300000000 Cs
   0.0216903900000000    0.4417260000000000    0.2815376700000000 Cs
   0.4417260000000000    0.0216903900000000    0.2815376700000000 Cs
   0.7152711200000000    0.2847288800000000    0.0000000000000000 Cs
   0.2847288800000000    0.7152711200000000    0.0000000000000000 Cs
   0.1502699100000000    0.8497300900000000    0.5000000000000000 Cs
   0.8497300900000000    0.1502699100000000    0.5000000000000000 Cs
   0.5744147800000000    0.5744147800000000    0.6925206200000000 Cs
   0.4255852200000000    0.4255852200000000    0.3074793800000000 Cs
   0.7861703500000000    0.7861703500000000    0.1831055200000000 Ga
   0.2138296500000000    0.2138296500000000    0.8168944800000000 Ga
   0.9284248800000000    0.9284248800000000    0.0579872600000000 Ga
   0.0715751200000000    0.0715751200000000    0.9420127400000000 Ga
   0.6525361700000000    0.6525361700000000    0.3379991100000000 Ga
   0.3474638300000000    0.3474638300000000    0.6620008900000000 Ga
   0.9998246400000000    0.7117208400000000    0.1139768200000000 Se
   0.7117208400000000    0.9998246400000000    0.1139768200000000 Se
   0.0001753600000000    0.2882791600000000    0.8860231800000000 Se
   0.2882791600000000    0.0001753600000000    0.8860231800000000 Se
   0.7977776900000000    0.7977776900000000    0.4381913100000000 Se
   0.2022223100000000    0.2022223100000000    0.5618086900000000 Se
   0.9327637500000000    0.9327637500000000    0.8091503900000000 Se
   0.0672362500000000    0.0672362500000000    0.1908496100000000 Se
   0.6464963000000000    0.6464963000000000    0.0754518300000000 Se
   0.3535037000000000    0.3535037000000000    0.9245481700000000 Se
   0.7512006300000000    0.4430824300000000    0.3973643900000000 Se
   0.4430824300000000    0.7512006300000000    0.3973643900000000 Se
   0.2487993700000000    0.5569175700000000    0.6026356100000000 Se
   0.5569175700000000    0.2487993700000000    0.6026356100000000 Se
