Na6 S2 O9
1.0
   0.0000000000000000    4.7824342199999998    4.7824342199999998
   4.7824342199999998    0.0000000000000000    4.7824342199999998
   4.7824342199999998    4.7824342199999998    0.0000000000000000
Na S O
6 2 9
direct
   0.7631889100000000    0.2368110900000000    0.2368110900000000 Na
   0.2368110900000000    0.7631889100000000    0.2368110900000000 Na
   0.7631889100000000    0.2368110900000000    0.7631889100000000 Na
   0.2368110900000000    0.2368110900000000    0.7631889100000000 Na
   0.7631889100000000    0.7631889100000000    0.2368110900000000 Na
   0.2368110900000000    0.7631889100000000    0.7631889100000000 Na
   0.2500000000000000    0.2500000000000000    0.2500000000000000 S
   0.7500000000000000    0.7500000000000000    0.7500000000000000 S
   0.0000000000000000    0.0000000000000000    0.0000000000000000 O
   0.3398438000000000    0.3398438000000000    0.9804695900000000 O
   0.6601562000000000    0.0195304100000000    0.6601562000000000 O
   0.6601562000000000    0.6601562000000000    0.6601562000000000 O
   0.0195304100000000    0.6601562000000000    0.6601562000000000 O
   0.9804695900000000    0.3398438000000000    0.3398438000000000 O
   0.3398438000000000    0.9804695900000000    0.3398438000000000 O
   0.3398438000000000    0.3398438000000000    0.3398438000000000 O
   0.6601562000000000    0.6601562000000000    0.0195304100000000 O
