Ba2 Nb8 O22
1.0
   6.3726220900000001    0.0000000000000000    0.0000000000000000
  -3.1863110500000000    5.5188530199999999    0.0000000000000000
   0.0000000000000000    0.0000000000000000   12.6492525499999999
Ba Nb O
2 8 22
direct
   0.3333330000000000    0.6666670000000000    0.7500000000000000 Ba
   0.6666670000000000    0.3333330000000000    0.2500000000000000 Ba
   0.6666670000000000    0.3333330000000000    0.7500000000000000 Nb
   0.3333330000000000    0.6666670000000000    0.2500000000000000 Nb
   0.3584477300000000    0.0000000000000000    0.0000000000000000 Nb
   0.0000000000000000    0.3584477300000000    0.0000000000000000 Nb
   0.6415522700000000    0.6415522700000000    0.0000000000000000 Nb
   0.6415522700000000    0.0000000000000000    0.5000000000000000 Nb
   1.0000000000000000    0.6415522700000000    0.5000000000000000 Nb
   0.3584477300000000    0.3584477300000000    0.5000000000000000 Nb
   0.6666670000000000    0.3333330000000000    0.4653234200000000 O
   0.3333330000000000    0.6666670000000000    0.5346765800000000 O
   0.3333330000000000    0.6666670000000000    0.9653234200000000 O
   0.6666670000000000    0.3333330000000000    0.0346765800000000 O
   0.7508036800000000    0.0000000000000000    0.0000000000000000 O
   1.0000000000000000    0.7508036800000000    0.0000000000000000 O
   0.2491963200000000    0.2491963200000000    0.0000000000000000 O
   0.2491963200000000    0.0000000000000000    0.5000000000000000 O
   0.0000000000000000    0.2491963200000000    0.5000000000000000 O
   0.7508036800000000    0.7508036800000000    0.5000000000000000 O
   0.9302451300000000    0.5667148300000000    0.6528269400000000 O
   0.4332851700000000    0.3635303000000000    0.6528269400000000 O
   0.6364697000000000    0.0697548700000000    0.6528269400000000 O
   0.3635303000000000    0.4332851700000000    0.3471730600000000 O
   0.0697548700000000    0.6364697000000000    0.3471730600000000 O
   0.5667148300000000    0.9302451300000000    0.3471730600000000 O
   0.0697548700000000    0.4332851700000000    0.1528269400000000 O
   0.5667148300000000    0.6364697000000000    0.1528269400000000 O
   0.3635303000000000    0.9302451300000000    0.1528269400000000 O
   0.6364697000000000    0.5667148300000000    0.8471730600000000 O
   0.9302451300000000    0.3635303000000000    0.8471730600000000 O
   0.4332851700000000    0.0697548700000000    0.8471730600000000 O
