Rb8 Se4 O16
1.0
   7.9660615200000002    0.0000000000000000    0.0000000000000000
   0.0000000000000000    6.1588671200000000    0.0000000000000000
   0.0000000000000000    0.0000000000000000   10.7958288200000005
Rb Se O
8 4 16
direct
   0.5057932500000000    0.2500000000000000    0.7959867700000000 Rb
   0.4942067500000000    0.7500000000000000    0.2040132300000000 Rb
   0.0057932500000000    0.2500000000000000    0.7040132300000000 Rb
   0.9942067500000000    0.7500000000000000    0.2959867700000000 Rb
   0.8308577300000000    0.2500000000000000    0.0843008700000000 Rb
   0.1691422700000000    0.7500000000000000    0.9156991300000000 Rb
   0.3308577300000000    0.2500000000000000    0.4156991300000000 Rb
   0.6691422700000000    0.7500000000000000    0.5843008700000000 Rb
   0.2731766400000000    0.2500000000000000    0.0803134400000000 Se
   0.7268233600000000    0.7500000000000000    0.9196865600000000 Se
   0.7731766400000000    0.2500000000000000    0.4196865600000000 Se
   0.2268233600000000    0.7500000000000000    0.5803134400000000 Se
   0.7962672100000000    0.9713088000000000    0.8465563900000000 O
   0.2037327900000000    0.4713088000000000    0.1534436100000000 O
   0.2962672100000000    0.5286912000000000    0.6534436100000000 O
   0.7037327900000000    0.0286912000000000    0.3465563900000000 O
   0.2037327900000000    0.0286912000000000    0.1534436100000000 O
   0.7962672100000000    0.5286912000000000    0.8465563900000000 O
   0.7037327900000000    0.4713088000000000    0.3465563900000000 O
   0.2962672100000000    0.9713088000000000    0.6534436100000000 O
   0.1940563400000000    0.2500000000000000    0.9366277700000000 O
   0.8059436600000000    0.7500000000000000    0.0633722300000000 O
   0.6940563400000000    0.2500000000000000    0.5633722300000000 O
   0.3059436600000000    0.7500000000000000    0.4366277700000000 O
   0.0183548200000000    0.7500000000000000    0.5772865300000000 O
   0.9816451800000000    0.2500000000000000    0.4227134700000000 O
   0.5183548200000000    0.7500000000000000    0.9227134700000000 O
   0.4816451800000000    0.2500000000000000    0.0772865300000000 O
