Sb4 Pb4 O14
1.0
  -5.2285579000000002    3.9346256199999998    3.7505300500000001
   5.2285579000000002   -3.9346256199999998    3.7505300500000001
   5.2285579000000002    3.9346256199999998   -3.7505300500000001
Sb Pb O
4 4 14
direct
   0.7411414100000000    0.2390162200000000    0.0021251900000000 Sb
   0.2368900300000000    0.7390162200000000    0.9978748100000000 Sb
   0.7411374900000000    0.7411374900000000    0.0000000000000000 Sb
   0.7411374900000000    0.2411374900000000    0.5000000000000000 Sb
   0.7131065800000000    0.7523546200000000    0.4607519600000000 Pb
   0.2916026600000000    0.2523546200000000    0.5392480400000000 Pb
   0.2293996600000000    0.2293996600000000    0.0000000000000000 Pb
   0.2293996600000000    0.7293996600000000    0.5000000000000000 Pb
   0.6074515600000000    0.4175615800000000    0.9477683500000000 O
   0.4697932300000000    0.6596832100000000    0.0522316500000000 O
   0.6074515600000000    0.1596832100000000    0.6898889800000000 O
   0.4697932300000000    0.9175615800000000    0.3101110200000000 O
   0.9516729400000000    0.8255579100000000    0.3068122700000000 O
   0.5187456400000000    0.6448606800000000    0.6931877300000000 O
   0.9516729400000000    0.1448606800000000    0.6261150400000000 O
   0.5187456400000000    0.3255579100000000    0.3738849600000000 O
   0.0175999900000000    0.8276670900000000    0.9579480900000000 O
   0.8697190000000000    0.0596518900000000    0.0420519100000000 O
   0.0175999900000000    0.5596518900000000    0.6899328900000000 O
   0.8697190000000000    0.3276670900000000    0.3100671100000000 O
   0.3957031300000000    0.9898036500000000    0.9058994800000000 O
   0.0839031700000000    0.4898036500000000    0.0941005200000000 O
