Rb4 Ga4 Ge6 O20
1.0
   9.1565182299999996   -3.3512536100000001   -0.0321206600000000
   9.1565182299999996    3.3512536100000001   -0.0321206600000000
  -9.0926642900000001    0.0000000000000000    9.0970472400000002
Rb Ga Ge O
4 4 6 20
direct
   0.8621986500000000    0.6359858400000000    0.8790417500000000 Rb
   0.3640141600000000    0.1378013500000000    0.1209582500000000 Rb
   0.9967242900000000    0.2707230400000000    0.3897675000000000 Rb
   0.7292769600000000    0.0032757100000000    0.6102325000000000 Rb
   0.4339854700000000    0.7204860600000000    0.4524948400000000 Ga
   0.2795139400000000    0.5660145300000000    0.5475051600000000 Ga
   0.4731192800000000    0.2626325200000000    0.9301064400000000 Ga
   0.7373674800000000    0.5268807200000000    0.0698935600000000 Ga
   0.4285428200000000    0.7003683400000000    0.1983533200000000 Ge
   0.2996316600000000    0.5714571800000000    0.8016466799999999 Ge
   0.7362087700000000    0.2637912300000000    0.5000000000000000 Ge
   0.9845813600000000    0.0154186400000000    0.0000000000000000 Ge
   0.9876479800000000    0.7572108900000000    0.2931654800000000 Ge
   0.2427891100000000    0.0123520200000000    0.7068345200000000 Ge
   0.2858996000000000    0.9932631600000000    0.5825394699999999 O
   0.0067368400000000    0.7141004000000000    0.4174605300000000 O
   0.2532057200000000    0.6202204600000000    0.2963760300000000 O
   0.3797795400000000    0.7467942800000000    0.7036239700000000 O
   0.8179363500000000    0.0581603500000000    0.3363208600000000 O
   0.9418396500000000    0.1820636500000000    0.6636791399999999 O
   0.7012433600000000    0.4983828700000000    0.5372207000000000 O
   0.5016171300000000    0.2987566400000000    0.4627793000000000 O
   0.4919891000000000    0.7933766100000000    0.3911088100000000 O
   0.2066233900000000    0.5080109000000000    0.6088911900000000 O
   0.3490216300000000    0.1514495600000000    0.8931709200000000 O
   0.8485504400000000    0.6509783700000000    0.1068290800000000 O
   0.5527021400000000    0.4089695800000000    0.1301052500000000 O
   0.5910304199999999    0.4472978600000000    0.8698947500000000 O
   0.2420205500000000    0.4667359500000000    0.8301438600000000 O
   0.5332640500000000    0.7579794500000000    0.1698561400000000 O
   0.1247229200000000    0.8712012600000000    0.1174012200000000 O
   0.1287987400000000    0.8752770800000000    0.8825987800000000 O
   0.7325544200000000    0.0294419200000000    0.8801811200000000 O
   0.9705580800000000    0.2674455800000000    0.1198188800000000 O
