Na2 N2 O6
1.0
   2.5292545199999998    1.4602650900000000    5.4186053599999999
  -2.5292545199999998    1.4602650900000000    5.4186053599999999
   0.0000000000000000   -2.9205310899999999    5.4186053500000000
Na N O
2 2 6
direct
   0.5000000000000000    0.5000000000000000    0.5000000000000000 Na
   0.0000000000000000    0.0000000000000000    0.0000000000000000 Na
   0.7500000000000000    0.7500000000000000    0.7500000000000000 N
   0.2500000000000000    0.2500000000000000    0.2500000000000000 N
   0.5007380600000000    0.9992619400000000    0.7500000000000000 O
   0.9992619400000000    0.7500000000000000    0.5007380600000000 O
   0.7500000000000000    0.5007380600000000    0.9992619400000000 O
   0.0007380600000000    0.2500000000000000    0.4992619400000000 O
   0.2500000000000000    0.4992619400000000    0.0007380600000000 O
   0.4992619400000000    0.0007380600000000    0.2500000000000000 O
