Zr3 Te1 Pb4 O13
1.0
   3.7881008199999999    2.1870606399999999    6.2209336600000000
  -3.7881008199999999    2.1870606399999999    6.2209336600000000
   0.0000000000000000   -4.3741212899999997    6.2209336600000000
Zr Te Pb O
3 1 4 13
direct
   0.9998429000000000    0.5006188700000000    0.5006188700000000 Zr
   0.5006188700000000    0.5006188700000000    0.9998429000000000 Zr
   0.5006188700000000    0.9998429000000000    0.5006188700000000 Zr
   0.5009798500000000    0.5009798500000000    0.5009798500000000 Te
   0.4983158000000000    0.0002158700000000    0.0002158700000000 Pb
   0.0002158700000000    0.0002158700000000    0.4983158000000000 Pb
   0.0002158700000000    0.4983158000000000    0.0002158700000000 Pb
   0.9966397900000000    0.9966397900000000    0.9966397900000000 Pb
   0.1658260900000000    0.5745457100000000    0.1658260900000000 O
   0.5680125900000000    0.1975097900000000    0.5680125900000000 O
   0.1658260900000000    0.1658260900000000    0.5745457100000000 O
   0.5680125900000000    0.5680125900000000    0.1975097900000000 O
   0.5745457100000000    0.1658260900000000    0.1658260900000000 O
   0.1975097900000000    0.5680125900000000    0.5680125900000000 O
   0.8309402299999999    0.4335405700000000    0.8309402299999999 O
   0.4350980300000000    0.8024891600000000    0.4350980300000000 O
   0.8309402299999999    0.8309402299999999    0.4335405700000000 O
   0.4350980300000000    0.4350980300000000    0.8024891600000000 O
   0.4335405700000000    0.8309402299999999    0.8309402299999999 O
   0.8024891600000000    0.4350980300000000    0.4350980300000000 O
   0.8697110600000000    0.8697110600000000    0.8697110600000000 O
