Na10 Ag2 Ge4 S14
1.0
   4.5385320000000000   -5.0772320000000004    0.0000000000000000
   4.5385320000000000    5.0772320000000004    0.0000000000000000
  -3.4242620000000001    0.0000000000000000   14.2246380000000006
Na Ag Ge S
10 2 4 14
direct
   0.0000000000000000    0.0000000000000000    0.5000000000000000 Na
   0.0000000000000000    0.0000000000000000    0.0000000000000000 Na
   0.5265120000000000    0.2372000000000000    0.9181770000000000 Na
   0.4734880000000000    0.7628000000000000    0.0818230000000000 Na
   0.7628000000000000    0.4734880000000000    0.5818230000000000 Na
   0.2372000000000000    0.5265120000000000    0.4181770000000000 Na
   0.5300130000000000    0.9803269999999999    0.6414860000000000 Na
   0.4699870000000000    0.0196730000000000    0.3585140000000000 Na
   0.0196730000000000    0.4699870000000000    0.8585140000000000 Na
   0.9803269999999999    0.5300130000000000    0.1414860000000000 Na
   0.0843690000000000    0.9156310000000000    0.7500000000000000 Ag
   0.9156310000000000    0.0843690000000000    0.2500000000000000 Ag
   0.5823130000000000    0.7388720000000000    0.8605800000000000 Ge
   0.4176870000000000    0.2611280000000000    0.1394200000000000 Ge
   0.2611280000000000    0.4176870000000000    0.6394200000000000 Ge
   0.7388720000000000    0.5823130000000000    0.3605800000000000 Ge
   0.7610050000000000    0.9867620000000000    0.8155190000000000 S
   0.2389950000000000    0.0132380000000000    0.1844810000000000 S
   0.0132380000000000    0.2389950000000000    0.6844810000000000 S
   0.9867620000000000    0.7610050000000000    0.3155190000000000 S
   0.5449180000000000    0.4550820000000000    0.7500000000000000 S
   0.4550820000000000    0.5449180000000000    0.2500000000000000 S
   0.2959210000000000    0.8307380000000000    0.8931620000000000 S
   0.7040790000000000    0.1692620000000000    0.1068380000000000 S
   0.1692620000000000    0.7040790000000000    0.6068380000000000 S
   0.8307380000000000    0.2959210000000000    0.3931620000000000 S
   0.3732530000000000    0.2360910000000000    0.5240040000000000 S
   0.6267470000000001    0.7639089999999999    0.4759960000000000 S
   0.7639089999999999    0.6267470000000001    0.9759960000000000 S
   0.2360910000000000    0.3732530000000000    0.0240040000000000 S
