Mg2 S2 O8
1.0
   2.5860061900000000   -3.9546018500000000    0.0000000000000000
   2.5860061900000000    3.9546018500000000    0.0000000000000000
   0.0000000000000000    0.0000000000000000    6.4768872000000002
Mg S O
2 2 8
direct
   0.0000000000000000    0.0000000000000000    0.5000000000000000 Mg
   0.0000000000000000    0.0000000000000000    0.0000000000000000 Mg
   0.3504951600000000    0.6495048400000000    0.2500000000000000 S
   0.6495048400000000    0.3504951600000000    0.7500000000000000 S
   0.2263748600000000    0.3020351900000000    0.2500000000000000 O
   0.7736251400000000    0.6979648100000000    0.7500000000000000 O
   0.3020351900000000    0.2263748600000000    0.7500000000000000 O
   0.6979648100000000    0.7736251400000000    0.2500000000000000 O
   0.2489629300000000    0.7510370700000000    0.4383009100000000 O
   0.7510370700000000    0.2489629300000000    0.9383009100000000 O
   0.7510370700000000    0.2489629300000000    0.5616990900000000 O
   0.2489629300000000    0.7510370700000000    0.0616990900000000 O
