Ba6 P8 O26
1.0
   7.5833801000000003   -0.0139223300000000   -0.0161429400000000
  -1.8926883100000000    8.4492297700000005    0.0165922700000000
  -2.6238035599999998   -3.9398690599999999    9.4840302199999993
Ba P O
6 8 26
direct
   0.1488632400000000    0.2280576100000000    0.2273438000000000 Ba
   0.8511367600000000    0.7719423900000000    0.7726562000000000 Ba
   0.6345136800000000    0.2212667400000000    0.7277985600000000 Ba
   0.3654863200000000    0.7787332600000000    0.2722014400000000 Ba
   0.0000000000000000    0.0000000000000000    0.5000000000000000 Ba
   0.5000000000000000    0.0000000000000000    0.0000000000000000 Ba
   0.1534558500000000    0.5220817700000000    0.8669770100000000 P
   0.8465441500000001    0.4779182300000000    0.1330229900000000 P
   0.3373699300000000    0.4600669700000000    0.6323796200000000 P
   0.6626300700000000    0.5399330300000000    0.3676203800000000 P
   0.3290691100000000    0.7999124000000000    0.6387820300000000 P
   0.6709308899999999    0.2000876000000000    0.3612179700000000 P
   0.8416471400000000    0.8193488300000000    0.1464158800000000 P
   0.1583528600000000    0.1806511700000000    0.8535841199999999 P
   0.2985998300000000    0.1657311200000000    0.7736056000000000 O
   0.7014001700000000    0.8342688800000000    0.2263944000000000 O
   0.9474217800000000    0.1026723400000000    0.7547157000000000 O
   0.0525782200000000    0.8973276600000000    0.2452843000000000 O
   0.1890596300000000    0.1140749400000000    0.9723413300000000 O
   0.8109403700000000    0.8859250600000000    0.0276586700000000 O
   0.1986386000000000    0.3862283000000000    0.9322974900000000 O
   0.8013614000000000    0.6137717000000000    0.0677025100000000 O
   0.7033054700000000    0.1379865500000000    0.4825568400000000 O
   0.2966945300000000    0.8620134500000000    0.5174431600000000 O
   0.8197940900000000    0.1981453900000000    0.2886528100000000 O
   0.1802059100000000    0.8018546100000000    0.7113471900000000 O
   0.4629803900000000    0.1111875500000000    0.2573684800000000 O
   0.5370196100000000    0.8888124500000000    0.7426315200000000 O
   0.6914381200000000    0.4045384600000000    0.4384471400000000 O
   0.3085618800000000    0.5954615400000000    0.5615528600000000 O
   0.2868928100000000    0.6946719000000000    0.9732883400000000 O
   0.7131071900000000    0.3053281000000000    0.0267116600000000 O
   0.7389291300000000    0.7136433599999999    0.4866382500000000 O
   0.2610708700000000    0.2863566400000000    0.5133617500000000 O
   0.4585438500000000    0.4875547500000000    0.2719518700000000 O
   0.5414561500000000    0.5124452500000000    0.7280481300000000 O
   0.8064026800000000    0.5367408800000000    0.2797632800000000 O
   0.1935973200000000    0.4632591200000000    0.7202367200000001 O
   0.9422050400000000    0.5004680900000000    0.8229016700000000 O
   0.0577949600000000    0.4995319100000000    0.1770983300000000 O
