Sc2 Ta2 O8
1.0
   4.7724115300000003    0.0000000000000000    0.0049416600000000
   0.0000000000000000    5.6813092000000003    0.0000000000000000
  -0.1485671800000000    0.0000000000000000    5.1393110999999996
Sc Ta O
2 2 8
direct
   0.5000000000000000    0.3318947000000000    0.7500000000000000 Sc
   0.5000000000000000    0.6681053000000000    0.2500000000000000 Sc
   0.0000000000000000    0.8292764500000001    0.7500000000000000 Ta
   0.0000000000000000    0.1707235500000000    0.2500000000000000 Ta
   0.7804768399999999    0.1086742300000000    0.5689831900000000 O
   0.7339731400000000    0.6151591500000000    0.5929956500000000 O
   0.2195231600000000    0.1086742300000000    0.9310168100000000 O
   0.2660268600000000    0.3848408500000000    0.4070043500000000 O
   0.2660268600000000    0.6151591500000000    0.9070043500000000 O
   0.7804768399999999    0.8913257700000000    0.0689831900000000 O
   0.7339731400000000    0.3848408500000000    0.0929956500000000 O
   0.2195231600000000    0.8913257700000000    0.4310168100000000 O
