Na2 Be8 Sb2 O14
1.0
   5.4476162800000001    0.0000000000000000    0.0000000000000000
  -2.7238081400000000    4.7177739699999997    0.0000000000000000
   0.0000000000000000    0.0000000000000000    8.8793423499999999
Na Be Sb O
2 8 2 14
direct
   0.3333330000000000    0.6666670000000000    0.6256233800000000 Na
   0.6666670000000000    0.3333330000000000    0.1256233800000000 Na
   0.1655868400000000    0.3311736900000000    0.3133769000000000 Be
   0.8344131600000000    0.1655868400000000    0.8133769000000000 Be
   0.3311736900000000    0.1655868400000000    0.8133769000000000 Be
   0.8344131600000000    0.6688263100000000    0.8133769000000000 Be
   0.0000000000000000    0.0000000000000000    0.5607227900000000 Be
   0.0000000000000000    0.0000000000000000    0.0607227900000000 Be
   0.1655868400000000    0.8344131600000000    0.3133769000000000 Be
   0.6688263100000000    0.8344131600000000    0.3133769000000000 Be
   0.3333330000000000    0.6666670000000000    0.0004605700000000 Sb
   0.6666670000000000    0.3333330000000000    0.5004605700000000 Sb
   0.6783034600000000    0.8391517300000000    0.1288637500000000 O
   0.0000000000000000    0.0000000000000000    0.8752112200000000 O
   0.0000000000000000    0.0000000000000000    0.3752112200000000 O
   0.3216965400000000    0.1608482700000000    0.6288637500000001 O
   0.8391517300000000    0.1608482700000000    0.6288637500000001 O
   0.1608482700000000    0.3216965400000000    0.1288637500000000 O
   0.5049536300000000    0.0099082700000000    0.8710873700000000 O
   0.4950463700000000    0.5049536300000000    0.3710873700000000 O
   0.0099082700000000    0.5049536300000000    0.3710873700000000 O
   0.9900917299999999    0.4950463700000000    0.8710873700000000 O
   0.5049536300000000    0.4950463700000000    0.8710873700000000 O
   0.4950463700000000    0.9900917299999999    0.3710873700000000 O
   0.8391517300000000    0.6783034600000000    0.6288637500000001 O
   0.1608482700000000    0.8391517300000000    0.1288637500000000 O
