Ba6 Ga8 O18
1.0
   7.0332334599999999    0.0485388100000000   -0.0452430600000000
   2.2395392200000002    7.9643096299999998   -0.0352268600000000
   2.8235599300000001    0.0887947800000000    9.5476736300000002
Ba Ga O
6 8 18
direct
   0.0533536700000000    0.0561256000000000    0.6874434699999999 Ba
   0.1786531600000000    0.5638164600000000    0.6602015600000000 Ba
   0.2988802900000000    0.2182373000000000    0.9662783300000000 Ba
   0.7011197100000000    0.7817627000000000    0.0337216700000000 Ba
   0.8213468400000000    0.4361835400000000    0.3397984400000000 Ba
   0.9466463300000000    0.9438744000000000    0.3125565300000000 Ba
   0.4066032400000000    0.1790880800000000    0.3032108500000000 Ga
   0.3339907000000000    0.5574650200000000    0.2284438500000000 Ga
   0.7412726300000000    0.2655920200000000    0.0667668500000000 Ga
   0.5644525600000000    0.1841340300000000    0.5871426800000000 Ga
   0.4355474400000000    0.8158659700000001    0.4128573200000000 Ga
   0.2587273700000000    0.7344079800000000    0.9332331500000000 Ga
   0.6660093000000000    0.4425349800000000    0.7715561500000000 Ga
   0.5933967600000000    0.8209119200000000    0.6967891500000000 Ga
   0.2609755200000000    0.0283062900000000    0.3909512900000000 O
   0.2213086400000000    0.3769578400000000    0.2711825400000000 O
   0.1961190900000000    0.7207807600000000    0.1252991400000000 O
   0.5723537400000001    0.1158589100000000    0.1208254700000000 O
   0.0343492000000000    0.8011220300000000    0.8649528200000000 O
   0.3045401200000000    0.2361252600000000    0.6981665100000000 O
   0.2821204900000000    0.6697896500000000    0.3947077900000000 O
   0.5889369800000001    0.2078462900000000    0.3960104400000000 O
   0.6113896900000000    0.4851157800000000    0.1383367600000000 O
   0.3886103100000000    0.5148842200000000    0.8616632400000001 O
   0.4110630200000000    0.7921537100000000    0.6039895600000000 O
   0.7178795100000001    0.3302103500000000    0.6052922100000000 O
   0.6954598800000000    0.7638747400000000    0.3018334900000000 O
   0.9656508000000000    0.1988779700000000    0.1350471800000000 O
   0.4276462600000000    0.8841410900000000    0.8791745300000000 O
   0.8038809099999999    0.2792192400000000    0.8747008600000000 O
   0.7786913600000001    0.6230421600000000    0.7288174600000000 O
   0.7390244800000000    0.9716937100000000    0.6090487100000000 O
