Cd2 W2 O8
1.0
   5.0126388899999998    0.0000000000000000    0.0175155600000000
   0.0000000000000000    5.8895234099999998    0.0000000000000000
  -0.1650449300000000    0.0000000000000000    5.1023315599999997
Cd W O
2 2 8
direct
   0.5000000000000000    0.6867595500000000    0.7500000000000000 Cd
   0.5000000000000000    0.3132404500000000    0.2500000000000000 Cd
   0.0000000000000000    0.1710814600000000    0.7500000000000000 W
   0.0000000000000000    0.8289185400000000    0.2500000000000000 W
   0.7986882700000000    0.0973528800000000    0.0555392200000000 O
   0.2013117300000000    0.0973528800000000    0.4444607800000000 O
   0.2013117300000000    0.9026471200000000    0.9444607800000000 O
   0.7986882700000000    0.9026471200000000    0.5555392200000000 O
   0.7561518699999999    0.3674182000000000    0.6175391400000000 O
   0.2438481300000000    0.3674182000000000    0.8824608600000000 O
   0.2438481300000000    0.6325818000000000    0.3824608600000000 O
   0.7561518699999999    0.6325818000000000    0.1175391400000000 O
