Rb4 Cd4 O6
1.0
   6.4877038999999996    0.0000000000000000    0.0374693200000000
   0.0000000000000000    6.7610120199999999    0.0000000000000000
  -3.1371872900000000    0.0000000000000000    6.1401477199999999
Rb Cd O
4 4 6
direct
   0.8222415800000000    0.6453155100000000    0.0769420400000000 Rb
   0.1777584200000000    0.3546844900000000    0.9230579600000000 Rb
   0.1777584200000000    0.1453155100000000    0.4230579600000000 Rb
   0.8222415800000000    0.8546844900000000    0.5769420400000000 Rb
   0.3346747600000000    0.8789349200000000    0.0744348700000000 Cd
   0.6653252400000000    0.1210650800000000    0.9255651300000000 Cd
   0.6653252400000000    0.3789349200000000    0.4255651300000000 Cd
   0.3346747600000000    0.6210650800000000    0.5744348700000000 Cd
   0.3955643300000000    0.6191944400000000    0.2810647200000000 O
   0.6044356700000000    0.3808055600000000    0.7189352800000000 O
   0.6044356700000000    0.1191944400000000    0.2189352800000000 O
   0.3955643300000000    0.8808055600000000    0.7810647200000000 O
   0.0000000000000000    0.0000000000000000    0.0000000000000000 O
   0.0000000000000000    0.5000000000000000    0.5000000000000000 O
