Li4 Ti2 Te2 O12
1.0
   4.9221748900000000    0.0000000000000000    0.0000000000000000
   0.0000000000000000    5.1164588000000002    0.0000000000000000
   0.0000000000000000    0.0000000000000000    8.4413347600000002
Li Ti Te O
4 2 2 12
direct
   0.0000000000000000    0.0000000000000000    0.3027350800000000 Li
   0.5000000000000000    0.0000000000000000    0.1792517700000000 Li
   0.0000000000000000    0.5000000000000000    0.6792517700000000 Li
   0.5000000000000000    0.5000000000000000    0.8027350800000000 Li
   0.0000000000000000    0.0000000000000000    0.8942171100000000 Ti
   0.5000000000000000    0.5000000000000000    0.3942171100000000 Ti
   0.5000000000000000    0.0000000000000000    0.5864905800000000 Te
   0.0000000000000000    0.5000000000000000    0.0864905800000000 Te
   0.2590108000000000    0.1521385900000000    0.7421240200000000 O
   0.2950793300000000    0.1717252300000000    0.4163545800000000 O
   0.2029782200000000    0.1803054000000000    0.0749061200000000 O
   0.7029782200000000    0.3196946000000000    0.5749061200000000 O
   0.7950793300000000    0.3282747700000000    0.9163545800000000 O
   0.7590108000000000    0.3478614100000000    0.2421240200000000 O
   0.2409892000000000    0.6521385900000000    0.2421240200000000 O
   0.2049206700000000    0.6717252300000000    0.9163545800000000 O
   0.2970217800000000    0.6803053999999999    0.5749061200000000 O
   0.7970217800000000    0.8196946000000001    0.0749061200000000 O
   0.7049206700000000    0.8282747700000000    0.4163545800000000 O
   0.7409892000000000    0.8478614100000000    0.7421240200000000 O
