Sr3 B3 P3 O15
1.0
   6.8529897100000001    0.0000000100000000    0.0000000000000000
  -3.4264953399999998    5.9348639399999996    0.0000000000000000
   0.0000000000000000    0.0000000000000000    6.8223342499999999
Sr B P O
3 3 3 15
direct
   1.0000000000000000    0.3932293100000000    0.8333330000000000 Sr
   0.3932293100000000    0.0000000000000000    0.1666670000000000 Sr
   0.6067706899999999    0.6067706899999999    0.5000000000000000 Sr
   0.0996203500000000    0.0996203500000000    0.5000000000000000 B
   1.0000000000000000    0.9003796500000000    0.8333330000000000 B
   0.9003796500000000    0.0000000000000000    0.1666670000000000 B
   0.5935759500000000    0.5935759500000000    0.0000000000000000 P
   0.4064240500000000    1.0000000000000000    0.6666670000000000 P
   0.0000000000000000    0.4064240500000000    0.3333330000000000 P
   0.9551975400000000    0.0000000000000000    0.6666670000000000 O
   0.8618789500000000    0.4507262900000000    0.4804334200000000 O
   0.0448024600000000    0.0448024600000000    0.0000000000000000 O
   0.8486508300000000    0.1875338500000000    0.2050428100000000 O
   0.8124661500000000    0.6611169900000000    0.8717088100000000 O
   0.3388830100000000    0.1513491700000000    0.5383758100000000 O
   0.4111526500000000    0.5492737100000000    0.8528995800000000 O
   0.5888473500000000    0.1381210500000000    0.8137664200000000 O
   0.1875338500000000    0.8486508300000000    0.7949571900000000 O
   0.6611169900000000    0.8124661500000000    0.1282911900000000 O
   0.5492737100000000    0.4111526500000000    0.1471004200000000 O
   0.4507262900000000    0.8618789500000000    0.5195665800000000 O
   1.0000000000000000    0.9551975400000000    0.3333330000000000 O
   0.1381210500000000    0.5888473500000000    0.1862335800000000 O
   0.1513491700000000    0.3388830100000000    0.4616241900000000 O
