Li1 Sc1 S2
1.0
   1.8208570500000001    1.0512725300000001    5.9930086899999999
  -1.8208570500000001    1.0512725300000001    5.9930086899999999
   0.0000000000000000   -2.1025450600000002    5.9930086899999999
Li Sc S
1 1 2
direct
   0.0000000000000000    0.0000000000000000    0.0000000000000000 Li
   0.5000000000000000    0.5000000000000000    0.5000000000000000 Sc
   0.2472493300000000    0.2472493300000000    0.2472493300000000 S
   0.7527506700000000    0.7527506700000000    0.7527506700000000 S
