Cs4 Na2 As2 O8
1.0
   6.0297771500000001    0.0000000000000000    0.0010095600000000
   0.0000000000000000    6.1276459100000000    0.0000000000000000
  -0.3586036900000000    0.0000000000000000    8.2074362700000005
Cs Na As O
4 2 2 8
direct
   0.8381617800000000    0.2500000000000000    0.8139464900000000 Cs
   0.1618382200000000    0.7500000000000000    0.1860535100000000 Cs
   0.2993156200000000    0.2500000000000000    0.5096513300000000 Cs
   0.7006843800000000    0.7500000000000000    0.4903486700000000 Cs
   0.6369212100000000    0.7500000000000000    0.9760068000000000 Na
   0.3630787900000000    0.2500000000000000    0.0239932000000000 Na
   0.7887785800000000    0.2500000000000000    0.2408288100000000 As
   0.2112214200000000    0.7500000000000000    0.7591711900000000 As
   0.3543471100000000    0.9751690300000000    0.8332609200000000 O
   0.6456528900000000    0.4751690300000000    0.1667390800000000 O
   0.6456528900000000    0.0248309700000000    0.1667390800000000 O
   0.3543471100000000    0.5248309700000000    0.8332609200000000 O
   0.9456259600000000    0.7500000000000000    0.8280003300000000 O
   0.2021979000000000    0.7500000000000000    0.5499130400000000 O
   0.0543740400000000    0.2500000000000000    0.1719996700000000 O
   0.7978021000000000    0.2500000000000000    0.4500869600000000 O
