Tl4 Hg6 S8
1.0
   5.7215015400000002   -3.3481512400000000   -0.0026705200000000
   5.7215015400000002    3.3481512400000000   -0.0026705200000000
  -5.4900525299999998    0.0000000000000000   11.6166349300000000
Tl Hg S
4 6 8
direct
   0.9056207700000000    0.7453706100000000    0.9498972000000000 Tl
   0.2546293900000000    0.0943792300000000    0.5501028000000000 Tl
   0.0943792300000000    0.2546293900000000    0.0501028000000000 Tl
   0.7453706100000000    0.9056207700000000    0.4498972000000000 Tl
   0.8731985500000000    0.1268014500000000    0.2500000000000000 Hg
   0.1268014500000000    0.8731985500000000    0.7500000000000000 Hg
   0.4442550500000000    0.6754991299999999    0.1506753900000000 Hg
   0.3245008700000000    0.5557449500000000    0.3493246100000000 Hg
   0.5557449500000000    0.3245008700000000    0.8493246100000000 Hg
   0.6754991299999999    0.4442550500000000    0.6506753900000000 Hg
   0.2900506900000000    0.0746247100000000    0.2575866300000000 S
   0.9253752900000000    0.7099493099999999    0.2424133700000000 S
   0.7099493099999999    0.9253752900000000    0.7424133700000000 S
   0.0746247100000000    0.2900506900000000    0.7575866300000000 S
   0.7386477600000000    0.4431957700000000    0.4288781400000000 S
   0.5568042300000000    0.2613522400000000    0.0711218600000000 S
   0.2613522400000000    0.5568042300000000    0.5711218600000000 S
   0.4431957700000000    0.7386477600000000    0.9288781400000000 S
