Ba2 Nb4 O12
1.0
   6.1193239999999998    0.0000000000000000    0.0000000000000000
   0.0000000000000000   10.5152859999999997    0.0000000000000000
   0.0000000000000000    0.0000000000000000    3.9692599999999998
Ba Nb O
2 4 12
direct
   0.0000000000000000    0.0000000000000000    0.0000000000000000 Ba
   0.5000000000000000    0.5000000000000000    0.0000000000000000 Ba
   0.5571840000000000    0.1490710000000000    0.5000000000000000 Nb
   0.0571840000000000    0.3509290000000000    0.5000000000000000 Nb
   0.4428160000000000    0.8509290000000000    0.5000000000000000 Nb
   0.9428160000000000    0.6490710000000000    0.5000000000000000 Nb
   0.5892539999999999    0.1512430000000000    0.0000000000000000 O
   0.0892540000000000    0.3487570000000000    0.0000000000000000 O
   0.4107460000000000    0.8487570000000000    0.0000000000000000 O
   0.9107460000000001    0.6512430000000000    0.0000000000000000 O
   0.8896480000000000    0.1939420000000000    0.5000000000000000 O
   0.3896480000000000    0.3060580000000000    0.5000000000000000 O
   0.8010030000000000    0.4629290000000000    0.5000000000000000 O
   0.3010030000000000    0.0370710000000000    0.5000000000000000 O
   0.1989970000000000    0.5370710000000000    0.5000000000000000 O
   0.6989970000000000    0.9629290000000000    0.5000000000000000 O
   0.6103520000000000    0.6939419999999999    0.5000000000000000 O
   0.1103520000000000    0.8060580000000001    0.5000000000000000 O
