Rb2 Au2 S2
1.0
   3.2801301700000001   -4.0365280500000003    0.0000000000000000
   3.2801301700000001    4.0365280500000003    0.0000000000000000
   0.0000000000000000    0.0000000000000000    6.5526307800000003
Rb Au S
2 2 2
direct
   0.6265196800000000    0.3734803200000000    0.2500000000000000 Rb
   0.3734803200000000    0.6265196800000000    0.7500000000000000 Rb
   0.0000000000000000    0.0000000000000000    0.0000000000000000 Au
   0.0000000000000000    0.0000000000000000    0.5000000000000000 Au
   0.1999800700000000    0.8000199300000000    0.2500000000000000 S
   0.8000199300000000    0.1999800700000000    0.7500000000000000 S
