Mg2 W2 O8
1.0
   4.6709370200000002    0.0000000000000000    0.0064823300000000
   0.0000000000000000    5.6666940099999996    0.0000000000000000
  -0.0937982600000000    0.0000000000000000    4.9544484300000002
Mg W O
2 2 8
direct
   0.5000000000000000    0.3323766900000000    0.2500000000000000 Mg
   0.5000000000000000    0.6676233100000000    0.7500000000000000 Mg
   0.0000000000000000    0.8236394800000000    0.2500000000000000 W
   0.0000000000000000    0.1763605200000000    0.7500000000000000 W
   0.2581144400000000    0.3764447800000000    0.8987646100000000 O
   0.7418855600000001    0.3764447800000000    0.6012353900000000 O
   0.7418855600000001    0.6235552200000000    0.1012353900000000 O
   0.2581144400000000    0.6235552200000000    0.3987646100000000 O
   0.2167551400000000    0.8915866099999999    0.9335040600000000 O
   0.7832448600000000    0.8915866099999999    0.5664959400000000 O
   0.7832448600000000    0.1084133900000000    0.0664959400000000 O
   0.2167551400000000    0.1084133900000000    0.4335040600000000 O
