Cs4 Sn2 O6
1.0
   5.5892289999999996   -3.8547620000000000    0.0000000000000000
   5.5892289999999996    3.8547620000000000    0.0000000000000000
   0.0000000000000000    0.0000000000000000    5.8287459999999998
Cs Sn O
4 2 6
direct
   0.8060780000000000    0.5163970000000000    0.2500000000000000 Cs
   0.5163970000000000    0.8060780000000000    0.7500000000000000 Cs
   0.1939220000000000    0.4836030000000000    0.7500000000000000 Cs
   0.4836030000000000    0.1939220000000000    0.2500000000000000 Cs
   0.9154400000000000    0.0845600000000000    0.7500000000000000 Sn
   0.0845600000000000    0.9154400000000000    0.2500000000000000 Sn
   0.6618670000000000    0.3381330000000000    0.7500000000000000 O
   0.3381330000000000    0.6618670000000000    0.2500000000000000 O
   0.1202970000000000    0.1202970000000000    0.5000000000000000 O
   0.8797030000000000    0.8797030000000000    0.0000000000000000 O
   0.8797030000000000    0.8797030000000000    0.5000000000000000 O
   0.1202970000000000    0.1202970000000000    0.0000000000000000 O
