Na4 Ta4 O12
1.0
   5.5303162800000001    0.0000000000000000    0.0000000000000000
   0.0000000000000000    7.7742901000000000    0.0000000000000000
   0.0000000000000000    0.0000000000000000    5.4480012699999998
Na Ta O
4 4 12
direct
   0.9715159100000000    0.7500000000000000    0.9949463600000000 Na
   0.0284840900000000    0.2500000000000000    0.0050536400000000 Na
   0.4715159100000000    0.7500000000000000    0.5050536400000000 Na
   0.5284840900000000    0.2500000000000000    0.4949463600000000 Na
   0.0000000000000000    0.5000000000000000    0.5000000000000000 Ta
   0.0000000000000000    0.0000000000000000    0.5000000000000000 Ta
   0.5000000000000000    0.5000000000000000    0.0000000000000000 Ta
   0.5000000000000000    0.0000000000000000    0.0000000000000000 Ta
   0.7908278000000000    0.4610960200000000    0.2078457700000000 O
   0.2091722000000000    0.9610960200000001    0.7921542300000000 O
   0.2908278000000000    0.4610960200000000    0.2921542300000000 O
   0.7091722000000000    0.9610960200000001    0.7078457700000000 O
   0.7908278000000000    0.0389039800000000    0.2078457700000000 O
   0.2091722000000000    0.5389039799999999    0.7921542300000000 O
   0.2908278000000000    0.0389039800000000    0.2921542300000000 O
   0.7091722000000000    0.5389039799999999    0.7078457700000000 O
   0.5171478200000000    0.7500000000000000    0.0758769100000000 O
   0.4828521800000000    0.2500000000000000    0.9241230900000000 O
   0.0171478200000000    0.7500000000000000    0.4241230900000000 O
   0.9828521800000000    0.2500000000000000    0.5758769100000000 O
