Na2 Sr6 Sb2 O12
1.0
   4.8721440800000000    2.8129339799999999    3.8484050299999999
  -4.8721440800000000    2.8129339799999999    3.8484050299999999
   0.0000000000000000   -5.6258669699999997    3.8484050299999999
Na Sr Sb O
2 6 2 12
direct
   0.7500000000000000    0.7500000000000000    0.7500000000000000 Na
   0.2500000000000000    0.2500000000000000    0.2500000000000000 Na
   0.7500000000000000    0.3985471100000000    0.1014528900000000 Sr
   0.1014528900000000    0.7500000000000000    0.3985471100000000 Sr
   0.6014528900000000    0.8985471100000000    0.2500000000000000 Sr
   0.2500000000000000    0.6014528900000000    0.8985471100000000 Sr
   0.8985471100000000    0.2500000000000000    0.6014528900000000 Sr
   0.3985471100000000    0.1014528900000000    0.7500000000000000 Sr
   0.5000000000000000    0.5000000000000000    0.5000000000000000 Sb
   0.0000000000000000    0.0000000000000000    0.0000000000000000 Sb
   0.2811118500000000    0.9457220700000000    0.0753752100000000 O
   0.0753752100000000    0.2811118500000000    0.9457220700000000 O
   0.9457220700000000    0.0753752100000000    0.2811118500000000 O
   0.5542779300000000    0.2188881500000000    0.4246247900000000 O
   0.4246247900000000    0.5542779300000000    0.2188881500000000 O
   0.2188881500000000    0.4246247900000000    0.5542779300000000 O
   0.7188881499999999    0.0542779300000000    0.9246247900000000 O
   0.9246247900000000    0.7188881499999999    0.0542779300000000 O
   0.0542779300000000    0.9246247900000000    0.7188881499999999 O
   0.4457220700000000    0.7811118500000001    0.5753752100000000 O
   0.7811118500000001    0.5753752100000000    0.4457220700000000 O
   0.5753752100000000    0.4457220700000000    0.7811118500000001 O
