Cs4 P4 Pb4 S16
1.0
  17.8041380499999988    0.0000000000000000    0.0000000000000000
   0.0000000000000000    6.7049558200000003    0.0000000000000000
   0.0000000000000000    0.0000000000000000    6.3957176699999998
Cs P Pb S
4 4 4 16
direct
   0.2906341300000000    0.7500000000000000    0.0144842800000000 Cs
   0.7906341300000000    0.7500000000000000    0.4855157200000000 Cs
   0.7093658700000000    0.2500000000000000    0.9855157200000000 Cs
   0.2093658700000000    0.2500000000000000    0.5144842800000000 Cs
   0.5917603600000000    0.7500000000000000    0.2218574400000000 P
   0.0917603600000000    0.7500000000000000    0.2781425600000000 P
   0.4082396400000000    0.2500000000000000    0.7781425600000000 P
   0.9082396400000000    0.2500000000000000    0.7218574400000000 P
   0.5180464700000000    0.7500000000000000    0.7118169300000000 Pb
   0.0180464700000000    0.7500000000000000    0.7881830700000000 Pb
   0.4819535300000000    0.2500000000000000    0.2881830700000000 Pb
   0.9819535300000000    0.2500000000000000    0.2118169300000000 Pb
   0.6560960100000000    0.7500000000000000    0.9586306400000000 S
   0.1560960100000000    0.7500000000000000    0.5413693600000000 S
   0.3439039900000000    0.2500000000000000    0.0413693600000000 S
   0.8439039900000000    0.2500000000000000    0.4586306400000000 S
   0.3859157500000000    0.0045430300000000    0.5975105000000001 S
   0.8859157500000000    0.4954569700000000    0.9024894999999999 S
   0.6140842500000000    0.5045430300000000    0.4024895000000000 S
   0.1140842500000000    0.9954569700000000    0.0975105000000000 S
   0.6140842500000000    0.9954569700000000    0.4024895000000000 S
   0.1140842500000000    0.5045430300000000    0.0975105000000000 S
   0.3859157500000000    0.4954569700000000    0.5975105000000001 S
   0.8859157500000000    0.0045430300000000    0.9024894999999999 S
   0.4790761100000000    0.7500000000000000    0.1530187900000000 S
   0.9790761100000001    0.7500000000000000    0.3469812100000000 S
   0.5209238899999999    0.2500000000000000    0.8469812100000000 S
   0.0209238900000000    0.2500000000000000    0.6530187900000000 S
