Zn4 Te6 O16
1.0
   6.2162659900000001   -2.5718477000000002    0.0220119000000000
   6.2162659900000001    2.5718477000000002    0.0220119000000000
  -1.9593439300000000    0.0000000000000000   11.4368681500000005
Zn Te O
4 6 16
direct
   0.5604002300000001    0.9788558200000000    0.6558193400000000 Zn
   0.0211441800000000    0.4395997700000000    0.8441806600000000 Zn
   0.4395997700000000    0.0211441800000000    0.3441806600000000 Zn
   0.9788558200000000    0.5604002300000001    0.1558193400000000 Zn
   0.8429889000000000    0.1570111000000000    0.2500000000000000 Te
   0.1570111000000000    0.8429889000000000    0.7500000000000000 Te
   0.6654206600000000    0.0666883100000000    0.9493876999999999 Te
   0.9333116900000000    0.3345793400000000    0.5506123000000001 Te
   0.3345793400000000    0.9333116900000000    0.0506123000000000 Te
   0.0666883100000000    0.6654206600000000    0.4493877000000000 Te
   0.7470449600000000    0.7173175700000000    0.4639260400000000 O
   0.2826824300000000    0.2529550400000000    0.0360739600000000 O
   0.2529550400000000    0.2826824300000000    0.5360739600000000 O
   0.7173175700000000    0.7470449600000000    0.9639260400000000 O
   0.1837167200000000    0.4251670100000000    0.3097244500000000 O
   0.5748329900000000    0.8162832800000001    0.1902755500000000 O
   0.8162832800000001    0.5748329900000000    0.6902755500000000 O
   0.4251670100000000    0.1837167200000000    0.8097244500000000 O
   0.7628218100000000    0.0113478300000000    0.3638501400000000 O
   0.9886521700000001    0.2371781900000000    0.1361498600000000 O
   0.8430924600000000    0.9886221900000000    0.6424839500000000 O
   0.0113778100000000    0.1569075400000000    0.8575160500000000 O
   0.1569075400000000    0.0113778100000000    0.3575160500000000 O
   0.9886221900000000    0.8430924600000000    0.1424839500000000 O
   0.0113478300000000    0.7628218100000000    0.8638501400000000 O
   0.2371781900000000    0.9886521700000001    0.6361498600000000 O
