La6 W1 O12
1.0
   5.1097261600000001    2.9501022099999998    3.2867234299999999
  -5.1097263799999997    2.9501018399999999    3.2867234299999999
   0.0000002100000000   -5.9002030599999999    3.2867234299999999
La W O
6 1 12
direct
   0.3039540200000000    0.6080100100000000    0.1431376700000000 La
   0.8568623300000000    0.6960459800000000    0.3919899900000000 La
   0.3919899900000000    0.8568623300000000    0.6960459800000000 La
   0.6080100100000000    0.1431376700000000    0.3039540200000000 La
   0.1431376700000000    0.3039540200000000    0.6080100100000000 La
   0.6960459800000000    0.3919899900000000    0.8568623300000000 La
   0.0000000000000000    0.0000000000000000    0.0000000000000000 W
   0.2840580200000000    0.9698001000000001    0.0667832100000000 O
   0.9332167900000000    0.7159419800000000    0.0301999000000000 O
   0.5572733500000000    0.8229764100000000    0.4051938700000000 O
   0.5948061300000000    0.4427266500000000    0.1770235900000000 O
   0.0301999000000000    0.9332167900000000    0.7159419800000000 O
   0.1770235900000000    0.5948061300000000    0.4427266500000000 O
   0.8229764100000000    0.4051938700000000    0.5572733500000000 O
   0.9698001000000001    0.0667832100000000    0.2840580200000000 O
   0.4051938700000000    0.5572733500000000    0.8229764100000000 O
   0.4427266500000000    0.1770235900000000    0.5948061300000000 O
   0.0667832100000000    0.2840580200000000    0.9698001000000001 O
   0.7159419800000000    0.0301999000000000    0.9332167900000000 O
