Tl6 B2 O6
1.0
   9.2230535400000004   -0.0000003300000000    0.0000000000000000
  -4.6115269699999999    7.9873985400000000    0.0000000000000000
   0.0000000000000000    0.0000000000000000    3.6868842100000001
Tl B O
6 2 6
direct
   0.6499019300000000    0.9465373500000001    0.2500000000000000 Tl
   0.7033655800000000    0.6499019300000000    0.7500000000000000 Tl
   0.9465373500000001    0.2966344200000000    0.7500000000000000 Tl
   0.0534626500000000    0.7033655800000000    0.2500000000000000 Tl
   0.2966344200000000    0.3500980700000000    0.2500000000000000 Tl
   0.3500980700000000    0.0534626500000000    0.7500000000000000 Tl
   0.6666670000000000    0.3333330000000000    0.2500000000000000 B
   0.3333330000000000    0.6666670000000000    0.7500000000000000 B
   0.8400697000000000    0.4072675700000000    0.2500000000000000 O
   0.4328021300000000    0.8400697000000000    0.7500000000000000 O
   0.4072675700000000    0.5671978700000000    0.7500000000000000 O
   0.5927324300000000    0.4328021300000000    0.2500000000000000 O
   0.1599303000000000    0.5927324300000000    0.7500000000000000 O
   0.5671978700000000    0.1599303000000000    0.2500000000000000 O
