Sr2 La4 S8
1.0
  -4.3415511799999997    4.3415511799999997    4.3271683000000003
   4.3415511799999997   -4.3415511799999997    4.3271683000000003
   4.3415511799999997    4.3415511799999997   -4.3271683000000003
Sr La S
2 4 8
direct
   0.7500000000000000    0.2500000000000000    0.5000000000000000 Sr
   0.0000000000000000    0.0000000000000000    0.0000000000000000 Sr
   0.8750000000000000    0.7543509000000000    0.3793509000000000 La
   0.3750000000000000    0.4956491000000000    0.6206491000000000 La
   0.2456491000000000    0.6250000000000000    0.1206491000000000 La
   0.5043509000000000    0.1250000000000000    0.8793509000000000 La
   0.1316827500000000    0.7267211000000000    0.7489954800000000 S
   0.7722743800000000    0.5232789000000000    0.9049606600000000 S
   0.9777256200000000    0.3826872800000000    0.2510045200000000 S
   0.1326872800000000    0.2277256200000000    0.7510045200000000 S
   0.2732789000000000    0.0222743800000000    0.4049606600000000 S
   0.6173127200000000    0.8683172500000000    0.5950393400000000 S
   0.4767211000000000    0.3816827500000000    0.2489954800000000 S
   0.6183172500000000    0.8673127200000000    0.0950393400000000 S
