La2 P6 O18
1.0
   4.3186630399999997   -5.6529605399999996    0.0000000000000000
   4.3186630399999997    5.6529605399999996    0.0000000000000000
   0.0000000000000000    0.0000000000000000    7.4104599200000001
La P O
2 6 18
direct
   0.8746066900000000    0.8746066900000000    0.0000000000000000 La
   0.1253933100000000    0.1253933100000000    0.5000000000000000 La
   0.3342339000000000    0.6831843000000000    0.0478050100000000 P
   0.6657661000000000    0.3168157000000000    0.5478050100000000 P
   0.6831843000000000    0.3342339000000000    0.9521949900000000 P
   0.3168157000000000    0.6657661000000000    0.4521949900000000 P
   0.2514391000000000    0.2514391000000000    0.0000000000000000 P
   0.7485609000000000    0.7485609000000000    0.5000000000000000 P
   0.2523179300000000    0.4700819600000000    0.9586692800000000 O
   0.7476820700000000    0.5299180400000000    0.4586692800000000 O
   0.4700819600000000    0.2523179300000000    0.0413307200000000 O
   0.5299180400000000    0.7476820700000000    0.5413307200000000 O
   0.7794480900000000    0.5259543400000000    0.0360341100000000 O
   0.2205519100000000    0.4740456600000000    0.5360341100000000 O
   0.5259543400000000    0.7794480900000000    0.9639658900000000 O
   0.4740456600000000    0.2205519100000000    0.4639658900000000 O
   0.3757575300000000    0.6242424700000000    0.2500000000000000 O
   0.6242424700000000    0.3757575300000000    0.7500000000000000 O
   0.8267121300000000    0.8649770100000000    0.3328526900000000 O
   0.1732878700000000    0.1350229900000000    0.8328526900000000 O
   0.8649770100000000    0.8267121300000000    0.6671473100000000 O
   0.1350229900000000    0.1732878700000000    0.1671473100000000 O
   0.2179550000000000    0.8258110300000000    0.4591365500000000 O
   0.7820450000000000    0.1741889700000000    0.9591365500000000 O
   0.8258110300000000    0.2179550000000000    0.5408634500000000 O
   0.1741889700000000    0.7820450000000000    0.0408634500000000 O
