Sr4 P8 O24
1.0
   4.5029543299999997    0.0000000000000000   -0.0053299800000000
   0.0000000000000000   10.9083031600000009    0.0000000000000000
  -0.2920155400000000    0.0000000000000000   10.3886252900000002
Sr P O
4 8 24
direct
   0.0308741700000000    0.8080971200000000    0.0143195000000000 Sr
   0.9691258300000000    0.1919028800000000    0.9856805000000000 Sr
   0.0308741700000000    0.6919028800000000    0.5143195000000000 Sr
   0.9691258300000000    0.3080971200000000    0.4856805000000000 Sr
   0.4358177900000000    0.3479297900000000    0.2066285300000000 P
   0.5641822100000000    0.6520702100000000    0.7933714700000000 P
   0.9301462300000000    0.9867806200000000    0.7168485400000000 P
   0.0698537700000000    0.0132193800000000    0.2831514600000000 P
   0.5641822100000000    0.8479297900000000    0.2933714700000000 P
   0.0698537700000000    0.4867806200000000    0.7831514600000000 P
   0.9301462300000000    0.5132193800000000    0.2168485400000000 P
   0.4358177900000000    0.1520702100000000    0.7066285300000000 P
   0.9002353500000000    0.8891131600000000    0.3320260100000000 O
   0.0408656600000000    0.4863573300000000    0.6383924600000001 O
   0.9591343400000000    0.5136426700000000    0.3616075400000000 O
   0.5016928100000000    0.2521242600000000    0.6128188700000000 O
   0.0408656600000000    0.0136426700000000    0.1383924600000000 O
   0.9818308900000000    0.3768600000000000    0.8560510000000000 O
   0.4983071900000000    0.7521242600000000    0.8871811300000000 O
   0.6035750500000000    0.0267683100000000    0.6685089000000000 O
   0.0997646500000000    0.1108868400000000    0.6679739900000000 O
   0.4983071900000000    0.7478757400000000    0.3871811300000000 O
   0.4691342000000000    0.3269165500000000    0.3487629300000000 O
   0.9591343400000000    0.9863573300000000    0.8616075399999999 O
   0.5308658000000001    0.8269165500000000    0.1512370700000000 O
   0.0181691100000000    0.6231400000000000    0.1439490000000000 O
   0.9002353500000000    0.6108868400000000    0.8320260100000000 O
   0.6035750500000000    0.4732316900000000    0.1685089000000000 O
   0.0181691100000000    0.8768600000000000    0.6439490000000000 O
   0.5308658000000001    0.6730834500000000    0.6512370700000000 O
   0.0997646500000000    0.3891131600000000    0.1679739900000000 O
   0.3964249500000000    0.9732316900000000    0.3314911000000000 O
   0.5016928100000000    0.2478757400000000    0.1128188700000000 O
   0.3964249500000000    0.5267683100000000    0.8314911000000000 O
   0.9818308900000000    0.1231400000000000    0.3560510000000000 O
   0.4691342000000000    0.1730834500000000    0.8487629300000000 O
