Na4 W2 O8
1.0
   0.0000000000000000    4.5180688299999998    4.5180688299999998
   4.5180688299999998    0.0000000000000000    4.5180688299999998
   4.5180688299999998    4.5180688299999998    0.0000000000000000
Na W O
4 2 8
direct
   0.1250000000000000    0.1250000000000000    0.1250000000000000 Na
   0.6250000000000000    0.1250000000000000    0.1250000000000000 Na
   0.1250000000000000    0.1250000000000000    0.6250000000000000 Na
   0.1250000000000000    0.6250000000000000    0.1250000000000000 Na
   0.5000000000000000    0.5000000000000000    0.5000000000000000 W
   0.7500000000000000    0.7500000000000000    0.7500000000000000 W
   0.8646844400000000    0.4059466700000000    0.8646844400000000 O
   0.3853155600000000    0.3853155600000000    0.8440533300000000 O
   0.3853155600000000    0.3853155600000000    0.3853155600000000 O
   0.8440533300000000    0.3853155600000000    0.3853155600000000 O
   0.8646844400000000    0.8646844400000000    0.8646844400000000 O
   0.4059466700000000    0.8646844400000000    0.8646844400000000 O
   0.3853155600000000    0.8440533300000000    0.3853155600000000 O
   0.8646844400000000    0.8646844400000000    0.4059466700000000 O
