Bi6 Sb2 O14
1.0
   6.5895684899999996   -0.0620126500000000    0.0090774300000000
   1.5127778800000000    6.6857051900000002    0.0157078600000000
   0.0542578100000000    2.1626390700000000    7.3204270600000001
Bi Sb O
6 2 14
direct
   0.4745951800000000    0.0080971200000000    0.2548853800000000 Bi
   0.5254048200000000    0.9919028800000000    0.7451146199999999 Bi
   0.7361178200000000    0.5172437400000000    0.1192023800000000 Bi
   0.2638821800000000    0.4827562600000000    0.8807976199999999 Bi
   0.2581033700000000    0.5225656500000000    0.3752736700000000 Bi
   0.7418966299999999    0.4774343500000000    0.6247263300000000 Bi
   0.0000000000000000    0.0000000000000000    0.5000000000000000 Sb
   0.0000000000000000    0.0000000000000000    0.0000000000000000 Sb
   0.5380773599999999    0.6261286700000001    0.8219505600000000 O
   0.4619226400000000    0.3738713300000000    0.1780494400000000 O
   0.7176457200000000    0.9518108900000000    0.0510775600000000 O
   0.2823542800000000    0.0481891100000000    0.9489224400000000 O
   0.7251379500000000    0.9275271200000000    0.4820888000000000 O
   0.2748620500000000    0.0724728800000000    0.5179112000000000 O
   0.4677403200000000    0.3455838100000000    0.6399053900000000 O
   0.5322596800000000    0.6544161900000000    0.3600946100000000 O
   0.0956356600000000    0.6927032400000001    0.0375350900000000 O
   0.9043643400000000    0.3072967600000000    0.9624649100000000 O
   0.8881910600000000    0.3042278000000000    0.3840319200000000 O
   0.1118089400000000    0.6957722000000000    0.6159680800000000 O
   0.0956613300000000    0.9269281900000000    0.2685771200000000 O
   0.9043386700000000    0.0730718100000000    0.7314228800000000 O
