Sc2 V2 O8
1.0
  -3.3840640400000002    3.3840640400000002    3.0356340799999999
   3.3840640400000002   -3.3840640400000002    3.0356340799999999
   3.3840640400000002    3.3840640400000002   -3.0356340799999999
Sc V O
2 2 8
direct
   0.0000000000000000    0.0000000000000000    0.0000000000000000 Sc
   0.7500000000000000    0.2500000000000000    0.5000000000000000 Sc
   0.2500000000000000    0.7500000000000000    0.5000000000000000 V
   0.5000000000000000    0.5000000000000000    0.0000000000000000 V
   0.6261459400000000    0.9326685400000000    0.6934774000000000 O
   0.6826685400000000    0.8761459400000000    0.1934774000000000 O
   0.6826685400000000    0.4891911500000000    0.8065226000000000 O
   0.2391911500000000    0.9326685400000000    0.3065226000000000 O
   0.1238540600000000    0.3173314600000000    0.8065226000000000 O
   0.0673314600000000    0.3738540600000000    0.3065226000000000 O
   0.0673314600000000    0.7608088500000000    0.6934774000000000 O
   0.5108088500000000    0.3173314600000000    0.1934774000000000 O
