Ba1 Li2 Mg1 P2 O8
1.0
   5.0430965800000003    0.0000003100000000    0.0000000000000000
  -2.5215480700000001    4.3674489999999997    0.0000000000000000
   0.0000000000000000    0.0000000000000000    7.0622833299999996
Ba Li Mg P O
1 2 1 2 8
direct
   0.0000000000000000    0.0000000000000000    0.5000000000000000 Ba
   0.6666670000000000    0.3333330000000000    0.2386369000000000 Li
   0.3333330000000000    0.6666670000000000    0.7613631000000000 Li
   0.0000000000000000    0.0000000000000000    0.0000000000000000 Mg
   0.6666670000000000    0.3333330000000000    0.7497251700000001 P
   0.3333330000000000    0.6666670000000000    0.2502748300000000 P
   0.6666670000000000    0.3333330000000000    0.5307176800000000 O
   0.3333330000000000    0.6666670000000000    0.4692823200000000 O
   0.3580295500000000    0.2968576600000000    0.8202575700000000 O
   0.9388271100000000    0.6419704500000000    0.8202575700000000 O
   0.7031423400000000    0.0611728900000000    0.8202575700000000 O
   0.6419704500000000    0.7031423400000000    0.1797424300000000 O
   0.0611728900000000    0.3580295500000000    0.1797424300000000 O
   0.2968576600000000    0.9388271100000000    0.1797424300000000 O
