Cs12 As4 O16
1.0
  12.4379437500000005    0.0000000000000000    0.0000000000000000
   0.0000000000000000    8.9809691899999997    0.0000000000000000
   0.0000000000000000    0.0000000000000000    6.5932648199999999
Cs As O
12 4 16
direct
   0.6453751100000000    0.9931445700000000    0.1904504600000000 Cs
   0.0738217100000000    0.7500000000000000    0.8588832199999999 Cs
   0.5738217100000000    0.7500000000000000    0.6411167800000001 Cs
   0.9261782900000000    0.2500000000000000    0.1411167800000000 Cs
   0.4261782900000000    0.2500000000000000    0.3588832200000000 Cs
   0.8546248900000000    0.0068554300000000    0.6904504600000000 Cs
   0.3546248900000000    0.4931445700000000    0.8095495400000000 Cs
   0.1453751100000000    0.5068554300000000    0.3095495400000000 Cs
   0.3546248900000000    0.0068554300000000    0.8095495400000000 Cs
   0.1453751100000000    0.9931445700000000    0.3095495400000000 Cs
   0.6453751100000000    0.5068554300000000    0.1904504600000000 Cs
   0.8546248900000000    0.4931445700000000    0.6904504600000000 Cs
   0.8869962500000000    0.7500000000000000    0.2746824000000000 As
   0.1130037500000000    0.2500000000000000    0.7253176000000000 As
   0.6130037500000000    0.2500000000000000    0.7746824000000000 As
   0.3869962500000000    0.7500000000000000    0.2253176000000000 As
   0.6076775000000000    0.4080806300000000    0.6270229800000000 O
   0.8923225000000000    0.5919193699999999    0.1270229800000000 O
   0.3923225000000000    0.9080806300000001    0.3729770200000000 O
   0.1076775000000000    0.0919193700000000    0.8729770200000000 O
   0.3923225000000000    0.5919193699999999    0.3729770200000000 O
   0.1076775000000000    0.4080806300000000    0.8729770200000000 O
   0.6076775000000000    0.0919193700000000    0.6270229800000000 O
   0.8923225000000000    0.9080806300000001    0.1270229800000000 O
   0.4937505700000000    0.7500000000000000    0.0572431300000000 O
   0.7694430799999999    0.7500000000000000    0.4144544300000000 O
   0.5062494300000000    0.2500000000000000    0.9427568700000000 O
   0.9937505700000000    0.7500000000000000    0.4427568700000000 O
   0.2694430800000000    0.7500000000000000    0.0855455700000000 O
   0.2305569200000000    0.2500000000000000    0.5855455700000000 O
   0.7305569200000001    0.2500000000000000    0.9144544300000000 O
   0.0062494300000000    0.2500000000000000    0.5572431300000000 O
