Na6 Ga2 B8 O18
1.0
   6.1841361199999998    0.0000000000000000   -0.0183721800000000
   0.0000000000000000    8.6792725500000003    0.0000000000000000
  -1.0809604200000000    0.0000000000000000    6.7022282200000003
Na Ga B O
6 2 8 18
direct
   0.7498283600000000    0.4659903000000000    0.8242373800000000 Na
   0.7498283600000000    0.0340097000000000    0.8242373800000000 Na
   0.5763455000000000    0.7500000000000000    0.5028948200000000 Na
   0.4236545000000000    0.2500000000000000    0.4971051800000000 Na
   0.2501716400000000    0.9659903000000000    0.1757626200000000 Na
   0.2501716400000000    0.5340097000000000    0.1757626200000000 Na
   0.7899833300000000    0.7500000000000000    0.1329994700000000 Ga
   0.2100166700000000    0.2500000000000000    0.8670005300000000 Ga
   0.9832636200000000    0.7500000000000000    0.7789814700000000 B
   0.8765140700000000    0.2500000000000000    0.5294296600000000 B
   0.7524721700000000    0.4556350500000000    0.2812694200000000 B
   0.7524721700000000    0.0443649500000000    0.2812694200000000 B
   0.2475278300000000    0.9556350500000000    0.7187305800000000 B
   0.2475278300000000    0.5443649500000000    0.7187305800000000 B
   0.1234859300000000    0.7500000000000000    0.4705703400000000 B
   0.0167363800000000    0.2500000000000000    0.2210185300000000 B
   0.8838862300000000    0.3923180900000000    0.1554219900000000 O
   0.8838862300000000    0.1076819100000000    0.1554219900000000 O
   0.9319904700000000    0.7500000000000000    0.5638842300000000 O
   0.9235749400000000    0.2500000000000000    0.7440277300000000 O
   0.7328061400000000    0.3893714000000000    0.4619628300000000 O
   0.7328061400000000    0.1106286000000000    0.4619628300000000 O
   0.7788456900000000    0.7500000000000000    0.8611005500000000 O
   0.6326272500000000    0.9130163800000000    0.2204963400000000 O
   0.6326272500000000    0.5869836200000000    0.2204963400000000 O
   0.3673727500000000    0.0869836200000000    0.7795036600000000 O
   0.3673727500000000    0.4130163800000000    0.7795036600000000 O
   0.2211543100000000    0.2500000000000000    0.1388994500000000 O
   0.2671938600000000    0.8893714000000000    0.5380371700000000 O
   0.2671938600000000    0.6106286000000000    0.5380371700000000 O
   0.0764250600000000    0.7500000000000000    0.2559722700000000 O
   0.0680095300000000    0.2500000000000000    0.4361157700000000 O
   0.1161137700000000    0.8923180900000000    0.8445780100000000 O
   0.1161137700000000    0.6076819100000000    0.8445780100000000 O
