Ca1 Hg1 O2
1.0
   1.7800285899999999    1.0276998200000000    6.2194219899999998
  -1.7800285899999999    1.0276998200000000    6.2194219899999998
   0.0000000000000000   -2.0554006399999998    6.2194219899999998
Ca Hg O
1 1 2
direct
   0.5000000000000000    0.5000000000000000    0.5000000000000000 Ca
   0.0000000000000000    0.0000000000000000    0.0000000000000000 Hg
   0.1059978000000000    0.1059978000000000    0.1059978000000000 O
   0.8940022000000000    0.8940022000000000    0.8940022000000000 O
