Ba4 Li4 B4 S12
1.0
   7.4966727000000004    0.0000000000000000    0.0202212200000000
   0.0000000000000000    8.6277459600000004    0.0000000000000000
  -3.7969477100000000    0.0000000000000000    7.7404508900000000
Ba Li B S
4 4 4 12
direct
   0.3112529500000000    0.1317427400000000    0.6890643500000000 Ba
   0.3112529500000000    0.3682572600000000    0.1890643500000000 Ba
   0.6887470500000000    0.8682572600000000    0.3109356500000000 Ba
   0.6887470500000000    0.6317427400000000    0.8109356500000000 Ba
   0.8861070900000000    0.0754088800000000    0.7951484200000000 Li
   0.1138929100000000    0.5754088800000000    0.7048515800000000 Li
   0.8861070900000000    0.4245911200000000    0.2951484200000000 Li
   0.1138929100000000    0.9245911200000000    0.2048515800000000 Li
   0.2296383700000000    0.8415413100000000    0.9201484500000000 B
   0.2296383700000000    0.6584586900000000    0.4201484500000000 B
   0.7703616300000000    0.3415413100000000    0.5798515500000000 B
   0.7703616300000000    0.1584586900000000    0.0798515500000000 B
   0.6149697000000000    0.1702768400000000    0.5094327500000000 S
   0.0129387900000000    0.8450922300000000    0.7092614900000000 S
   0.9870612100000000    0.1549077700000000    0.2907385100000000 S
   0.3850303000000000    0.8297231600000000    0.4905672500000000 S
   0.9870612100000000    0.3450922300000000    0.7907385100000000 S
   0.7120748000000000    0.9813587900000000    0.9532266700000001 S
   0.2879252000000000    0.0186412100000000    0.0467733300000000 S
   0.7120748000000000    0.5186412100000000    0.4532266700000000 S
   0.6149697000000000    0.3297231600000000    0.0094327500000000 S
   0.2879252000000000    0.4813587900000000    0.5467733299999999 S
   0.3850303000000000    0.6702768400000000    0.9905672500000000 S
   0.0129387900000000    0.6549077700000000    0.2092614900000000 S
