Ba2 Sn2 Hg2 S8
1.0
  10.8641393700000002    0.0000000000000000    0.0000000000000000
   0.0000000000000000    5.3988041300000003    3.3044219199999998
   0.0000000000000000   -5.3988041300000003    3.3044219199999998
Ba Sn Hg S
2 2 2 8
direct
   0.5000000000000000    0.9493212200000000    0.9493212200000000 Ba
   0.0000000000000000    0.9493212200000000    0.9493212200000000 Ba
   0.7500000000000000    0.2499772000000000    0.6764219800000000 Sn
   0.2500000000000000    0.6764219800000000    0.2499772000000000 Sn
   0.7500000000000000    0.6713811400000000    0.3346925500000000 Hg
   0.2500000000000000    0.3346925500000000    0.6713811400000000 Hg
   0.5789670900000000    0.9950969500000000    0.4664874200000000 S
   0.4210329100000000    0.4664874200000000    0.9950969500000000 S
   0.7500000000000000    0.6543990900000000    0.7601131100000000 S
   0.2500000000000000    0.7601131100000000    0.6543990900000000 S
   0.9210329100000000    0.9950969500000000    0.4664874200000000 S
   0.0789670900000000    0.4664874200000000    0.9950969500000000 S
   0.7500000000000000    0.2492584200000000    0.0627453500000000 S
   0.2500000000000000    0.0627453500000000    0.2492584200000000 S
