Hg12 P4 O16
1.0
   7.9394923500000001    0.0000000000000000    0.0111776300000000
   0.0000000000000000    8.1746719799999994    0.0000000000000000
  -4.8417262799999996    0.0000000000000000    8.7202346100000003
Hg P O
12 4 16
direct
   0.4428644800000000    0.2215926500000000    0.4340312600000000 Hg
   0.8702123500000000    0.3911941200000000    0.4680728800000000 Hg
   0.8497975900000000    0.9496593600000000    0.6159150200000000 Hg
   0.1297876500000000    0.6088058800000000    0.5319271200000000 Hg
   0.8497975900000000    0.5503406400000000    0.1159150200000000 Hg
   0.1297876500000000    0.8911941200000000    0.0319271200000000 Hg
   0.4428644800000000    0.2784073500000000    0.9340312600000000 Hg
   0.1502024100000000    0.0503406400000000    0.3840849800000000 Hg
   0.5571355200000000    0.7215926499999999    0.0659687400000000 Hg
   0.5571355200000000    0.7784073500000001    0.5659687400000000 Hg
   0.8702123500000000    0.1088058800000000    0.9680728800000000 Hg
   0.1502024100000000    0.4496593600000000    0.8840849800000000 Hg
   0.7042411100000000    0.0633536500000000    0.2462778200000000 P
   0.7042411100000000    0.4366463500000000    0.7462778200000000 P
   0.2957588900000000    0.9366463500000000    0.7537221800000000 P
   0.2957588900000000    0.5633536500000000    0.2537221800000000 P
   0.2656937800000000    0.8159807500000000    0.8610604300000000 O
   0.7343062200000000    0.3159807500000000    0.6389395700000000 O
   0.2656937800000000    0.6840192500000000    0.3610604300000000 O
   0.4849518200000000    0.0328614000000000    0.8334451899999999 O
   0.5150481800000000    0.5328614000000000    0.6665548100000001 O
   0.2952343800000000    0.8339165400000000    0.6193634600000000 O
   0.5150481800000000    0.9671386000000000    0.1665548100000000 O
   0.8771254400000000    0.5595676300000000    0.8195687000000000 O
   0.7047656200000000    0.3339165400000000    0.8806365400000000 O
   0.7343062200000000    0.1840192500000000    0.1389395700000000 O
   0.7047656200000000    0.1660834600000000    0.3806365400000000 O
   0.4849518200000000    0.4671386000000000    0.3334451900000000 O
   0.8771254400000000    0.9404323700000000    0.3195687000000000 O
   0.1228745600000000    0.0595676300000000    0.6804313000000000 O
   0.2952343800000000    0.6660834600000000    0.1193634600000000 O
   0.1228745600000000    0.4404323700000000    0.1804313000000000 O
