As8 Pb4 O16
1.0
   7.0388981599999996    0.0000000000000000    0.0001447900000000
   0.0000000000000000   11.7043522000000006    0.0000000000000000
  -2.1945034300000001    0.0000000000000000    5.6370630600000000
As Pb O
8 4 16
direct
   0.7244369899999999    0.0813255500000000    0.2901737900000000 As
   0.2755630100000000    0.5813255500000000    0.2098262100000000 As
   0.2755630100000000    0.9186744500000000    0.7098262100000000 As
   0.7244369899999999    0.4186744500000000    0.7901737900000000 As
   0.3804557700000000    0.1449014700000000    0.4886594400000000 As
   0.6195442300000000    0.6449014700000000    0.0113405600000000 As
   0.6195442300000000    0.8550985300000000    0.5113405600000001 As
   0.3804557700000000    0.3550985300000000    0.9886594399999999 As
   0.9914231800000000    0.3509506100000000    0.4023322800000000 Pb
   0.0085768200000000    0.8509506100000001    0.0976677200000000 Pb
   0.0085768200000000    0.6490493899999999    0.5976677200000000 Pb
   0.9914231800000000    0.1490493900000000    0.9023322800000000 Pb
   0.4552970900000000    0.0828247800000000    0.2485160300000000 O
   0.5447029100000000    0.5828247800000000    0.2514839700000000 O
   0.5447029100000000    0.9171752200000000    0.7514839700000000 O
   0.4552970900000000    0.4171752200000000    0.7485160300000000 O
   0.1992920800000000    0.0288248000000000    0.4761079200000000 O
   0.8007079200000000    0.5288248000000000    0.0238920800000000 O
   0.8007079200000000    0.9711752000000000    0.5238920800000000 O
   0.1992920800000000    0.4711752000000000    0.9761079200000000 O
   0.8112397099999999    0.1998264300000000    0.4820010900000000 O
   0.1887602900000000    0.6998264300000000    0.0179989100000000 O
   0.1887602900000000    0.8001735700000000    0.5179989100000000 O
   0.8112397099999999    0.3001735700000000    0.9820010900000000 O
   0.1957101100000000    0.2664159000000000    0.7857419700000000 O
   0.8042898900000000    0.7664159000000000    0.7142580300000000 O
   0.8042898900000000    0.7335841000000000    0.2142580300000000 O
   0.1957101100000000    0.2335841000000000    0.2857419700000000 O
