Bi2 As2 O8
1.0
  -2.5514805300000001    2.5514805200000001    5.8128644300000003
   2.5514805300000001   -2.5514805200000001    5.8128644300000003
   2.5514805200000001    2.5514805300000001   -5.8128644300000003
Bi As O
2 2 8
direct
   0.2500000000000000    0.7500000000000000    0.5000000000000000 Bi
   0.5000000000000000    0.5000000000000000    0.0000000000000000 Bi
   0.7500000000000000    0.2500000000000000    0.5000000000000000 As
   0.0000000000000000    0.0000000000000000    0.0000000000000000 As
   0.5266437300000000    0.4180047700000000    0.6024736700000000 O
   0.2233562700000000    0.8319952300000000    0.8975263300000000 O
   0.5819952300000000    0.1844699000000000    0.1086389600000000 O
   0.8155301000000000    0.9241690600000000    0.3975263300000000 O
   0.6741690600000000    0.7766437300000000    0.6086389600000000 O
   0.0758309400000000    0.4733562700000000    0.8913610400000000 O
   0.9344699000000000    0.3258309400000000    0.1024736700000000 O
   0.1680047700000000    0.0655301000000000    0.3913610400000000 O
