Rb8 P4 Se18
1.0
   4.8092662900000001   -5.1984853099999997    0.0192826200000000
   4.8092662900000001    5.1984853099999997    0.0192826200000000
  -1.0041636199999999    0.0000000000000000   19.1138719500000001
Rb P Se
8 4 18
direct
   0.2228885000000000    0.7129008000000000    0.5264194900000000 Rb
   0.7771115000000000    0.2870992000000000    0.4735805100000000 Rb
   0.4334493100000000    0.2479440100000000    0.6796907900000000 Rb
   0.5665506900000000    0.7520559900000000    0.3203092100000000 Rb
   0.7520559900000000    0.5665506900000000    0.8203092100000000 Rb
   0.7129008000000000    0.2228885000000000    0.0264194900000000 Rb
   0.2870992000000000    0.7771115000000000    0.9735805100000000 Rb
   0.2479440100000000    0.4334493100000000    0.1796907900000000 Rb
   0.7472329400000000    0.7284179500000000    0.6182188000000000 P
   0.2715820500000000    0.2527670600000000    0.8817812000000000 P
   0.2527670600000000    0.2715820500000000    0.3817812000000000 P
   0.7284179500000000    0.7472329400000000    0.1182188000000000 P
   0.0380330100000000    0.0095113900000000    0.3537070000000000 Se
   0.4701959300000000    0.8808067000000001    0.1421697900000000 Se
   0.9619669900000000    0.9904886100000000    0.6462930000000000 Se
   0.4966672400000000    0.7563476500000000    0.6793233300000000 Se
   0.7265695200000000    0.7895107500000000    0.5067684300000000 Se
   0.2734304800000000    0.2104892500000000    0.4932315700000000 Se
   0.5298040700000000    0.1191933000000000    0.8578302100000000 Se
   0.9904886100000000    0.9619669900000000    0.1462930000000000 Se
   0.2436523500000000    0.5033327600000000    0.8206766700000000 Se
   0.0095113900000000    0.0380330100000000    0.8537070000000000 Se
   0.7895107500000000    0.7265695200000000    0.0067684300000000 Se
   0.5033327600000000    0.2436523500000000    0.3206766700000000 Se
   0.7563476500000000    0.4966672400000000    0.1793233300000000 Se
   0.2104892500000000    0.2734304800000000    0.9932315700000000 Se
   0.1083465600000000    0.8916534400000000    0.7500000000000000 Se
   0.8808067000000001    0.4701959300000000    0.6421697900000000 Se
   0.1191933000000000    0.5298040700000000    0.3578302100000000 Se
   0.8916534400000000    0.1083465600000000    0.2500000000000000 Se
