Ba2 Cu4 O4
1.0
  -2.8322945300000000    2.8322945300000000    5.0276953799999999
   2.8322945300000000   -2.8322945300000000    5.0276953799999999
   2.8322945300000000    2.8322945300000000   -5.0276953799999999
Ba Cu O
2 4 4
direct
   0.0000000000000000    0.0000000000000000    0.0000000000000000 Ba
   0.7500000000000000    0.2500000000000000    0.5000000000000000 Ba
   0.3750000000000000    0.6250000000000000    0.2500000000000000 Cu
   0.8750000000000000    0.6250000000000000    0.2500000000000000 Cu
   0.3750000000000000    0.1250000000000000    0.7500000000000000 Cu
   0.3750000000000000    0.6250000000000000    0.7500000000000000 Cu
   0.7379442400000000    0.7379442400000000    0.0000000000000000 O
   0.4879442400000000    0.9879442400000000    0.5000000000000000 O
   0.0120557600000000    0.5120557600000000    0.5000000000000000 O
   0.2620557600000000    0.2620557600000000    0.0000000000000000 O
