Na4 Sr4 B4 O12
1.0
   5.2983131800000001    0.0000000000000000   -0.0136379100000000
   0.0000000000000000    9.1858675600000002    0.0000000000000000
  -1.0873175399999999    0.0000000000000000    5.8938026199999998
Na Sr B O
4 4 4 12
direct
   0.7432632900000000    0.7586765600000001    0.9639194000000000 Na
   0.2567367100000000    0.2586765600000000    0.5360806000000000 Na
   0.2567367100000000    0.2413234400000000    0.0360806000000000 Na
   0.7432632900000000    0.7413234399999999    0.4639194000000000 Na
   0.2461216100000000    0.5856659400000001    0.2156637600000000 Sr
   0.7538783900000000    0.0856659400000000    0.2843362400000000 Sr
   0.7538783900000000    0.4143340600000000    0.7843362400000000 Sr
   0.2461216100000000    0.9143340599999999    0.7156637600000000 Sr
   0.7523798500000000    0.0810029500000000    0.7619950700000000 B
   0.7523798500000000    0.4189970500000000    0.2619950700000000 B
   0.2476201500000000    0.5810029500000000    0.7380049300000000 B
   0.2476201500000000    0.9189970500000000    0.2380049300000000 B
   0.2734652900000000    0.0616651300000000    0.3137507900000000 O
   0.9626506900000000    0.3411554600000000    0.2188448300000000 O
   0.7265347100000000    0.9383348700000000    0.6862492100000001 O
   0.4308379800000000    0.8542409300000000    0.1328974300000000 O
   0.5691620200000000    0.3542409300000000    0.3671025700000000 O
   0.4308379800000000    0.6457590700000000    0.6328974300000000 O
   0.5691620200000000    0.1457590700000000    0.8671025700000000 O
   0.2734652900000000    0.4383348700000000    0.8137507899999999 O
   0.0373493100000000    0.6588445400000000    0.7811551700000000 O
   0.0373493100000000    0.8411554600000000    0.2811551700000000 O
   0.9626506900000000    0.1588445400000000    0.7188448300000000 O
   0.7265347100000000    0.5616651300000000    0.1862492100000000 O
