Hf2 S6
1.0
   5.0687239599999998    0.0000000000000000   -0.0244170600000000
   0.0000000000000000    3.6310190499999999    0.0000000000000000
  -1.0675350600000000    0.0000000000000000    9.0160546499999992
Hf S
2 6
direct
   0.2834678900000000    0.7500000000000000    0.6538033900000000 Hf
   0.7165321100000001    0.2500000000000000    0.3461966100000000 Hf
   0.8846871900000000    0.7500000000000000    0.1723209100000000 S
   0.1153128100000000    0.2500000000000000    0.8276790900000000 S
   0.2384514600000000    0.2500000000000000    0.4470026000000000 S
   0.7615485400000001    0.7500000000000000    0.5529974000000000 S
   0.5287530499999999    0.2500000000000000    0.8273945100000000 S
   0.4712469500000000    0.7500000000000000    0.1726054900000000 S
