Sc2 P2 O8
1.0
  -3.2824697500000002    3.2824697500000002    2.8759315399999998
   3.2824697500000002   -3.2824697500000002    2.8759315399999998
   3.2824697500000002    3.2824697500000002   -2.8759315399999998
Sc P O
2 2 8
direct
   0.7500000000000000    0.2500000000000000    0.5000000000000000 Sc
   0.0000000000000000    0.0000000000000000    0.0000000000000000 Sc
   0.5000000000000000    0.5000000000000000    0.0000000000000000 P
   0.2500000000000000    0.7500000000000000    0.5000000000000000 P
   0.0784756800000000    0.7594919400000000    0.6810162600000000 O
   0.1474584200000000    0.3284756800000000    0.8189837400000000 O
   0.5094919400000000    0.3284756800000000    0.1810162600000000 O
   0.0784756800000000    0.3974584200000000    0.3189837400000000 O
   0.6025415800000000    0.9215243200000000    0.6810162600000000 O
   0.6715243200000000    0.4905080600000000    0.8189837400000000 O
   0.6715243200000000    0.8525415800000000    0.1810162600000000 O
   0.2405080600000000    0.9215243200000000    0.3189837400000000 O
