Li4 In4 Si2 S12
1.0
   6.0488853200000001   -3.5005764699999999   -0.0383803300000000
   6.0488853200000001    3.5005764699999999   -0.0383803300000000
  -4.1322170299999996    0.0000000000000000   11.3315069200000007
Li In Si S
4 4 2 12
direct
   0.0156027300000000    0.4046794700000000    0.1622929100000000 Li
   0.4046794700000000    0.0156027300000000    0.6622929100000000 Li
   0.6022495000000000    0.3945036600000000    0.4997950100000000 Li
   0.3945036600000000    0.6022495000000000    0.9997950100000000 Li
   0.9214812999999999    0.1239508200000000    0.8123289400000000 In
   0.1239508200000000    0.9214812999999999    0.3123289400000000 In
   0.9161343500000000    0.7690179000000000    0.5077145300000000 In
   0.7690179000000000    0.9161343500000000    0.0077145300000000 In
   0.0065537500000000    0.5427895200000000    0.7506573200000000 Si
   0.5427895200000000    0.0065537500000000    0.2506573200000000 Si
   0.7680625599999999    0.2684318900000000    0.9976517800000000 S
   0.2684318900000000    0.7680625599999999    0.4976517800000000 S
   0.1283036200000000    0.6593429300000000    0.1190332700000000 S
   0.6593429300000000    0.1283036200000000    0.6190332700000000 S
   0.2062426500000000    0.7151895400000000    0.8022788100000000 S
   0.7151895400000000    0.2062426500000000    0.3022788100000000 S
   0.6856073000000000    0.7250083000000000    0.7982064000000000 S
   0.7250083000000000    0.6856073000000000    0.2982064000000000 S
   0.2071486000000000    0.2556319800000000    0.8327318000000000 S
   0.2556319800000000    0.2071486000000000    0.3327318000000000 S
   0.9636306600000000    0.4296769700000000    0.5646102400000000 S
   0.4296769700000000    0.9636306600000000    0.0646102400000000 S
