Ca4 As2 O1
1.0
  -2.2506169100000002    2.2506169100000002    7.6331430899999999
   2.2506169100000002   -2.2506169100000002    7.6331430899999999
   2.2506169100000002    2.2506169100000002   -7.6331430899999999
Ca As O
4 2 1
direct
   0.6711496700000000    0.6711496700000000    0.0000000000000000 Ca
   0.3288503300000000    0.3288503300000000    0.0000000000000000 Ca
   0.0000000000000000    0.5000000000000000    0.5000000000000000 Ca
   0.5000000000000000    0.0000000000000000    0.5000000000000000 Ca
   0.8629574300000000    0.8629574300000000    0.0000000000000000 As
   0.1370425700000000    0.1370425700000000    0.0000000000000000 As
   0.5000000000000000    0.5000000000000000    0.0000000000000000 O
