Si2 Hg6 O7
1.0
   5.9201490200000002   -3.7963586999999999    0.0764470500000000
   5.9201490200000002    3.7963586999999999    0.0764470500000000
  -2.2542422100000001    0.0000000000000000    5.5965750900000000
Si Hg O
2 6 7
direct
   0.3528474900000000    0.3528474900000000    0.8987718800000000 Si
   0.6471525100000000    0.6471525100000000    0.1012281200000000 Si
   0.8782371100000000    0.3535918100000000    0.5835321200000000 Hg
   0.6464081900000000    0.1217628900000000    0.4164678800000000 Hg
   0.1217628900000000    0.6464081900000000    0.4164678800000000 Hg
   0.3535918100000000    0.8782371100000000    0.5835321200000000 Hg
   0.8853217500000000    0.8853217500000000    0.9526284600000000 Hg
   0.1146782500000000    0.1146782500000000    0.0473715400000000 Hg
   0.5000000000000000    0.5000000000000000    0.0000000000000000 O
   0.1276440700000000    0.4861508400000000    0.7382949000000000 O
   0.5138491600000000    0.8723559300000000    0.2617051000000000 O
   0.8723559300000000    0.5138491600000000    0.2617051000000000 O
   0.4861508400000000    0.1276440700000000    0.7382949000000000 O
   0.6931138800000000    0.6931138800000000    0.8723548200000000 O
   0.3068861200000000    0.3068861200000000    0.1276451800000000 O
