Al6 V6 O24
1.0
   6.5629592800000003    0.0010403900000000    0.0022575600000000
  -1.5494858000000000    7.6107776999999999    0.0103762100000000
  -2.7369428000000000   -1.5436495800000001    8.6084629800000005
Al V O
6 6 24
direct
   0.7489956300000000    0.6990914900000000    0.4082641500000000 Al
   0.2510043700000000    0.3009085100000000    0.5917358500000000 Al
   0.4609660500000000    0.8826219800000000    0.2098424400000000 Al
   0.5390339500000000    0.1173780200000000    0.7901575600000000 Al
   0.9625591000000000    0.3071136100000000    0.0071203500000000 Al
   0.0374409000000000    0.6928863900000000    0.9928796500000000 Al
   0.0029258900000000    0.9945355900000000    0.2554770800000000 V
   0.9970741100000000    0.0054644100000000    0.7445229200000000 V
   0.1953682900000000    0.6022960600000000    0.3429345400000000 V
   0.8046317100000000    0.3977039400000000    0.6570654600000000 V
   0.5168300500000000    0.3005771700000000    0.1242947000000000 V
   0.4831699500000000    0.6994228300000001    0.8757053000000000 V
   0.0497535800000000    0.8505289200000000    0.8538939600000000 O
   0.9502464200000000    0.1494710800000000    0.1461060400000000 O
   0.8424862000000000    0.1331210500000000    0.8245501800000000 O
   0.1575138000000000    0.8668789500000000    0.1754498200000000 O
   0.9515095300000000    0.4770953200000000    0.8586562700000000 O
   0.0484904700000000    0.5229046800000000    0.1413437300000000 O
   0.7490250899999999    0.7039660700000000    0.9693686700000000 O
   0.2509749100000000    0.2960339300000000    0.0306313300000000 O
   0.6466567800000000    0.2732971700000000    0.9758416800000000 O
   0.3533432200000000    0.7267028300000000    0.0241583200000000 O
   0.4770296300000000    0.8821051900000000    0.7847885800000000 O
   0.5229703700000000    0.1178948100000000    0.2152114200000000 O
   0.6424247900000000    0.4918281600000000    0.2543753600000000 O
   0.3575752100000000    0.5081718400000000    0.7456246399999999 O
   0.2562510100000000    0.4353357500000000    0.4344151700000000 O
   0.7437489900000001    0.5646642500000000    0.5655848300000000 O
   0.0417140400000000    0.7036358900000000    0.4249660000000000 O
   0.9582859600000000    0.2963641100000000    0.5750340000000000 O
   0.1601930400000000    0.0984104600000000    0.4328523900000000 O
   0.8398069600000000    0.9015895400000000    0.5671476100000000 O
   0.4585711100000000    0.7431220600000000    0.3619857100000000 O
   0.5414288900000001    0.2568779400000000    0.6380142900000000 O
   0.7498838100000000    0.8640520699999999    0.2636945800000000 O
   0.2501161900000000    0.1359479300000000    0.7363054200000000 O
