Rb1 Tl1 S2 O8
1.0
   2.4526886800000001    1.4160602499999999    8.6711582000000007
  -2.4526886800000001    1.4160602499999999    8.6711582000000007
   0.0000000000000000   -2.8321205100000002    8.6711582000000007
Rb Tl S O
1 1 2 8
direct
   0.0000000000000000    0.0000000000000000    0.0000000000000000 Rb
   0.5000000000000000    0.5000000000000000    0.5000000000000000 Tl
   0.2410796100000000    0.2410796100000000    0.2410796100000000 S
   0.7589203900000000    0.7589203900000000    0.7589203900000000 S
   0.2971266900000000    0.2971266900000000    0.2971266900000000 O
   0.7028733100000000    0.7028733100000000    0.7028733100000000 O
   0.0692365600000000    0.7723339700000000    0.4933539700000000 O
   0.9307634400000000    0.5066460300000000    0.2276660300000000 O
   0.5066460300000000    0.2276660300000000    0.9307634400000000 O
   0.4933539700000000    0.0692365600000000    0.7723339700000000 O
   0.7723339700000000    0.4933539700000000    0.0692365600000000 O
   0.2276660300000000    0.9307634400000000    0.5066460300000000 O
