Ca4 Ta8 O24
1.0
  11.1173342200000000    0.0000000000000000    0.0000000000000000
   0.0000000000000000    7.5241983599999998    0.0000000000000000
   0.0000000000000000    0.0000000000000000    5.3579683600000001
Ca Ta O
4 8 24
direct
   0.9566361900000000    0.7500000000000000    0.4549303700000000 Ca
   0.5433638100000000    0.2500000000000000    0.9549303700000000 Ca
   0.0433638100000000    0.2500000000000000    0.5450696300000000 Ca
   0.4566361900000000    0.7500000000000000    0.0450696300000000 Ca
   0.3607467800000000    0.4965181500000000    0.5482205000000000 Ta
   0.1392532200000000    0.5034818500000000    0.0482205000000000 Ta
   0.6392532200000000    0.9965181500000000    0.4517795000000000 Ta
   0.8607467800000000    0.0034818500000000    0.9517795000000000 Ta
   0.1392532200000000    0.9965181500000000    0.0482205000000000 Ta
   0.3607467800000000    0.0034818500000000    0.5482205000000000 Ta
   0.8607467800000000    0.4965181500000000    0.9517795000000000 Ta
   0.6392532200000000    0.5034818500000000    0.4517795000000000 Ta
   0.3792924100000000    0.2500000000000000    0.6669120700000000 O
   0.1207075900000000    0.7500000000000000    0.1669120700000000 O
   0.6207075900000000    0.7500000000000000    0.3330879300000000 O
   0.8792924100000000    0.2500000000000000    0.8330879300000000 O
   0.3550642700000000    0.7500000000000000    0.4425474000000000 O
   0.1449357300000000    0.2500000000000000    0.9425474000000000 O
   0.6449357300000000    0.2500000000000000    0.5574526000000000 O
   0.8550642700000000    0.7500000000000000    0.0574526000000000 O
   0.7128553000000000    0.4370752600000000    0.1257753400000000 O
   0.7871447000000000    0.5629247400000000    0.6257753400000000 O
   0.2871447000000000    0.9370752600000000    0.8742246600000000 O
   0.2128553000000000    0.0629247400000000    0.3742246600000000 O
   0.0227158500000000    0.9578010400000000    0.7690303000000001 O
   0.4772841500000000    0.0421989600000000    0.2690303000000000 O
   0.9772841500000000    0.4578010400000000    0.2309697000000000 O
   0.5227158500000000    0.5421989600000000    0.7309696999999999 O
   0.9772841500000000    0.0421989600000000    0.2309697000000000 O
   0.5227158500000000    0.9578010400000000    0.7309696999999999 O
   0.0227158500000000    0.5421989600000000    0.7690303000000001 O
   0.4772841500000000    0.4578010400000000    0.2690303000000000 O
   0.7871447000000000    0.9370752600000000    0.6257753400000000 O
   0.7128553000000000    0.0629247400000000    0.1257753400000000 O
   0.2128553000000000    0.4370752600000000    0.3742246600000000 O
   0.2871447000000000    0.5629247400000000    0.8742246600000000 O
