Cs4 Si4 Bi4 S16
1.0
   9.2676736999999996    0.0000000000000000   -0.0148256100000000
   0.0000000000000000    6.7823592599999998    0.0000000000000000
  -3.9833746699999999    0.0000000000000000   12.2837883199999993
Cs Si Bi S
4 4 4 16
direct
   0.4357585900000000    0.2434572200000000    0.6139748800000000 Cs
   0.5642414100000001    0.7434572200000000    0.8860251200000000 Cs
   0.5642414100000001    0.7565427800000000    0.3860251200000000 Cs
   0.4357585900000000    0.2565427800000000    0.1139748800000000 Cs
   0.1691801400000000    0.7428080300000000    0.6463785200000000 Si
   0.8308198600000000    0.2428080300000000    0.8536214800000000 Si
   0.8308198600000000    0.2571919700000000    0.3536214800000000 Si
   0.1691801400000000    0.7571919700000000    0.1463785200000000 Si
   0.9506345500000000    0.1669340300000000    0.6314078200000000 Bi
   0.0493654500000000    0.6669340300000000    0.8685921800000000 Bi
   0.0493654500000000    0.8330659700000000    0.3685921800000000 Bi
   0.9506345500000000    0.3330659700000000    0.1314078200000000 Bi
   0.1993825400000000    0.0223344900000000    0.2387076400000000 S
   0.9352731300000000    0.7802978400000000    0.5492861600000000 S
   0.2116262600000000    0.5271664300000000    0.2636713100000000 S
   0.9352731300000000    0.7197021600000000    0.0492861600000000 S
   0.3091795300000000    0.7504356900000000    0.5448866999999999 S
   0.8006174600000000    0.9776655100000000    0.7612923600000000 S
   0.6908204700000000    0.2504356900000000    0.9551133000000001 S
   0.0647268700000000    0.2197021600000000    0.4507138400000000 S
   0.3091795300000000    0.7495643100000000    0.0448867000000000 S
   0.7883737400000000    0.4728335700000000    0.7363286900000000 S
   0.7883737400000000    0.0271664300000000    0.2363286900000000 S
   0.6908204700000000    0.2495643100000000    0.4551133000000000 S
   0.1993825400000000    0.4776655100000000    0.7387076400000000 S
   0.2116262600000000    0.9728335700000000    0.7636713100000000 S
   0.8006174600000000    0.5223344900000000    0.2612923600000000 S
   0.0647268700000000    0.2802978400000000    0.9507138400000000 S
