Mg4 V4 Bi4 O20
1.0
   5.3171405600000003    0.0000000000000000   -0.0112973600000000
   0.0000000000000000   11.5612514700000002    0.0000000000000000
  -3.0618413100000001    0.0000000000000000    7.2709705900000001
Mg V Bi O
4 4 4 20
direct
   0.4493309800000000    0.0780514100000000    0.8242736800000000 Mg
   0.5506690200000000    0.9219485900000000    0.1757263200000000 Mg
   0.5506690200000000    0.5780514100000000    0.6757263200000000 Mg
   0.4493309800000000    0.4219485900000000    0.3242736800000000 Mg
   0.8123691199999999    0.3519053300000000    0.0284767400000000 V
   0.1876308800000000    0.6480946700000000    0.9715232600000000 V
   0.1876308800000000    0.8519053300000000    0.4715232600000000 V
   0.8123691199999999    0.1480946700000000    0.5284767400000000 V
   0.9368906000000000    0.9026799900000000    0.8229475500000000 Bi
   0.0631094000000000    0.0973200100000000    0.1770524500000000 Bi
   0.9368906000000000    0.5973200100000000    0.3229475500000000 Bi
   0.0631094000000000    0.4026799900000000    0.6770524500000000 Bi
   0.2483673300000000    0.9283249600000000    0.6729248500000000 O
   0.7019613800000000    0.0680241500000000    0.6738554100000000 O
   0.8470612500000000    0.8239534500000000    0.3631108200000000 O
   0.2401273500000000    0.4729491000000000    0.4847749400000000 O
   0.3246637500000000    0.7136002700000000    0.5147554000000000 O
   0.3246637500000000    0.7863997300000000    0.0147554000000000 O
   0.7019613800000000    0.4319758500000000    0.1738554100000000 O
   0.2980386200000000    0.5680241499999999    0.8261445900000000 O
   0.7598726500000000    0.5270509000000000    0.5152250600000000 O
   0.7516326700000000    0.4283249600000000    0.8270751500000000 O
   0.6753362500000000    0.2863997300000000    0.4852446000000000 O
   0.7516326700000000    0.0716750400000000    0.3270751500000000 O
   0.2483673300000000    0.5716750400000000    0.1729248500000000 O
   0.6753362500000000    0.2136002700000000    0.9852446000000000 O
   0.7598726500000000    0.9729491000000000    0.0152250600000000 O
   0.2401273500000000    0.0270509000000000    0.9847749400000000 O
   0.1529387500000000    0.1760465500000000    0.6368891800000001 O
   0.2980386200000000    0.9319758500000001    0.3261445900000000 O
   0.1529387500000000    0.3239534500000000    0.1368891800000000 O
   0.8470612500000000    0.6760465500000000    0.8631108199999999 O
