Zn8 Se8 O24
1.0
   6.1180165100000004    0.0000000000000000    0.0000000000000000
   0.0000000000000000   11.8606774200000000    0.0000000000000000
   0.0000000000000000    0.0000000000000000    7.1932236500000002
Zn Se O
8 8 24
direct
   0.8672250700000000    0.4066868800000000    0.3919715400000000 Zn
   0.3672250700000000    0.0933131200000000    0.6080284600000000 Zn
   0.6327749300000000    0.5933131200000000    0.8919715400000000 Zn
   0.1327749300000000    0.9066868800000000    0.1080284600000000 Zn
   0.1327749300000000    0.5933131200000000    0.6080284600000000 Zn
   0.6327749300000000    0.9066868800000000    0.3919715400000000 Zn
   0.3672250700000000    0.4066868800000000    0.1080284600000000 Zn
   0.8672250700000000    0.0933131200000000    0.8919715400000000 Zn
   0.8947069900000000    0.3559972600000000    0.9551413200000000 Se
   0.3947069900000000    0.1440027400000000    0.0448586800000000 Se
   0.6052930100000000    0.6440027400000000    0.4551413200000000 Se
   0.1052930100000000    0.8559972600000000    0.5448586800000000 Se
   0.1052930100000000    0.6440027400000000    0.0448586800000000 Se
   0.6052930100000000    0.8559972600000000    0.9551413200000000 Se
   0.3947069900000000    0.3559972600000000    0.5448586800000000 Se
   0.8947069900000000    0.1440027400000000    0.4551413200000000 Se
   0.0223108500000000    0.0921245200000000    0.6568476200000000 O
   0.5223108500000000    0.4078754800000000    0.3431523800000000 O
   0.4776891500000000    0.9078754800000000    0.1568476200000000 O
   0.9776891500000000    0.5921245200000000    0.8431523800000000 O
   0.9776891500000000    0.9078754800000000    0.3431523800000000 O
   0.4776891500000000    0.5921245200000000    0.6568476200000000 O
   0.5223108500000000    0.0921245200000000    0.8431523800000000 O
   0.0223108500000000    0.4078754800000000    0.1568476200000000 O
   0.6554198600000000    0.0660041500000000    0.4674421400000000 O
   0.1554198600000000    0.4339958500000000    0.5325578600000000 O
   0.8445801400000000    0.9339958500000000    0.9674421400000000 O
   0.3445801400000000    0.5660041500000000    0.0325578600000000 O
   0.3445801400000000    0.9339958500000000    0.5325578600000000 O
   0.8445801400000000    0.5660041500000000    0.4674421400000000 O
   0.1554198600000000    0.0660041500000000    0.0325578600000000 O
   0.6554198600000000    0.4339958500000000    0.9674421400000000 O
   0.7999129500000000    0.2292523800000000    0.0350338400000000 O
   0.2999129500000000    0.2707476200000000    0.9649661600000000 O
   0.7000870500000000    0.7707476200000000    0.5350338400000000 O
   0.2000870500000000    0.7292523800000000    0.4649661600000000 O
   0.2000870500000000    0.7707476200000000    0.9649661600000000 O
   0.7000870500000000    0.7292523800000000    0.0350338400000000 O
   0.2999129500000000    0.2292523800000000    0.4649661600000000 O
   0.7999129500000000    0.2707476200000000    0.5350338400000000 O
