Na4 Cr2 O8
1.0
   2.9098889200000002   -4.5697363700000002    0.0000000000000000
   2.9098889200000002    4.5697363700000002    0.0000000000000000
   0.0000000000000000    0.0000000000000000    7.0338603099999997
Na Cr O
4 2 8
direct
   0.1830121500000000    0.8169878500000000    0.7500000000000000 Na
   0.8169878500000000    0.1830121500000000    0.2500000000000000 Na
   0.5000000000000000    0.5000000000000000    0.5000000000000000 Na
   0.5000000000000000    0.5000000000000000    0.0000000000000000 Na
   0.8538296600000000    0.1461703400000000    0.7500000000000000 Cr
   0.1461703400000000    0.8538296600000000    0.2500000000000000 Cr
   0.2508781100000000    0.7491218900000000    0.0601112900000000 O
   0.7491218900000000    0.2508781100000000    0.5601112900000000 O
   0.7491218900000000    0.2508781100000000    0.9398887100000000 O
   0.2508781100000000    0.7491218900000000    0.4398887100000000 O
   0.1920681500000000    0.2715451000000000    0.7500000000000000 O
   0.8079318500000000    0.7284549000000000    0.2500000000000000 O
   0.7284549000000000    0.8079318500000000    0.7500000000000000 O
   0.2715451000000000    0.1920681500000000    0.2500000000000000 O
