Na12 Ge4 Se14
1.0
   4.6597200200000000   -5.4488780500000003    0.0072792800000000
   4.6597200200000000    5.4488780500000003    0.0072792800000000
  -3.8344299899999998    0.0000000000000000   15.2571520199999995
Na Ge Se
12 4 14
direct
   0.5000000000000000    0.5000000000000000    0.0000000000000000 Na
   0.5000000000000000    0.5000000000000000    0.5000000000000000 Na
   0.0257599900000000    0.7358513900000000    0.9260592400000000 Na
   0.2641486100000000    0.9742400100000000    0.5739407600000000 Na
   0.9742400100000000    0.2641486100000000    0.0739407600000000 Na
   0.7358513900000000    0.0257599900000000    0.4260592400000000 Na
   0.5818420399999999    0.4181579600000000    0.7500000000000000 Na
   0.4181579600000000    0.5818420399999999    0.2500000000000000 Na
   0.0508654200000000    0.4946563800000000    0.6407939000000000 Na
   0.5053436200000000    0.9491345799999999    0.8592061000000000 Na
   0.9491345799999999    0.5053436200000000    0.3592061000000000 Na
   0.4946563800000000    0.0508654200000000    0.1407939000000000 Na
   0.0761033400000000    0.2423244200000000    0.8617949600000000 Ge
   0.7576755800000000    0.9238966600000000    0.6382050400000000 Ge
   0.9238966600000000    0.7576755800000000    0.1382050400000000 Ge
   0.2423244200000000    0.0761033400000000    0.3617949600000000 Ge
   0.2518487900000000    0.5091543200000000    0.8203648200000000 Se
   0.4908456800000000    0.7481512100000000    0.6796351800000000 Se
   0.7481512100000000    0.4908456800000000    0.1796351800000000 Se
   0.5091543200000000    0.2518487900000000    0.3203648200000000 Se
   0.2645272900000000    0.1272070900000000    0.9731426300000000 Se
   0.8727929100000000    0.7354727100000000    0.5268573700000000 Se
   0.7354727100000000    0.8727929100000000    0.0268573700000000 Se
   0.1272070900000000    0.2645272900000000    0.4731426300000000 Se
   0.7861433799999999    0.3129046900000000    0.8979204500000000 Se
   0.6870953100000000    0.2138566200000000    0.6020795500000000 Se
   0.2138566200000000    0.6870953100000000    0.1020795500000000 Se
   0.3129046900000000    0.7861433799999999    0.3979204500000000 Se
   0.0403201300000000    0.9596798700000000    0.7500000000000000 Se
   0.9596798700000000    0.0403201300000000    0.2500000000000000 Se
