Ta4 N4 O4
1.0
   5.0172834899999996    0.0000000000000000   -0.0147210800000000
   0.0000000000000000    5.0639927599999996    0.0000000000000000
  -0.8730446800000000    0.0000000000000000    5.1322241699999998
Ta N O
4 4 4
direct
   0.2924102100000000    0.4577932200000000    0.7109980700000000 Ta
   0.7075897900000000    0.9577932200000000    0.7890019300000000 Ta
   0.7075897900000000    0.5422067800000000    0.2890019300000000 Ta
   0.2924102100000000    0.0422067800000000    0.2109980700000000 Ta
   0.4431774400000000    0.7430307400000000    0.9846955600000000 N
   0.5568225600000000    0.2430307400000000    0.5153044400000000 N
   0.5568225600000000    0.2569692600000000    0.0153044400000000 N
   0.4431774400000000    0.7569692600000000    0.4846955600000000 N
   0.0639944400000000    0.1719271800000000    0.8463100900000000 O
   0.9360055600000000    0.6719271800000000    0.6536899100000000 O
   0.9360055600000000    0.8280728200000000    0.1536899100000000 O
   0.0639944400000000    0.3280728200000000    0.3463100900000000 O
