La1 Ag1 Mo2 O8
1.0
  -2.6705412200000000    2.6705411699999999    5.7446781199999997
   2.6705412200000000   -2.6705411699999999    5.7446781199999997
   2.6705411699999999    2.6705412200000000   -5.7446781199999997
La Ag Mo O
1 1 2 8
direct
   0.5000000000000000    0.5000000000000000    0.0000000000000000 La
   0.7500000000000000    0.2500000000000000    0.5000000000000000 Ag
   0.2500000000000000    0.7500000000000000    0.5000000000000000 Mo
   0.0000000000000000    0.0000000000000000    0.0000000000000000 Mo
   0.3975939200000000    0.5148763900000000    0.5889156300000000 O
   0.9259607700000000    0.8086783000000000    0.4110843700000000 O
   0.0686551300000000    0.1558173200000000    0.3925014000000000 O
   0.7633159300000000    0.6761537300000000    0.6074986000000000 O
   0.8441826800000000    0.2366840700000000    0.9128388000000000 O
   0.3238462700000000    0.9313448700000000    0.0871612000000000 O
   0.1913217000000000    0.6024060800000000    0.1172814700000000 O
   0.4851236100000000    0.0740392300000000    0.8827185300000000 O
