Rb3 In9 S15
1.0
  12.3507221900000008    0.0000000000000000   -0.0113233600000000
   0.0000000000000000    3.7978715699999999    0.0000000000000000
  -5.8510967799999998    0.0000000000000000   14.2529766999999996
Rb In S
3 9 15
direct
   0.5000000000000000    0.0000000000000000    0.0000000000000000 Rb
   0.1383856400000000    0.5000000000000000    0.4266026500000000 Rb
   0.8616143600000000    0.5000000000000000    0.5733973500000000 Rb
   0.1752018900000000    0.5000000000000000    0.1660165700000000 In
   0.8247981100000000    0.5000000000000000    0.8339834300000000 In
   0.5000000000000000    0.5000000000000000    0.5000000000000000 In
   0.4807435300000000    0.0000000000000000    0.2858040700000000 In
   0.5192564700000000    0.0000000000000000    0.7141959300000000 In
   0.7788225400000000    0.5000000000000000    0.2723279800000000 In
   0.2211774600000000    0.5000000000000000    0.7276720200000000 In
   0.8828766400000000    0.0000000000000000    0.0688772800000000 In
   0.1171233600000000    0.0000000000000000    0.9311227200000000 In
   0.2723299300000000    0.0000000000000000    0.1034349100000000 S
   0.7276700699999999    0.0000000000000000    0.8965650900000000 S
   0.5582470400000000    0.5000000000000000    0.2093131700000000 S
   0.4417529600000000    0.5000000000000000    0.7906868300000000 S
   0.0663383000000000    0.0000000000000000    0.2188671600000000 S
   0.9336617000000000    0.0000000000000000    0.7811328400000001 S
   0.6198640200000000    0.0000000000000000    0.4583395900000000 S
   0.3801359800000000    0.0000000000000000    0.5416604100000000 S
   0.7651853300000000    0.5000000000000000    0.1049649100000000 S
   0.2348146700000000    0.5000000000000000    0.8950350900000000 S
   0.8788570000000000    0.0000000000000000    0.3741129900000000 S
   0.1211430000000000    0.0000000000000000    0.6258870100000000 S
   0.3570116500000000    0.5000000000000000    0.3218510500000000 S
   0.6429883500000000    0.5000000000000000    0.6781489500000000 S
   0.0000000000000000    0.5000000000000000    0.0000000000000000 S
