Cs4 Ag8 Bi4 S12
1.0
  13.1805330600000001    0.0000000000000000   -0.0029563500000000
   0.0000000000000000    8.0269478700000008    0.0000000000000000
  -1.1473631000000000    0.0000000000000000    6.7662133300000002
Cs Ag Bi S
4 8 4 12
direct
   0.1748809200000000    0.3816967700000000    0.3144001000000000 Cs
   0.8251190800000000    0.8816967700000000    0.1855999000000000 Cs
   0.8251190800000000    0.6183032300000000    0.6855999000000000 Cs
   0.1748809200000000    0.1183032300000000    0.8144001000000000 Cs
   0.0890710900000000    0.7475433300000000    0.0299902700000000 Ag
   0.9109289100000000    0.2475433300000000    0.4700097300000000 Ag
   0.9109289100000000    0.2524566700000000    0.9700097300000000 Ag
   0.0890710900000000    0.7524566700000000    0.5299902700000000 Ag
   0.2700301300000000    0.8682268200000000    0.3481738700000000 Ag
   0.7299698700000000    0.3682268200000000    0.1518261300000000 Ag
   0.7299698700000000    0.1317731800000000    0.6518261300000000 Ag
   0.2700301300000000    0.6317731800000000    0.8481738700000000 Ag
   0.5020874600000000    0.6262758899999999    0.2477316900000000 Bi
   0.4979125400000000    0.1262758900000000    0.2522683100000000 Bi
   0.4979125400000000    0.3737241100000000    0.7522683100000001 Bi
   0.5020874600000000    0.8737241100000001    0.7477316899999999 Bi
   0.0887927700000000    0.9517140800000000    0.2771614500000000 S
   0.9112072300000000    0.4517140800000000    0.2228385500000000 S
   0.9112072300000000    0.0482859200000000    0.7228385500000000 S
   0.0887927700000000    0.5482859200000000    0.7771614500000000 S
   0.3748141700000000    0.8642319400000000    0.0469137000000000 S
   0.6251858300000001    0.3642319400000000    0.4530863000000000 S
   0.6251858300000001    0.1357680600000000    0.9530863000000001 S
   0.3748141700000000    0.6357680600000000    0.5469136999999999 S
   0.3773620100000000    0.3765684400000000    0.0442012100000000 S
   0.6226379900000000    0.8765684400000000    0.4557987900000000 S
   0.6226379900000000    0.6234315600000000    0.9557987900000000 S
   0.3773620100000000    0.1234315600000000    0.5442012100000000 S
