Hg2 Mo2 O8
1.0
   5.6797174600000000   -3.0371539599999999   -0.0402171800000000
   5.6797174600000000    3.0371539599999999   -0.0402171800000000
  -1.9934659200000000    0.0000000000000000    4.7741470899999996
Hg Mo O
2 2 8
direct
   0.0000000000000000    0.5000000000000000    0.5000000000000000 Hg
   0.5000000000000000    0.0000000000000000    0.0000000000000000 Hg
   0.8120467900000000    0.1879532100000000    0.7500000000000000 Mo
   0.1879532100000000    0.8120467900000000    0.2500000000000000 Mo
   0.7508528300000000    0.4825233600000000    0.9728443300000000 O
   0.5174766400000000    0.2491471700000000    0.5271556700000000 O
   0.2491471700000000    0.5174766400000000    0.0271556700000000 O
   0.4825233600000000    0.7508528300000000    0.4728443300000000 O
   0.1874170600000000    0.0067889200000000    0.0305009200000000 O
   0.9932110800000000    0.8125829400000000    0.4694990800000000 O
   0.8125829400000000    0.9932110800000000    0.9694990800000000 O
   0.0067889200000000    0.1874170600000000    0.5305009200000000 O
