Rb2 Li2 S2
1.0
   4.3709281100000004    0.0000000000000000    0.0000000000000000
   0.0000000000000000    4.3709281100000004    0.0000000000000000
   0.0000000000000000    0.0000000000000000    7.2058560399999996
Rb Li S
2 2 2
direct
   0.0000000000000000    0.5000000000000000    0.3398079900000000 Rb
   0.5000000000000000    0.0000000000000000    0.6601920100000001 Rb
   0.0000000000000000    0.0000000000000000    0.0000000000000000 Li
   0.5000000000000000    0.5000000000000000    0.0000000000000000 Li
   0.5000000000000000    0.0000000000000000    0.1767679800000000 S
   0.0000000000000000    0.5000000000000000    0.8232320200000000 S
