Rb4 Li4 Zn8 O12
1.0
  10.1666842499999994    0.0000000000000000    0.0000000000000000
   0.0000000000000000   10.1666842499999994    0.0000000000000000
   0.0000000000000000    0.0000000000000000    3.3818401200000001
Rb Li Zn O
4 4 8 12
direct
   0.3906308900000000    0.3906308900000000    0.0000000000000000 Rb
   0.8906308900000000    0.1093691100000000    0.5000000000000000 Rb
   0.1093691100000000    0.8906308900000000    0.5000000000000000 Rb
   0.6093691100000000    0.6093691100000000    0.0000000000000000 Rb
   0.7977158500000000    0.7977158500000000    0.5000000000000000 Li
   0.2022841500000000    0.2022841500000000    0.5000000000000000 Li
   0.2977158500000000    0.7022841500000000    0.0000000000000000 Li
   0.7022841500000000    0.2977158500000000    0.0000000000000000 Li
   0.3291820800000000    0.0739281300000000    0.0000000000000000 Zn
   0.6708179200000000    0.9260718700000000    0.0000000000000000 Zn
   0.4260718700000000    0.8291820800000000    0.5000000000000000 Zn
   0.5739281300000000    0.1708179200000000    0.5000000000000000 Zn
   0.0739281300000000    0.3291820800000000    0.0000000000000000 Zn
   0.8291820800000000    0.4260718700000000    0.5000000000000000 Zn
   0.1708179200000000    0.5739281300000000    0.5000000000000000 Zn
   0.9260718700000000    0.6708179200000000    0.0000000000000000 Zn
   0.3875265500000000    0.1528516700000000    0.5000000000000000 O
   0.8471483300000000    0.6124734500000000    0.5000000000000000 O
   0.1528516700000000    0.3875265500000000    0.5000000000000000 O
   0.8875265500000000    0.3471483300000000    0.0000000000000000 O
   0.8578252300000000    0.8578252300000000    0.0000000000000000 O
   0.3578252300000000    0.6421747700000000    0.5000000000000000 O
   0.6421747700000000    0.3578252300000000    0.5000000000000000 O
   0.1421747700000000    0.1421747700000000    0.0000000000000000 O
   0.6124734500000000    0.8471483300000000    0.5000000000000000 O
   0.6528516700000000    0.1124734500000000    0.0000000000000000 O
   0.3471483300000000    0.8875265500000000    0.0000000000000000 O
   0.1124734500000000    0.6528516700000000    0.0000000000000000 O
