La6 Nb2 O14
1.0
   5.5562134399999996   -3.7651474700000001    0.0000000000000000
   5.5562134399999996    3.7651474700000001    0.0000000000000000
   0.0000000000000000    0.0000000000000000    7.7866151199999996
La Nb O
6 2 14
direct
   0.5238693500000000    0.9299539400000000    0.7500000000000000 La
   0.4761306500000000    0.0700460600000000    0.2500000000000000 La
   0.0000000000000000    0.0000000000000000    0.5000000000000000 La
   0.0000000000000000    0.0000000000000000    0.0000000000000000 La
   0.9299539400000000    0.5238693500000000    0.2500000000000000 La
   0.0700460600000000    0.4761306500000000    0.7500000000000000 La
   0.5000000000000000    0.5000000000000000    0.0000000000000000 Nb
   0.5000000000000000    0.5000000000000000    0.5000000000000000 Nb
   0.4305717800000000    0.5694282200000000    0.7500000000000000 O
   0.5694282200000000    0.4305717800000000    0.2500000000000000 O
   0.8943441800000000    0.8461736800000000    0.7500000000000000 O
   0.1056558200000000    0.1538263200000000    0.2500000000000000 O
   0.1538263200000000    0.1056558200000000    0.7500000000000000 O
   0.8461736800000000    0.8943441800000000    0.2500000000000000 O
   0.8156181000000000    0.4368230400000000    0.9659460100000000 O
   0.1843819000000000    0.5631769599999999    0.4659460100000000 O
   0.5631769599999999    0.1843819000000000    0.9659460100000000 O
   0.4368230400000000    0.8156181000000000    0.4659460100000000 O
   0.8156181000000000    0.4368230400000000    0.5340539900000000 O
   0.1843819000000000    0.5631769599999999    0.0340539900000000 O
   0.4368230400000000    0.8156181000000000    0.0340539900000000 O
   0.5631769599999999    0.1843819000000000    0.5340539900000000 O
