Ga4 S6 O24
1.0
   4.0484950700000004    2.3373997499999999    7.3512802600000002
  -4.0484947499999997    2.3374003000000001    7.3512802600000002
  -0.0000003200000000   -4.6748000599999999    7.3512802600000002
Ga S O
4 6 24
direct
   0.1441711900000000    0.1441711900000000    0.1441711900000000 Ga
   0.8558288100000000    0.8558288100000000    0.8558288100000000 Ga
   0.3486844400000000    0.3486844400000000    0.3486844400000000 Ga
   0.6513155600000000    0.6513155600000000    0.6513155600000000 Ga
   0.4577878000000000    0.7511143300000001    0.0392724900000000 S
   0.7511143300000001    0.0392724900000000    0.4577878000000000 S
   0.0392724900000000    0.4577878000000000    0.7511143300000001 S
   0.5422122000000000    0.2488856700000000    0.9607275100000000 S
   0.2488856700000000    0.9607275100000000    0.5422122000000000 S
   0.9607275100000000    0.5422122000000000    0.2488856700000000 S
   0.6115330000000000    0.7955042700000000    0.0158681600000000 O
   0.7955042700000000    0.0158681600000000    0.6115330000000000 O
   0.0158681600000000    0.6115330000000000    0.7955042700000000 O
   0.3884670000000000    0.2044957300000000    0.9841318400000000 O
   0.2044957300000000    0.9841318400000000    0.3884670000000000 O
   0.9841318400000000    0.3884670000000000    0.2044957300000000 O
   0.4737009600000000    0.7886421200000000    0.8428077400000000 O
   0.7886421200000000    0.8428077400000000    0.4737009600000000 O
   0.8428077400000000    0.4737009600000000    0.7886421200000000 O
   0.5262990400000001    0.2113578800000000    0.1571922600000000 O
   0.2113578800000000    0.1571922600000000    0.5262990400000001 O
   0.1571922600000000    0.5262990400000001    0.2113578800000000 O
   0.4855851700000000    0.5399086300000000    0.1737497600000000 O
   0.5399086300000000    0.1737497600000000    0.4855851700000000 O
   0.1737497600000000    0.4855851700000000    0.5399086300000000 O
   0.5144148300000000    0.4600913700000000    0.8262502400000000 O
   0.4600913700000000    0.8262502400000000    0.5144148300000000 O
   0.8262502400000000    0.5144148300000000    0.4600913700000000 O
   0.2568705300000000    0.8824606100000000    0.1293285300000000 O
   0.8824606100000000    0.1293285300000000    0.2568705300000000 O
   0.1293285300000000    0.2568705300000000    0.8824606100000000 O
   0.7431294700000000    0.1175393900000000    0.8706714700000000 O
   0.1175393900000000    0.8706714700000000    0.7431294700000000 O
   0.8706714700000000    0.7431294700000000    0.1175393900000000 O
