Na4 P4 S12
1.0
   6.6075386900000002    0.0000000000000000    0.0003418800000000
   0.0000000000000000    7.6575723900000003    0.0000000000000000
  -0.1150351400000000    0.0000000000000000    8.9615859499999999
Na P S
4 4 12
direct
   0.7023001600000000    0.4820941200000000    0.7071371700000000 Na
   0.2976998400000000    0.9820941200000000    0.2928628300000000 Na
   0.2976998400000000    0.5179058800000000    0.2928628300000000 Na
   0.7023001600000000    0.0179058800000000    0.7071371700000000 Na
   0.2091334700000000    0.2500000000000000    0.6158902900000000 P
   0.7908665300000000    0.7500000000000000    0.3841097100000000 P
   0.3294831600000000    0.2500000000000000    0.9283203000000000 P
   0.6705168400000000    0.7500000000000000    0.0716797000000000 P
   0.7628969500000000    0.9544794900000000    0.2240534700000000 S
   0.2371030500000000    0.4544794900000000    0.7759465300000000 S
   0.2371030500000000    0.0455205100000000    0.7759465300000000 S
   0.7628969500000000    0.5455205100000000    0.2240534700000000 S
   0.6294155700000000    0.2500000000000000    0.9557674900000001 S
   0.3705844300000000    0.7500000000000000    0.0442325100000000 S
   0.4490358800000000    0.2500000000000000    0.4824907500000000 S
   0.5509641199999999    0.7500000000000000    0.5175092500000000 S
   0.1519056700000000    0.2500000000000000    0.1031969100000000 S
   0.8480943300000000    0.7500000000000000    0.8968030900000000 S
   0.9387950300000000    0.2500000000000000    0.5162555400000000 S
   0.0612049700000000    0.7500000000000000    0.4837444600000000 S
