Na8 Ge8 Se20
1.0
  13.8592086200000004    0.0000000000000000    0.0000000000000000
   0.0000000000000000    6.1339923100000000    0.0000000000000000
   0.0000000000000000    0.0000000000000000   11.1312200600000004
Na Ge Se
8 8 20
direct
   0.0599545900000000    0.9905165100000000    0.4960432500000000 Na
   0.9400454100000000    0.0094834900000000    0.9960432500000000 Na
   0.5599545900000000    0.5094834900000000    0.4960432500000000 Na
   0.4400454100000000    0.4905165100000000    0.9960432500000000 Na
   0.4622726100000000    0.9983219200000000    0.2473786400000000 Na
   0.5377273900000000    0.0016780800000000    0.7473786400000000 Na
   0.9622726100000000    0.5016780800000000    0.2473786400000000 Na
   0.0377273900000000    0.4983219200000000    0.7473786400000000 Na
   0.2059141400000000    0.5325699600000000    0.3929146000000000 Ge
   0.7940858600000000    0.4674300400000000    0.8929146000000000 Ge
   0.7059141400000000    0.9674300400000000    0.3929146000000000 Ge
   0.2940858600000000    0.0325699600000000    0.8929146000000000 Ge
   0.1535542600000000    0.0413345200000000    0.2013938100000000 Ge
   0.8464457399999999    0.9586654800000000    0.7013938100000000 Ge
   0.6535542600000001    0.4586654800000000    0.2013938100000000 Ge
   0.3464457400000000    0.5413345200000000    0.7013938100000000 Ge
   0.3392710500000000    0.3848822300000000    0.5037985600000000 Se
   0.6607289500000000    0.6151177700000000    0.0037985600000000 Se
   0.8392710500000000    0.1151177700000000    0.5037985600000000 Se
   0.1607289500000000    0.8848822300000000    0.0037985600000000 Se
   0.2859523500000000    0.9068166900000000    0.6876875600000000 Se
   0.7140476500000000    0.0931833100000000    0.1876875600000000 Se
   0.7859523500000000    0.5931833100000000    0.6876875600000000 Se
   0.2140476500000000    0.4068166900000000    0.1876875600000000 Se
   0.2416919100000000    0.4040996500000000    0.8579407100000001 Se
   0.7583080900000000    0.5959003500000000    0.3579407100000000 Se
   0.7416919100000000    0.0959003500000000    0.8579407100000001 Se
   0.2583080900000000    0.9040996500000000    0.3579407100000000 Se
   0.5079024599999999    0.5003228800000000    0.7471542200000000 Se
   0.4920975400000000    0.4996771200000000    0.2471542200000000 Se
   0.0079024600000000    0.9996771200000000    0.7471542200000000 Se
   0.9920975400000001    0.0003228800000000    0.2471542200000000 Se
   0.0574781100000000    0.4930149600000000    0.4828876400000000 Se
   0.9425218900000000    0.5069850400000000    0.9828876400000000 Se
   0.5574781100000000    0.0069850400000000    0.4828876400000000 Se
   0.4425218900000000    0.9930149600000000    0.9828876400000000 Se
