Rb2 Sb2 W2 O12
1.0
  -3.6065563500000000    5.1541589500000002    3.6724534400000000
   3.6065563500000000   -5.1541589500000002    3.6724534400000000
   3.6065563500000000    5.1541589500000002   -3.6724534400000000
Rb Sb W O
2 2 2 12
direct
   0.8327798300000000    0.2192778200000000    0.1135020100000000 Rb
   0.1057758100000000    0.7192778200000000    0.8864979900000000 Rb
   0.5015871600000000    0.5015871600000000    0.0000000000000000 Sb
   0.5015871600000000    0.0015871600000000    0.5000000000000000 Sb
   0.9904444000000000    0.9854150600000000    0.5050283400000000 W
   0.4803867200000000    0.4854150600000000    0.4949716600000000 W
   0.4281502500000000    0.7552253900000000    0.1729248600000000 O
   0.8055778099999999    0.7468078300000000    0.5587699800000000 O
   0.4337616500000000    0.7450463899999999    0.5647680899999999 O
   0.8228652800000000    0.7570382600000000    0.1902527500000000 O
   0.8228652800000000    0.1326115300000000    0.5658260300000000 O
   0.4337616500000000    0.3689925600000000    0.1887142700000000 O
   0.5823005400000000    0.2552253900000000    0.8270751400000000 O
   0.1880368500000000    0.2468078300000000    0.4412300200000000 O
   0.5667855100000000    0.2570382600000000    0.4341739700000000 O
   0.1802783000000000    0.2450463900000000    0.8112857300000000 O
   0.1802783000000000    0.8689925600000000    0.4352319100000000 O
   0.5667855100000000    0.6326115300000000    0.8097472500000000 O
