Ca4 Zr4 O12
1.0
   5.7806133700000002    0.0000000000000000    0.0000000000000000
   0.0000000000000000    8.0242223999999993    0.0000000000000000
   0.0000000000000000    0.0000000000000000    5.5808128899999998
Ca Zr O
4 4 12
direct
   0.0514828700000000    0.2500000000000000    0.0137640900000000 Ca
   0.4485171300000000    0.7500000000000000    0.5137640900000000 Ca
   0.5514828700000000    0.2500000000000000    0.4862359100000000 Ca
   0.9485171300000000    0.7500000000000000    0.9862359100000000 Ca
   0.0000000000000000    0.0000000000000000    0.5000000000000000 Zr
   0.5000000000000000    0.0000000000000000    0.0000000000000000 Zr
   0.5000000000000000    0.5000000000000000    0.0000000000000000 Zr
   0.0000000000000000    0.5000000000000000    0.5000000000000000 Zr
   0.1983441400000000    0.5596107100000000    0.8046191100000000 O
   0.3016558600000000    0.4403892900000000    0.3046191100000000 O
   0.6983441400000000    0.9403892900000000    0.6953808900000000 O
   0.8016558600000000    0.0596107100000000    0.1953808900000000 O
   0.8016558600000000    0.4403892900000000    0.1953808900000000 O
   0.6983441400000000    0.5596107100000000    0.6953808900000000 O
   0.3016558600000000    0.0596107100000000    0.3046191100000000 O
   0.1983441400000000    0.9403892900000000    0.8046191100000000 O
   0.9545094200000001    0.2500000000000000    0.6120410100000000 O
   0.5454905799999999    0.7500000000000000    0.1120410100000000 O
   0.4545094200000000    0.2500000000000000    0.8879589900000000 O
   0.0454905800000000    0.7500000000000000    0.3879589900000000 O
