Li6 Te1 O6
1.0
   3.9556341599999998    2.2837863000000000    2.3185831200000000
  -3.9556341200000000    2.2837863600000001    2.3185831200000000
  -0.0000000400000000   -4.5675726599999997    2.3185831200000000
Li Te O
6 1 6
direct
   0.7054581100000000    0.4076277800000000    0.9098376000000000 Li
   0.5923722200000000    0.0901624000000000    0.2945418900000000 Li
   0.0901624000000000    0.2945418900000000    0.5923722200000000 Li
   0.2945418900000000    0.5923722200000000    0.0901624000000000 Li
   0.4076277800000000    0.9098376000000000    0.7054581100000000 Li
   0.9098376000000000    0.7054581100000000    0.4076277800000000 Li
   0.0000000000000000    0.0000000000000000    0.0000000000000000 Te
   0.7773843499999999    0.0634607900000000    0.6758518800000000 O
   0.9365392100000000    0.3241481200000000    0.2226156500000000 O
   0.3241481200000000    0.2226156500000000    0.9365392100000000 O
   0.2226156500000000    0.9365392100000000    0.3241481200000000 O
   0.0634607900000000    0.6758518800000000    0.7773843499999999 O
   0.6758518800000000    0.7773843499999999    0.0634607900000000 O
