Ca4 Ta2 In2 O12
1.0
   5.5156966900000004    0.0000000000000000   -0.0123059200000000
   0.0000000000000000    5.7426274499999996    0.0000000000000000
  -5.5371755299999998    0.0000000000000000    7.9483747400000002
Ca Ta In O
4 2 2 12
direct
   0.7381511900000000    0.5565121100000000    0.7534963600000000 Ca
   0.2618488100000000    0.4434878900000000    0.2465036400000000 Ca
   0.2618488100000000    0.0565121100000000    0.7465036400000000 Ca
   0.7381511900000000    0.9434878900000000    0.2534963600000000 Ca
   0.5000000000000000    0.0000000000000000    0.5000000000000000 Ta
   0.5000000000000000    0.5000000000000000    0.0000000000000000 Ta
   0.0000000000000000    0.0000000000000000    0.0000000000000000 In
   0.0000000000000000    0.5000000000000000    0.5000000000000000 In
   0.8503847400000000    0.9540454600000000    0.7379186300000000 O
   0.1496152600000000    0.0459545400000000    0.2620813700000000 O
   0.1496152600000000    0.4540454600000000    0.7620813700000000 O
   0.8503847400000000    0.5459545400000000    0.2379186300000000 O
   0.7402596900000000    0.3135621100000000    0.9462941000000000 O
   0.2597403100000000    0.6864378900000000    0.0537059000000000 O
   0.2597403100000000    0.8135621100000000    0.5537059000000000 O
   0.7402596900000000    0.1864378900000000    0.4462941000000000 O
   0.6177570999999999    0.7884527200000000    0.9358256400000000 O
   0.3822429000000000    0.2115472800000000    0.0641743600000000 O
   0.3822429000000000    0.2884527200000000    0.5641743600000000 O
   0.6177570999999999    0.7115472800000000    0.4358256400000000 O
