Hg4 P4 Se12
1.0
   3.2373262600000001   -5.6632228099999997   -0.0207850500000000
   3.2373262600000001    5.6632228099999997   -0.0207850500000000
  -2.1190188999999999    0.0000000000000000   13.5692447400000002
Hg P Se
4 4 12
direct
   0.5720991900000000    0.7696537700000000    0.9267724300000000 Hg
   0.2303462300000000    0.4279008100000000    0.5732275700000000 Hg
   0.4279008100000000    0.2303462300000000    0.0732275700000000 Hg
   0.7696537700000000    0.5720991900000000    0.4267724300000000 Hg
   0.5309493100000000    0.0668204300000000    0.5829363300000000 P
   0.9331795700000000    0.4690506900000000    0.9170636700000000 P
   0.4690506900000000    0.9331795700000000    0.4170636700000000 P
   0.0668204300000000    0.5309493100000000    0.0829363300000000 P
   0.4477416600000000    0.8289087300000000    0.1100497300000000 Se
   0.1710912700000000    0.5522583400000000    0.3899502700000000 Se
   0.5522583400000000    0.1710912700000000    0.8899502700000000 Se
   0.8289087300000000    0.4477416600000000    0.6100497300000000 Se
   0.0332575300000000    0.1934388500000000    0.1219596600000000 Se
   0.8065611499999999    0.9667424700000000    0.3780403400000000 Se
   0.9667424700000000    0.8065611499999999    0.8780403400000000 Se
   0.1934388500000000    0.0332575300000000    0.6219596600000000 Se
   0.3767654800000000    0.1617384300000000    0.3396929500000000 Se
   0.8382615700000000    0.6232345200000000    0.1603070500000000 Se
   0.6232345200000000    0.8382615700000000    0.6603070500000000 Se
   0.1617384300000000    0.3767654800000000    0.8396929500000000 Se
