Ge2 Pb4 Se8 O24
1.0
   8.9650775100000004    0.0000000000000000    0.0149188400000000
   0.0000000000000000    6.5980675199999999    0.0000000000000000
  -1.0318707300000001    0.0000000000000000    9.2362722500000007
Ge Pb Se O
2 4 8 24
direct
   0.0000000000000000    0.0000000000000000    0.5000000000000000 Ge
   0.0000000000000000    0.5000000000000000    0.0000000000000000 Ge
   0.5365469600000000    0.2338024200000000    0.4031027700000000 Pb
   0.4634530400000000    0.7338024200000000    0.0968972300000000 Pb
   0.4634530400000000    0.7661975800000000    0.5968972299999999 Pb
   0.5365469600000000    0.2661975800000000    0.9031027700000001 Pb
   0.8370512300000000    0.1867310900000000    0.2061628600000000 Se
   0.1629487700000000    0.6867310900000000    0.2938371400000000 Se
   0.1629487700000000    0.8132689100000000    0.7938371400000001 Se
   0.8370512300000000    0.3132689100000000    0.7061628599999999 Se
   0.2376653200000000    0.1866758800000000    0.1332830400000000 Se
   0.7623346800000000    0.6866758800000000    0.3667169600000000 Se
   0.7623346800000000    0.8133241200000000    0.8667169600000000 Se
   0.2376653200000000    0.3133241200000000    0.6332830400000000 Se
   0.9705727000000000    0.3809177500000000    0.1809386900000000 O
   0.0294273000000000    0.8809177500000001    0.3190613100000000 O
   0.0294273000000000    0.6190822499999999    0.8190613100000000 O
   0.9705727000000000    0.1190822500000000    0.6809386900000000 O
   0.8654809600000000    0.1956596200000000    0.3965527400000000 O
   0.1345190400000000    0.6956596200000000    0.1034472600000000 O
   0.1345190400000000    0.8043403800000000    0.6034472600000000 O
   0.8654809600000000    0.3043403800000000    0.8965527400000000 O
   0.6725732600000000    0.3157539500000000    0.1849955700000000 O
   0.3274267400000000    0.8157539499999999    0.3150044300000000 O
   0.3274267400000000    0.6842460500000001    0.8150044300000000 O
   0.6725732600000000    0.1842460500000000    0.6849955700000000 O
   0.3448505600000000    0.3692646500000000    0.2262511300000000 O
   0.6551494400000000    0.8692646500000000    0.2737488700000000 O
   0.6551494400000000    0.6307353500000000    0.7737488700000000 O
   0.3448505600000000    0.1307353500000000    0.7262511300000000 O
   0.3746161100000000    0.0619257900000000    0.0496706100000000 O
   0.6253838900000001    0.5619257900000000    0.4503293900000000 O
   0.6253838900000001    0.9380742100000000    0.9503293900000001 O
   0.3746161100000000    0.4380742100000000    0.5496706099999999 O
   0.1676714000000000    0.3269047000000000    0.9798432300000000 O
   0.8323286000000000    0.8269047000000000    0.5201567700000000 O
   0.8323286000000000    0.6730953000000000    0.0201567700000000 O
   0.1676714000000000    0.1730953000000000    0.4798432300000000 O
