Li8 Mg4 Si4 O16
1.0
   4.9964054100000004    0.0000000000000000    0.0034012900000000
   0.0000000000000000   10.7104529300000006    0.0000000000000000
  -4.9433362100000000    0.0000000000000000    6.2899305099999996
Li Mg Si O
8 4 4 16
direct
   0.3107150800000000    0.8377935000000000    0.0035326800000000 Li
   0.6892849200000000    0.3377935000000000    0.4964673200000000 Li
   0.6892849200000000    0.1622065000000000    0.9964673200000000 Li
   0.3107150800000000    0.6622065000000000    0.5035326800000000 Li
   0.4670564800000000    0.9256315500000000    0.7630030100000000 Li
   0.5329435200000000    0.4256315500000000    0.7369969900000000 Li
   0.5329435200000000    0.0743684500000000    0.2369969900000000 Li
   0.4670564800000000    0.5743684500000000    0.2630030100000000 Li
   0.8086955100000000    0.8352010100000000    0.5009861000000000 Mg
   0.1913044900000000    0.1647989900000000    0.4990139000000000 Mg
   0.8086955100000000    0.6647989900000000    0.0009861000000000 Mg
   0.1913044900000000    0.3352010100000000    0.9990139000000000 Mg
   0.9362925800000000    0.0868456900000000    0.7485866400000000 Si
   0.9362925800000000    0.4131543100000000    0.2485866400000000 Si
   0.0637074200000000    0.9131543100000000    0.2514133600000000 Si
   0.0637074200000000    0.5868456900000000    0.7514133600000000 Si
   0.2555922000000000    0.1611253400000000    0.9609845700000000 O
   0.7444078000000000    0.8388746600000000    0.0390154300000000 O
   0.2555922000000000    0.3388746600000000    0.4609845700000000 O
   0.3952454200000000    0.5902500700000000    0.7531551200000000 O
   0.7444078000000000    0.6611253400000000    0.5390154300000000 O
   0.1714751500000000    0.8405138200000000    0.4676808000000000 O
   0.8285248500000000    0.3405138200000000    0.0323192000000000 O
   0.8285248500000000    0.1594861800000000    0.5323192000000000 O
   0.9543466900000001    0.4419254300000000    0.7481785500000000 O
   0.6047545800000000    0.0902500700000000    0.7468448800000000 O
   0.6047545800000000    0.4097499300000000    0.2468448800000000 O
   0.3952454200000000    0.9097499300000000    0.2531551200000000 O
   0.9543466900000001    0.0580745700000000    0.2481785500000000 O
   0.0456533100000000    0.9419254300000000    0.7518214500000000 O
   0.0456533100000000    0.5580745700000000    0.2518214500000000 O
   0.1714751500000000    0.6594861800000000    0.9676808000000000 O
