Hg6 Se8 O10
1.0
   7.5918337700000000   -0.0637630800000000    0.0636238500000000
  -2.3045958700000000    7.4299245999999997    0.0250953700000000
  -3.0929358699999998   -1.6527152000000001    8.3484636400000003
Hg Se O
6 8 10
direct
   0.0058738300000000    0.4810787300000000    0.7197277900000000 Hg
   0.2959767400000000    0.8126604700000000    0.0932078900000000 Hg
   0.0113796400000000    0.9927203200000000    0.7709548800000000 Hg
   0.7040232600000000    0.1873395300000000    0.9067921100000000 Hg
   0.9941261700000000    0.5189212700000000    0.2802722100000000 Hg
   0.9886203600000000    0.0072796800000000    0.2290451200000000 Hg
   0.2339508400000000    0.8483152200000000    0.3505513300000000 Se
   0.6464003400000000    0.6370865600000000    0.9110702200000000 Se
   0.2434005900000000    0.8120806900000000    0.8022030300000000 Se
   0.3535996600000000    0.3629134400000000    0.0889297800000000 Se
   0.7565994100000000    0.1879193100000000    0.1977969700000000 Se
   0.6267115800000000    0.6664414400000001    0.3922436900000000 Se
   0.7660491600000000    0.1516847800000000    0.6494486700000000 Se
   0.3732884200000000    0.3335585600000000    0.6077563100000000 Se
   0.4309329700000000    0.4353448100000000    0.3104713600000000 O
   0.1647643400000000    0.3847064600000000    0.5385628600000000 O
   0.7875175900000000    0.8582835100000000    0.9272703200000000 O
   0.1820195900000000    0.4639098800000000    0.0251903000000000 O
   0.2124824100000000    0.1417164900000000    0.0727296800000000 O
   0.8179804100000000    0.5360901200000000    0.9748097000000000 O
   0.6252617499999999    0.7365545200000000    0.2175988100000000 O
   0.5690670300000000    0.5646551900000000    0.6895286400000000 O
   0.8352356600000000    0.6152935400000000    0.4614371400000000 O
   0.3747382500000000    0.2634454800000000    0.7824011900000000 O
