Ba2 Sr1 Te1 O6
1.0
   3.0558109299999998    1.7642737600000000    4.8935477199999999
  -3.0558109299999998    1.7642737600000000    4.8935477199999999
  -0.0000000000000000   -3.5285465399999998    4.8935477199999999
Ba Sr Te O
2 1 1 6
direct
   0.2519348000000000    0.2519348000000000    0.2519348000000000 Ba
   0.7480652000000000    0.7480652000000000    0.7480652000000000 Ba
   0.0000000000000000    0.0000000000000000    0.0000000000000000 Sr
   0.5000000000000000    0.5000000000000000    0.5000000000000000 Te
   0.3272877600000000    0.7182047600000000    0.2255015300000000 O
   0.7182047600000000    0.2255015300000000    0.3272877600000000 O
   0.2255015300000000    0.3272877600000000    0.7182047600000000 O
   0.6727122400000000    0.2817952400000000    0.7744984700000000 O
   0.7744984700000000    0.6727122400000000    0.2817952400000000 O
   0.2817952400000000    0.7744984700000000    0.6727122400000000 O
