Li8 Sn4 S12
1.0
   3.1874819400000001   -5.5228892299999996    0.0003660600000000
   3.1874819400000001    5.5228892299999996    0.0003660600000000
  -2.1200301800000001    0.0000000000000000   12.1484804600000000
Li Sn S
8 4 12
direct
   0.1592232300000000    0.3291130200000000    0.9998326700000000 Li
   0.6708869800000000    0.8407767700000000    0.5001673300000000 Li
   0.8407767700000000    0.6708869800000000    0.0001673300000000 Li
   0.3291130200000000    0.1592232300000000    0.4998326700000000 Li
   0.5829755599999999    0.4170244400000000    0.2500000000000000 Li
   0.4170244400000000    0.5829755599999999    0.7500000000000000 Li
   0.0000000000000000    0.5000000000000000    0.5000000000000000 Li
   0.5000000000000000    0.0000000000000000    0.0000000000000000 Li
   0.9166693299999999    0.0833306700000000    0.2500000000000000 Sn
   0.0833306700000000    0.9166693299999999    0.7500000000000000 Sn
   0.2502332300000000    0.7497667700000000    0.2500000000000000 Sn
   0.7497667700000000    0.2502332300000000    0.7500000000000000 Sn
   0.0306520000000000    0.1965495500000000    0.6290421899999999 S
   0.8034504500000000    0.9693480000000000    0.8709578100000001 S
   0.9693480000000000    0.8034504500000000    0.3709578100000000 S
   0.1965495500000000    0.0306520000000000    0.1290421900000000 S
   0.8903872100000000    0.3769310500000000    0.1289584800000000 S
   0.6230689500000000    0.1096127900000000    0.3710415200000000 S
   0.1096127900000000    0.6230689500000000    0.8710415200000000 S
   0.3769310500000000    0.8903872100000000    0.6289584800000000 S
   0.2762215600000000    0.4578078700000000    0.3727996100000000 S
   0.5421921300000000    0.7237784400000000    0.1272003900000000 S
   0.7237784400000000    0.5421921300000000    0.6272003900000001 S
   0.4578078700000000    0.2762215600000000    0.8727996099999999 S
