Cs4 Ba4 C6 O18
1.0
  -5.1541945599999996    5.1541945599999996    5.1541945599999996
   5.1541945599999996   -5.1541945599999996    5.1541945599999996
   5.1541945599999996    5.1541945599999996   -5.1541945599999996
Cs Ba C O
4 4 6 18
direct
   0.0000000000000000    0.1218390600000000    0.5000000000000000 Cs
   0.1218390600000000    0.5000000000000000    0.0000000000000000 Cs
   0.3781609400000000    0.3781609400000000    0.3781609400000000 Cs
   0.5000000000000000    0.0000000000000000    0.1218390600000000 Cs
   0.0000000000000000    0.5789442600000000    0.5000000000000000 Ba
   0.5000000000000000    0.0000000000000000    0.5789442600000000 Ba
   0.9210557400000000    0.9210557400000000    0.9210557400000000 Ba
   0.5789442600000000    0.5000000000000000    0.0000000000000000 Ba
   0.6604165500000000    0.7500000000000000    0.4104165500000000 C
   0.0895834500000000    0.8395834500000000    0.2500000000000000 C
   0.2500000000000000    0.0895834500000000    0.8395834500000000 C
   0.4104165500000000    0.6604165500000000    0.7500000000000000 C
   0.8395834500000000    0.2500000000000000    0.0895834500000000 C
   0.7500000000000000    0.4104165500000000    0.6604165500000000 C
   0.9664137400000000    0.2500000000000000    0.2164137400000000 O
   0.2500000000000000    0.2164137400000000    0.9664137400000000 O
   0.3651272600000000    0.7012243300000000    0.6216585900000000 O
   0.6216585900000000    0.3651272600000000    0.7012243300000000 O
   0.7012243300000000    0.6216585900000000    0.3651272600000000 O
   0.2164137400000000    0.9664137400000000    0.2500000000000000 O
   0.8783414100000000    0.5795657400000001    0.7434686700000001 O
   0.7987756700000000    0.1639029300000000    0.9204342599999999 O
   0.1348727400000000    0.7565313299999999    0.3360970700000000 O
   0.3360970700000000    0.1348727400000000    0.7565313299999999 O
   0.9204342599999999    0.7987756700000000    0.1639029300000000 O
   0.1639029300000000    0.9204342599999999    0.7987756700000000 O
   0.2835862600000000    0.5335862600000000    0.7500000000000000 O
   0.7500000000000000    0.2835862600000000    0.5335862600000000 O
   0.7565313299999999    0.3360970700000000    0.1348727400000000 O
   0.5795657400000001    0.7434686700000001    0.8783414100000000 O
   0.5335862600000000    0.7500000000000000    0.2835862600000000 O
   0.7434686700000001    0.8783414100000000    0.5795657400000001 O
