Ba8 Hg4 S20
1.0
  12.1123985399999992    0.0000000000000000    0.0000000000000000
   0.0000000000000000    8.5916797700000007    0.0000000000000000
   0.0000000000000000    0.0000000000000000    8.3142321399999997
Ba Hg S
8 4 20
direct
   0.1881545600000000    0.5059851900000000    0.6436331000000000 Ba
   0.6881545600000000    0.9940148100000000    0.8563669000000000 Ba
   0.8118454400000000    0.0059851900000000    0.3563669000000000 Ba
   0.3118454400000000    0.4940148100000000    0.1436331000000000 Ba
   0.8118454400000000    0.4940148100000000    0.3563669000000000 Ba
   0.3118454400000000    0.0059851900000000    0.1436331000000000 Ba
   0.1881545600000000    0.9940148100000000    0.6436331000000000 Ba
   0.6881545600000000    0.5059851900000000    0.8563669000000000 Ba
   0.9910810600000000    0.7500000000000000    0.0090923900000000 Hg
   0.4910810600000000    0.7500000000000000    0.4909076100000000 Hg
   0.0089189400000000    0.2500000000000000    0.9909076100000000 Hg
   0.5089189400000000    0.2500000000000000    0.5090923900000000 Hg
   0.9729922500000000    0.7500000000000000    0.5670695400000000 S
   0.4729922500000000    0.7500000000000000    0.9329304600000000 S
   0.0270077500000000    0.2500000000000000    0.4329304600000000 S
   0.5270077500000000    0.2500000000000000    0.0670695400000000 S
   0.8047533100000001    0.7500000000000000    0.0888025200000000 S
   0.3047533100000000    0.7500000000000000    0.4111974800000000 S
   0.1952466900000000    0.2500000000000000    0.9111974800000000 S
   0.6952466899999999    0.2500000000000000    0.5888025200000000 S
   0.1788652000000000    0.7500000000000000    0.9416452100000000 S
   0.6788651999999999    0.7500000000000000    0.5583547900000000 S
   0.8211348000000001    0.2500000000000000    0.0583547900000000 S
   0.3211348000000000    0.2500000000000000    0.4416452100000000 S
   0.9322054200000000    0.5503665599999999    0.6950047600000000 S
   0.4322054200000000    0.9496334400000001    0.8049952400000000 S
   0.0677945800000000    0.0503665600000000    0.3049952400000000 S
   0.5677945800000000    0.4496334400000000    0.1950047600000000 S
   0.0677945800000000    0.4496334400000000    0.3049952400000000 S
   0.5677945800000000    0.0503665600000000    0.1950047600000000 S
   0.9322054200000000    0.9496334400000001    0.6950047600000000 S
   0.4322054200000000    0.5503665599999999    0.8049952400000000 S
