Rb4 Bi8 Se14
1.0
  12.9712585699999998    0.0000000000000000   -0.0049435300000000
   0.0000000000000000    4.1968630600000001    0.0000000000000000
  -0.7441576600000001    0.0000000000000000   15.0653355999999992
Rb Bi Se
4 8 14
direct
   0.4347177900000000    0.7500000000000000    0.8126365900000000 Rb
   0.5652822100000000    0.2500000000000000    0.1873634100000000 Rb
   0.1746374800000000    0.2500000000000000    0.6235928700000000 Rb
   0.8253625200000000    0.7500000000000000    0.3764071300000000 Rb
   0.1649573400000000    0.7500000000000000    0.2785570200000000 Bi
   0.8350426600000000    0.2500000000000000    0.7214429800000000 Bi
   0.3934121100000000    0.2500000000000000    0.4285602100000000 Bi
   0.6065878900000000    0.7500000000000000    0.5714397900000000 Bi
   0.2728272600000000    0.2500000000000000    0.0473817200000000 Bi
   0.7271727400000000    0.7500000000000000    0.9526182800000000 Bi
   0.0588696100000000    0.7500000000000000    0.8769231900000000 Bi
   0.9411303900000000    0.2500000000000000    0.1230768100000000 Bi
   0.4126202100000000    0.7500000000000000    0.0345603600000000 Se
   0.5873797900000000    0.2500000000000000    0.9654396400000000 Se
   0.0072547600000000    0.2500000000000000    0.3032107900000000 Se
   0.9927452400000000    0.7500000000000000    0.6967892100000000 Se
   0.3105026000000000    0.2500000000000000    0.2403512200000000 Se
   0.6894974000000000    0.7500000000000000    0.7596487800000000 Se
   0.2128247900000000    0.2500000000000000    0.8556630700000000 Se
   0.7871752100000000    0.7500000000000000    0.1443369300000000 Se
   0.0955922800000000    0.7500000000000000    0.0829631100000000 Se
   0.9044077200000000    0.2500000000000000    0.9170368900000000 Se
   0.2408923700000000    0.7500000000000000    0.4584479900000000 Se
   0.7591076300000000    0.2500000000000000    0.5415520100000000 Se
   0.5452478900000000    0.7500000000000000    0.3870913500000000 Se
   0.4547521100000000    0.2500000000000000    0.6129086500000001 Se
