Mg4 Nb8 O24
1.0
  14.2973854399999993    0.0000000000000000    0.0000000000000000
   0.0000000000000000    5.7377711099999997    0.0000000000000000
   0.0000000000000000    0.0000000000000000    5.0933241300000001
Mg Nb O
4 8 24
direct
   0.0000000000000000    0.8391511900000000    0.7500000000000000 Mg
   0.5000000000000000    0.6608488100000000    0.2500000000000000 Mg
   0.0000000000000000    0.1608488100000000    0.2500000000000000 Mg
   0.5000000000000000    0.3391511900000000    0.7500000000000000 Mg
   0.3404594800000000    0.8207963200000000    0.7544866600000000 Nb
   0.1595405200000000    0.6792036800000000    0.2544866600000000 Nb
   0.6595405200000000    0.8207963200000000    0.7455133400000000 Nb
   0.8404594800000000    0.6792036800000000    0.2455133400000000 Nb
   0.1595405200000000    0.3207963200000000    0.7544866600000000 Nb
   0.3404594800000000    0.1792036800000000    0.2544866600000000 Nb
   0.8404594800000000    0.3207963200000000    0.7455133400000000 Nb
   0.6595405200000000    0.1792036800000000    0.2455133400000000 Nb
   0.7564234200000000    0.3792799300000000    0.4182845400000000 O
   0.7435765800000000    0.1207200700000000    0.9182845400000000 O
   0.2435765800000000    0.3792799300000000    0.0817154600000000 O
   0.2564234200000000    0.1207200700000000    0.5817154600000000 O
   0.2435765800000000    0.6207200700000000    0.5817154600000000 O
   0.2564234200000000    0.8792799300000000    0.0817154600000000 O
   0.7564234200000000    0.6207200700000000    0.9182845400000000 O
   0.7435765800000000    0.8792799300000000    0.4182845400000000 O
   0.5785285900000000    0.3863776600000000    0.0875799800000000 O
   0.9214714100000000    0.1136223400000000    0.5875799800000000 O
   0.4214714100000000    0.3863776600000000    0.4124200200000000 O
   0.0785285900000000    0.1136223400000000    0.9124200200000000 O
   0.9055418100000000    0.6073665300000000    0.5752725300000000 O
   0.5944581900000000    0.8926334700000000    0.0752725300000000 O
   0.0944581900000000    0.6073665300000000    0.9247274700000000 O
   0.4055418100000000    0.8926334700000000    0.4247274700000000 O
   0.0944581900000000    0.3926334700000000    0.4247274700000000 O
   0.4055418100000000    0.1073665300000000    0.9247274700000000 O
   0.9055418100000000    0.3926334700000000    0.0752725300000000 O
   0.5944581900000000    0.1073665300000000    0.5752725300000000 O
   0.9214714100000000    0.8863776600000000    0.0875799800000000 O
   0.5785285900000000    0.6136223400000000    0.5875799800000000 O
   0.0785285900000000    0.8863776600000000    0.4124200200000000 O
   0.4214714100000000    0.6136223400000000    0.9124200200000000 O
