Na8 B4 O10
1.0
   5.2828883800000002   -3.9504964400000002    0.0002854300000000
   5.2828883800000002    3.9504964400000002    0.0002854300000000
  -2.1570812799999999    0.0000000000000000    5.7981688399999998
Na B O
8 4 10
direct
   0.3152689500000000    0.9677622299999999    0.2734743900000000 Na
   0.0322377700000000    0.6847310500000000    0.2265256100000000 Na
   0.6847310500000000    0.0322377700000000    0.7265256100000000 Na
   0.9677622299999999    0.3152689500000000    0.7734743900000000 Na
   0.5959731500000000    0.6698840500000000    0.9246890400000000 Na
   0.3301159500000000    0.4040268500000000    0.5753109600000000 Na
   0.4040268500000000    0.3301159500000000    0.0753109600000000 Na
   0.6698840500000000    0.5959731500000000    0.4246890400000000 Na
   0.7474838800000000    0.0694753300000000    0.3340133000000000 B
   0.9305246700000001    0.2525161200000000    0.1659867000000000 B
   0.2525161200000000    0.9305246700000001    0.6659867000000000 B
   0.0694753300000000    0.7474838800000000    0.8340133000000000 B
   0.0686816100000000    0.9313183900000001    0.7500000000000000 O
   0.9313183900000001    0.0686816100000000    0.2500000000000000 O
   0.2592543700000000    0.6522983500000000    0.9617882500000000 O
   0.3477016500000000    0.7407456300000000    0.5382117500000000 O
   0.6852624000000000    0.8782672100000000    0.2856020400000000 O
   0.1217327900000000    0.3147376000000000    0.2143979600000000 O
   0.3147376000000000    0.1217327900000000    0.7143979600000000 O
   0.8782672100000000    0.6852624000000000    0.7856020400000000 O
   0.6522983500000000    0.2592543700000000    0.4617882500000000 O
   0.7407456300000000    0.3477016500000000    0.0382117500000000 O
