Na1 Bi1 Mo2 O8
1.0
  -2.6233290999999999    2.6233290399999998    5.6918554400000003
   2.6233290999999999   -2.6233290399999998    5.6918554400000003
   2.6233290399999998    2.6233290999999999   -5.6918554400000003
Na Bi Mo O
1 1 2 8
direct
   0.7500000000000000    0.2500000000000000    0.5000000000000000 Na
   0.5000000000000000    0.5000000000000000    0.0000000000000000 Bi
   0.0000000000000000    0.0000000000000000    0.0000000000000000 Mo
   0.2500000000000000    0.7500000000000000    0.5000000000000000 Mo
   0.4903476400000000    0.0786863900000000    0.8928327700000001 O
   0.1858536200000000    0.5975148600000000    0.1071672300000000 O
   0.9213136100000000    0.8141463799999999    0.4116612400000000 O
   0.4024851400000000    0.5096523600000000    0.5883387600000000 O
   0.3279406800000000    0.9264619100000000    0.0856188800000000 O
   0.8408430300000000    0.2423228000000000    0.9143811200000000 O
   0.0735380900000000    0.1591569700000000    0.4014787700000000 O
   0.7576772000000001    0.6720593200000000    0.5985212300000000 O
