Al4 Zn2 Se8
1.0
   0.0000000000000000    5.2624809299999997    5.2624809299999997
   5.2624809299999997    0.0000000000000000    5.2624809299999997
   5.2624809299999997    5.2624809299999997    0.0000000000000000
Al Zn Se
4 2 8
direct
   0.6250000000000000    0.1250000000000000    0.1250000000000000 Al
   0.1250000000000000    0.6250000000000000    0.1250000000000000 Al
   0.1250000000000000    0.1250000000000000    0.6250000000000000 Al
   0.1250000000000000    0.1250000000000000    0.1250000000000000 Al
   0.7500000000000000    0.7500000000000000    0.7500000000000000 Zn
   0.5000000000000000    0.5000000000000000    0.5000000000000000 Zn
   0.3499048100000000    0.8833647300000000    0.8833647300000000 Se
   0.8833647300000000    0.3499048100000000    0.8833647300000000 Se
   0.8833647300000000    0.8833647300000000    0.3499048100000000 Se
   0.8833647300000000    0.8833647300000000    0.8833647300000000 Se
   0.9000951900000000    0.3666352700000000    0.3666352700000000 Se
   0.3666352700000000    0.9000951900000000    0.3666352700000000 Se
   0.3666352700000000    0.3666352700000000    0.9000951900000000 Se
   0.3666352700000000    0.3666352700000000    0.3666352700000000 Se
