Na2 Si6 B2 O16
1.0
   6.8341938000000004   -0.0149584400000000    0.0064888200000000
  -2.1128889800000001    6.8793879599999999   -0.0220563500000000
  -1.3814443000000001   -3.7443675299999999    6.2972894200000002
Na Si B O
2 6 2 16
direct
   0.1310304800000000    0.2625782100000000    0.2464040600000000 Na
   0.8689695200000001    0.7374217900000000    0.7535959400000000 Na
   0.2092343700000000    0.8160582600000000    0.1962812700000000 Si
   0.7907656300000000    0.1839417400000000    0.8037187300000000 Si
   0.3177675300000000    0.8008647300000000    0.6002718600000000 Si
   0.6822324700000000    0.1991352700000000    0.3997281400000000 Si
   0.3546370700000000    0.5458435300000000    0.8186315800000000 Si
   0.6453629300000000    0.4541564700000000    0.1813684200000000 Si
   0.2212801600000000    0.1710899000000000    0.8537424300000001 B
   0.7787198400000001    0.8289101000000000    0.1462575700000000 B
   0.0030331200000000    0.1410231100000000    0.8733640700000000 O
   0.9969668800000000    0.8589768900000000    0.1266359300000000 O
   0.2732176300000000    0.5660509000000000    0.6066237400000000 O
   0.7267823700000000    0.4339491000000000    0.3933762600000000 O
   0.2098643700000000    0.9394904500000000    0.7507294900000000 O
   0.7901356300000000    0.0605095500000000    0.2492705100000000 O
   0.2344784500000000    0.6498767800000000    0.9811882000000000 O
   0.7655215500000000    0.3501232200000000    0.0188118000000000 O
   0.2737466200000000    0.2776734600000000    0.7313756200000000 O
   0.7262533799999999    0.7223265400000000    0.2686243800000000 O
   0.2000275800000000    0.7058010400000000    0.3478948400000000 O
   0.7999724200000000    0.2941989600000000    0.6521051600000000 O
   0.3810238800000000    0.3081397300000000    0.0754565000000000 O
   0.6189761200000000    0.6918602700000001    0.9245435000000000 O
   0.4187647600000000    0.0632227800000000    0.3276978000000000 O
   0.5812352400000000    0.9367772200000000    0.6723022000000000 O
