Sc2 B2 O6
1.0
   2.3739425100000000    1.3705965899999999    5.0438982399999999
  -2.3739425100000000    1.3705965899999999    5.0438982399999999
   0.0000000000000000   -2.7411931799999998    5.0438982399999999
Sc B O
2 2 6
direct
   0.0000000000000000    0.0000000000000000    0.0000000000000000 Sc
   0.5000000000000000    0.5000000000000000    0.5000000000000000 Sc
   0.7500000000000000    0.7500000000000000    0.7500000000000000 B
   0.2500000000000000    0.2500000000000000    0.2500000000000000 B
   0.7500000000000000    0.4585238200000000    0.0414761800000000 O
   0.0414761800000000    0.7500000000000000    0.4585238200000000 O
   0.5414761800000000    0.9585238200000000    0.2500000000000000 O
   0.2500000000000000    0.5414761800000000    0.9585238200000000 O
   0.9585238200000000    0.2500000000000000    0.5414761800000000 O
   0.4585238200000000    0.0414761800000000    0.7500000000000000 O
