Cs2 La4 Cu2 Se8
1.0
   2.1435435900000002   -7.4650261599999999    0.0000000000000000
   2.1435435900000002    7.4650261599999999    0.0000000000000000
   0.0000000000000000    0.0000000000000000   14.6233372300000006
Cs La Cu Se
2 4 2 8
direct
   0.8952600300000000    0.1047399700000000    0.7500000000000000 Cs
   0.1047399700000000    0.8952600300000000    0.2500000000000000 Cs
   0.6344976500000000    0.3655023500000000    0.9401042900000000 La
   0.3655023500000000    0.6344976500000000    0.0598957100000000 La
   0.3655023500000000    0.6344976500000000    0.4401042900000000 La
   0.6344976500000000    0.3655023500000000    0.5598957100000000 La
   0.1652837000000000    0.8347163000000000    0.7500000000000000 Cu
   0.8347163000000000    0.1652837000000000    0.2500000000000000 Cu
   0.7407857700000000    0.2592142300000000    0.3872925300000000 Se
   0.2592142300000000    0.7407857700000000    0.6127074700000000 Se
   0.2592142300000000    0.7407857700000000    0.8872925300000000 Se
   0.7407857700000000    0.2592142300000000    0.1127074700000000 Se
   0.5791462200000000    0.4208537800000000    0.7500000000000000 Se
   0.4208537800000000    0.5791462200000000    0.2500000000000000 Se
   0.0000000000000000    0.0000000000000000    0.0000000000000000 Se
   0.0000000000000000    0.0000000000000000    0.5000000000000000 Se
