Cs1 Li1 Zn1 S2
1.0
  -1.9929352700000000    1.9929352700000000    6.9219608800000003
   1.9929352700000000   -1.9929352700000000    6.9219608800000003
   1.9929352700000000    1.9929352700000000   -6.9219608800000003
Cs Li Zn S
1 1 1 2
direct
   0.0000000000000000    0.0000000000000000    0.0000000000000000 Cs
   0.2500000000000000    0.7500000000000000    0.5000000000000000 Li
   0.7500000000000000    0.2500000000000000    0.5000000000000000 Zn
   0.6570122300000000    0.6570122300000000    0.0000000000000000 S
   0.3429877700000000    0.3429877700000000    0.0000000000000000 S
