Cs4 Cu4 Se16
1.0
   5.3622351600000000    0.0000000000000000    0.0000000000000000
   0.0000000000000000    8.7980815999999997    0.0000000000000000
   0.0000000000000000    0.0000000000000000   14.1716228999999991
Cs Cu Se
4 4 16
direct
   0.6719412500000000    0.9502598799999999    0.1777979700000000 Cs
   0.1719412500000000    0.5497401200000001    0.8222020300000000 Cs
   0.3280587500000000    0.4502598800000000    0.3222020300000000 Cs
   0.8280587500000000    0.0497401200000000    0.6777979700000000 Cs
   0.9633971600000000    0.1288062900000000    0.9443202400000000 Cu
   0.5366028400000000    0.8711937100000000    0.4443202400000000 Cu
   0.0366028400000000    0.6288062900000000    0.5556797600000000 Cu
   0.4633971600000000    0.3711937100000000    0.0556797600000000 Cu
   0.6091183400000000    0.4036106900000000    0.5527028000000000 Se
   0.8908816600000000    0.5963893100000000    0.0527028000000000 Se
   0.3908816600000000    0.9036106900000000    0.9472972000000000 Se
   0.1091183400000000    0.0963893100000000    0.4472972000000000 Se
   0.8368957400000000    0.3743317900000000    0.1550055200000000 Se
   0.3368957400000000    0.1256682100000000    0.8449944800000000 Se
   0.1631042600000000    0.8743317900000001    0.3449944800000000 Se
   0.6631042600000000    0.6256682099999999    0.6550055200000000 Se
   0.6662014000000001    0.1320099100000000    0.4172437100000000 Se
   0.1662014000000000    0.3679900900000000    0.5827562900000000 Se
   0.3337986000000000    0.6320099100000000    0.0827562900000000 Se
   0.8337985999999999    0.8679900900000000    0.9172437100000000 Se
   0.1383943600000000    0.2002881200000000    0.0941389100000000 Se
   0.6383943600000000    0.2997118800000000    0.9058610900000000 Se
   0.8616056400000000    0.7002881200000000    0.4058610900000000 Se
   0.3616056400000000    0.7997118800000000    0.5941389100000000 Se
