Ti4 S4 O20
1.0
   2.5967666800000000   -6.9300914799999997    0.0027472100000000
   2.5967666800000000    6.9300914799999997    0.0027472100000000
  -0.0355417900000000    0.0000000000000000    9.5570792299999994
Ti S O
4 4 20
direct
   0.4152000800000000    0.5847999200000000    0.7500000000000000 Ti
   0.5847999200000000    0.4152000800000000    0.2500000000000000 Ti
   0.0000000000000000    0.5000000000000000    0.5000000000000000 Ti
   0.5000000000000000    0.0000000000000000    0.0000000000000000 Ti
   0.3586348800000000    0.1420305100000000    0.5665692000000000 S
   0.8579694900000000    0.6413651200000000    0.9334308000000000 S
   0.6413651200000000    0.8579694900000000    0.4334308000000000 S
   0.1420305100000000    0.3586348800000000    0.0665692000000000 S
   0.1585474800000000    0.8569345700000000    0.9137395300000000 O
   0.1430654300000000    0.8414525200000000    0.5862604700000000 O
   0.8414525200000000    0.1430654300000000    0.0862604700000000 O
   0.8569345700000000    0.1585474800000000    0.4137395300000000 O
   0.6582087200000000    0.7973658800000000    0.5779496000000000 O
   0.2026341200000000    0.3417912800000000    0.9220504000000000 O
   0.3417912800000000    0.2026341200000000    0.4220504000000000 O
   0.7973658800000000    0.6582087200000000    0.0779496000000000 O
   0.3105907000000000    0.2481423700000000    0.6691456400000000 O
   0.7518576300000001    0.6894093000000000    0.8308543600000000 O
   0.6894093000000000    0.7518576300000001    0.3308543600000000 O
   0.2481423700000000    0.3105907000000000    0.1691456400000000 O
   0.5329734900000000    0.8742253700000000    0.8433560900000000 O
   0.1257746300000000    0.4670265100000000    0.6566439100000000 O
   0.4670265100000000    0.1257746300000000    0.1566439100000000 O
   0.8742253700000000    0.5329734900000000    0.3433560900000000 O
   0.6318564900000000    0.2618612200000000    0.5917569400000000 O
   0.7381387800000000    0.3681435100000000    0.9082430600000000 O
   0.3681435100000000    0.7381387800000000    0.4082430600000000 O
   0.2618612200000000    0.6318564900000000    0.0917569400000000 O
