Na2 Hf4 P6 O24
1.0
   4.4255756999999996    2.5551072300000000    7.5400693299999997
  -4.4255756999999996    2.5551072300000000    7.5400693299999997
   0.0000000000000000   -5.1102144500000000    7.5400693299999997
Na Hf P O
2 4 6 24
direct
   0.5000000000000000    0.5000000000000000    0.5000000000000000 Na
   0.0000000000000000    0.0000000000000000    0.0000000000000000 Na
   0.3555808600000000    0.3555808600000000    0.3555808600000000 Hf
   0.1444191400000000    0.1444191400000000    0.1444191400000000 Hf
   0.8555808600000000    0.8555808600000000    0.8555808600000000 Hf
   0.6444191400000000    0.6444191400000000    0.6444191400000000 Hf
   0.7500000000000000    0.0421616900000000    0.4578383100000000 P
   0.4578383100000000    0.7500000000000000    0.0421616900000000 P
   0.0421616900000000    0.4578383100000000    0.7500000000000000 P
   0.9578383100000000    0.5421616900000000    0.2500000000000000 P
   0.5421616900000000    0.2500000000000000    0.9578383100000000 P
   0.2500000000000000    0.9578383100000000    0.5421616900000000 P
   0.7233853099999999    0.0844858700000000    0.9371256800000000 O
   0.0844858700000000    0.9371256800000000    0.7233853099999999 O
   0.9371256800000000    0.7233853099999999    0.0844858700000000 O
   0.7944359500000000    0.0050372900000000    0.6177106800000000 O
   0.6177106800000000    0.7944359500000000    0.0050372900000000 O
   0.0050372900000000    0.6177106800000000    0.7944359500000000 O
   0.7055640500000000    0.8822893200000000    0.4949627100000000 O
   0.4949627100000000    0.7055640500000000    0.8822893200000000 O
   0.8822893200000000    0.4949627100000000    0.7055640500000000 O
   0.4155141300000000    0.7766146900000001    0.5628743200000000 O
   0.7766146900000001    0.5628743200000000    0.4155141300000000 O
   0.5628743200000000    0.4155141300000000    0.7766146900000001 O
   0.4371256800000000    0.5844858700000000    0.2233853100000000 O
   0.2233853100000000    0.4371256800000000    0.5844858700000000 O
   0.5844858700000000    0.2233853100000000    0.4371256800000000 O
   0.1177106800000000    0.5050372900000000    0.2944359500000000 O
   0.5050372900000000    0.2944359500000000    0.1177106800000000 O
   0.2944359500000000    0.1177106800000000    0.5050372900000000 O
   0.9949627100000000    0.3822893200000000    0.2055640500000000 O
   0.3822893200000000    0.2055640500000000    0.9949627100000000 O
   0.2055640500000000    0.9949627100000000    0.3822893200000000 O
   0.0628743200000000    0.2766146900000000    0.9155141300000000 O
   0.9155141300000000    0.0628743200000000    0.2766146900000000 O
   0.2766146900000000    0.9155141300000000    0.0628743200000000 O
