Ba8 Ge8 Se20
1.0
  12.4974778999999998    0.0000000000000000    0.0000000000000000
   0.0000000000000000    9.0401046100000002    0.0000000000000000
   0.0000000000000000    0.0000000000000000    9.1294410999999993
Ba Ge Se
8 8 20
direct
   0.1778342200000000    0.4955320500000000    0.8775295200000000 Ba
   0.3221657800000000    0.5044679500000000    0.3775295200000000 Ba
   0.8221657800000000    0.9955320500000000    0.1224704800000000 Ba
   0.6778342200000000    0.0044679500000000    0.6224704800000000 Ba
   0.8221657800000000    0.5044679500000000    0.1224704800000000 Ba
   0.6778342200000000    0.4955320500000000    0.6224704800000000 Ba
   0.1778342200000000    0.0044679500000000    0.8775295200000000 Ba
   0.3221657800000000    0.9955320500000000    0.3775295200000000 Ba
   0.5314764400000000    0.7500000000000000    0.9710039100000000 Ge
   0.4685235600000000    0.2500000000000000    0.0289960900000000 Ge
   0.0314764400000000    0.7500000000000000    0.5289960900000000 Ge
   0.9685235600000000    0.2500000000000000    0.4710039100000000 Ge
   0.9037735900000000    0.2500000000000000    0.8181394600000000 Ge
   0.5962264100000000    0.7500000000000000    0.3181394600000000 Ge
   0.0962264100000000    0.7500000000000000    0.1818605400000000 Ge
   0.4037735900000000    0.2500000000000000    0.6818605400000000 Ge
   0.2821299000000000    0.2500000000000000    0.1180375900000000 Se
   0.2178701000000000    0.7500000000000000    0.6180375900000000 Se
   0.7178701000000000    0.7500000000000000    0.8819624100000000 Se
   0.7821299000000000    0.2500000000000000    0.3819624100000000 Se
   0.4920070700000000    0.7500000000000000    0.5323935100000000 Se
   0.9920070700000000    0.7500000000000000    0.9676064900000000 Se
   0.0079929300000000    0.2500000000000000    0.0323935100000000 Se
   0.5079929300000000    0.2500000000000000    0.4676064900000000 Se
   0.2197475600000000    0.2500000000000000    0.6124679300000000 Se
   0.2802524400000000    0.7500000000000000    0.1124679300000000 Se
   0.7802524400000000    0.7500000000000000    0.3875320700000000 Se
   0.7197475600000000    0.2500000000000000    0.8875320700000000 Se
   0.4438610500000000    0.0379646500000000    0.8284513700000000 Se
   0.0561389500000000    0.9620353500000000    0.3284513700000000 Se
   0.5561389500000000    0.5379646500000000    0.1715486300000000 Se
   0.9438610500000000    0.4620353500000000    0.6715486300000000 Se
   0.5561389500000000    0.9620353500000000    0.1715486300000000 Se
   0.9438610500000000    0.0379646500000000    0.6715486300000000 Se
   0.4438610500000000    0.4620353500000000    0.8284513700000000 Se
   0.0561389500000000    0.5379646500000000    0.3284513700000000 Se
