Mg4 Mo4 O16
1.0
   5.1595159800000001   -4.6502421199999997   -0.0369157400000000
   5.1595159800000001    4.6502421199999997   -0.0369157400000000
  -2.0595416400000000    0.0000000000000000    6.7672443600000003
Mg Mo O
4 4 16
direct
   0.7008710600000000    0.7008710600000000    0.3577197000000000 Mg
   0.2991289400000000    0.2991289400000000    0.6422803000000000 Mg
   0.6786049000000000    0.3213951000000000    0.0000000000000000 Mg
   0.3213951000000000    0.6786049000000000    0.0000000000000000 Mg
   0.7690888600000000    0.7690888600000000    0.9052369500000000 Mo
   0.2309111400000000    0.2309111400000000    0.0947630500000000 Mo
   0.7483747300000000    0.2516252700000000    0.5000000000000000 Mo
   0.2516252700000000    0.7483747300000000    0.5000000000000000 Mo
   0.6976185800000000    0.6976185800000000    0.6433408600000000 O
   0.3023814200000000    0.3023814200000000    0.3566591400000000 O
   0.9769621200000000    0.2905740200000000    0.0268990000000000 O
   0.7094259800000000    0.0230378800000000    0.9731010000000000 O
   0.0230378800000000    0.7094259800000000    0.9731010000000000 O
   0.2905740200000000    0.9769621200000000    0.0268990000000000 O
   0.6394215400000000    0.6394215400000000    0.0404154300000000 O
   0.3605784600000000    0.3605784600000000    0.9595845700000000 O
   0.3906669400000000    0.6947138000000000    0.3018649800000000 O
   0.3052862000000000    0.6093330600000000    0.6981350200000001 O
   0.6093330600000000    0.3052862000000000    0.6981350200000001 O
   0.6947138000000000    0.3906669400000000    0.3018649800000000 O
   0.0015814500000000    0.7136479999999999    0.3900315900000000 O
   0.2863520000000000    0.9984185500000000    0.6099684100000000 O
   0.9984185500000000    0.2863520000000000    0.6099684100000000 O
   0.7136479999999999    0.0015814500000000    0.3900315900000000 O
