Cs1 Au3 S2
1.0
   6.0998858199999999    0.0000000000000000    0.0000000000000000
  -3.0499429100000000    5.2826559599999996    0.0000000000000000
   0.0000000000000000    0.0000000000000000    5.1850627100000004
Cs Au S
1 3 2
direct
   0.0000000000000000    0.0000000000000000    0.5000000000000000 Cs
   0.0000000000000000    0.5000000000000000    0.0000000000000000 Au
   0.5000000000000000    0.0000000000000000    0.0000000000000000 Au
   0.5000000000000000    0.5000000000000000    0.0000000000000000 Au
   0.3333330000000000    0.6666670000000000    0.7100022499999999 S
   0.6666670000000000    0.3333330000000000    0.2899977500000000 S
