La6 Re2 O16
1.0
   4.3175945200000001   -6.1589675399999999    0.0000000000000000
   4.3175945200000001    6.1589675399999999    0.0000000000000000
   0.0000000000000000    0.0000000000000000    6.2218841200000004
La Re O
6 2 16
direct
   0.1077625400000000    0.3371390800000000    0.2500000000000000 La
   0.8922374600000000    0.6628609200000000    0.7500000000000000 La
   0.6026541200000000    0.3973458800000000    0.2500000000000000 La
   0.3973458800000000    0.6026541200000000    0.7500000000000000 La
   0.3371390800000000    0.1077625400000000    0.7500000000000000 La
   0.6628609200000000    0.8922374600000000    0.2500000000000000 La
   0.1813399400000000    0.8186600600000000    0.2500000000000000 Re
   0.8186600600000000    0.1813399400000000    0.7500000000000000 Re
   0.9683411800000000    0.0316588200000000    0.7500000000000000 O
   0.0316588200000000    0.9683411800000000    0.2500000000000000 O
   0.0321255900000000    0.4079758000000000    0.7500000000000000 O
   0.9678744100000000    0.5920242000000000    0.2500000000000000 O
   0.6609682000000000    0.3390318000000000    0.7500000000000000 O
   0.3390318000000000    0.6609682000000000    0.2500000000000000 O
   0.5920242000000000    0.9678744100000000    0.7500000000000000 O
   0.4079758000000000    0.0321255900000000    0.2500000000000000 O
   0.6639750700000000    0.6639750700000000    0.0000000000000000 O
   0.3360249300000000    0.3360249300000000    0.5000000000000000 O
   0.3360249300000000    0.3360249300000000    0.0000000000000000 O
   0.6639750700000000    0.6639750700000000    0.5000000000000000 O
   0.8036322100000000    0.1963677900000000    0.0503444200000000 O
   0.1963677900000000    0.8036322100000000    0.5503444199999999 O
   0.1963677900000000    0.8036322100000000    0.9496555800000001 O
   0.8036322100000000    0.1963677900000000    0.4496555800000000 O
