Rb2 V2 Cu4 S8
1.0
   7.2828455099999996    0.0000000000000000    0.0000000000000000
   0.0000000000000000    9.0335230800000001    2.6854430599999999
   0.0000000000000000   -9.0335230800000001    2.6854430599999999
Rb V Cu S
2 2 4 8
direct
   0.2500000000000000    0.5403822100000000    0.1750676200000000 Rb
   0.7500000000000000    0.1750676200000000    0.5403822100000000 Rb
   0.2500000000000000    0.4943262500000000    0.7117071699999999 V
   0.7500000000000000    0.7117071699999999    0.4943262500000000 V
   0.5000000000000000    0.6216714900000000    0.6216714900000000 Cu
   0.7500000000000000    0.2086470900000000    0.9966289100000000 Cu
   0.2500000000000000    0.9966289100000000    0.2086470900000000 Cu
   0.0000000000000000    0.6216714900000000    0.6216714900000000 Cu
   0.9940118200000000    0.9465208300000000    0.7314715100000000 S
   0.2500000000000000    0.3604482600000000    0.3765825900000000 S
   0.7500000000000000    0.3765825900000000    0.3604482600000000 S
   0.4940118200000000    0.7314715100000000    0.9465208300000000 S
   0.2500000000000000    0.1597326900000000    0.5689495300000000 S
   0.0059881800000000    0.7314715100000000    0.9465208300000000 S
   0.7500000000000000    0.5689495300000000    0.1597326900000000 S
   0.5059881800000000    0.9465208300000000    0.7314715100000000 S
