Cs2 K4 La2 V4 O16
1.0
   7.8103473599999997    0.0000000000000000   -0.0130227800000000
   0.0000000000000000    6.0196432199999999    0.0000000000000000
  -0.2159759500000000    0.0000000000000000   10.0441210299999995
Cs K La V O
2 4 2 4 16
direct
   0.1223954000000000    0.7500000000000000    0.4074687300000000 Cs
   0.8776046000000000    0.2500000000000000    0.5925312700000001 Cs
   0.9954882100000000    0.7500000000000000    0.8108728500000000 K
   0.0045117900000000    0.2500000000000000    0.1891271500000000 K
   0.6918248800000000    0.7500000000000000    0.0829366200000000 K
   0.3081751200000000    0.2500000000000000    0.9170633800000000 K
   0.4946990300000000    0.7500000000000000    0.7112924900000001 La
   0.5053009700000000    0.2500000000000000    0.2887075100000000 La
   0.2612389700000000    0.7500000000000000    0.0821357900000000 V
   0.7387610300000000    0.2500000000000000    0.9178642100000000 V
   0.6857493099999999    0.7500000000000000    0.4247672700000000 V
   0.3142506900000000    0.2500000000000000    0.5752327300000000 V
   0.0439831600000000    0.7500000000000000    0.0874240000000000 O
   0.9560168400000000    0.2500000000000000    0.9125760000000001 O
   0.4732057500000000    0.7500000000000000    0.4578922800000000 O
   0.5267942500000000    0.2500000000000000    0.5421077200000000 O
   0.3250374100000000    0.7500000000000000    0.9181669000000000 O
   0.6749625900000000    0.2500000000000000    0.0818331000000000 O
   0.3402762800000000    0.9877827800000000    0.1613144600000000 O
   0.6597237200000000    0.0122172200000000    0.8386855400000000 O
   0.6597237200000000    0.4877827800000000    0.8386855400000000 O
   0.3402762800000000    0.5122172200000000    0.1613144600000000 O
   0.7388213900000000    0.9857897400000000    0.3351338600000000 O
   0.2611786100000000    0.0142102600000000    0.6648661400000000 O
   0.2611786100000000    0.4857897400000000    0.6648661400000000 O
   0.7388213900000000    0.5142102600000000    0.3351338600000000 O
   0.7789673600000000    0.7500000000000000    0.5827263499999999 O
   0.2210326400000000    0.2500000000000000    0.4172736500000000 O
