Al1 Ag1 P2 Se6
1.0
   3.1442470800000000   -5.4473340600000002    0.0031214700000000
   3.1442470800000000    5.4473340600000002    0.0031214700000000
  -2.0128942599999999    0.0000000000000000    6.7938283300000002
Al Ag P Se
1 1 2 6
direct
   0.6669398000000000    0.3330602000000000    0.0000000000000000 Al
   0.3331012800000000    0.6668987199999999    0.0000000000000000 Ag
   0.9475670500000000    0.9477095100000000    0.8364597100000000 P
   0.0522904900000000    0.0524329500000000    0.1635402900000000 P
   0.8825418600000000    0.5629897100000000    0.7499958100000000 Se
   0.6008567700000000    0.9578383600000000    0.7482946100000000 Se
   0.0421616400000000    0.3991432300000000    0.2517053900000000 Se
   0.4370102900000000    0.1174581400000000    0.2500041900000000 Se
   0.2768723500000000    0.2393425300000000    0.7493820500000000 Se
   0.7606574699999999    0.7231276500000000    0.2506179500000000 Se
