Cs6 Ti6 S27
1.0
   6.7969679500000000    3.9242228799999999    6.6046365900000001
  -6.7969604500000003    3.9242358799999999    6.6046365900000001
  -0.0000075000000000   -7.8484587599999998    6.6046365900000001
Cs Ti S
6 6 27
direct
   0.6604344599999999    0.6604344599999999    0.6604344599999999 Cs
   0.7926438400000000    0.1661298400000000    0.4317575500000000 Cs
   0.1661298400000000    0.4317575500000000    0.7926438400000000 Cs
   0.2353845700000000    0.2353845700000000    0.2353845700000000 Cs
   0.4317575500000000    0.7926438400000000    0.1661298400000000 Cs
   0.9970754400000000    0.9970754400000000    0.9970754400000000 Cs
   0.5290901900000000    0.1708357100000000    0.8697000000000000 Ti
   0.7289461800000000    0.3324955500000000    0.9951386700000000 Ti
   0.1708357100000000    0.8697000000000000    0.5290901900000000 Ti
   0.3324955500000000    0.9951386700000000    0.7289461800000000 Ti
   0.9951386700000000    0.7289461800000000    0.3324955500000000 Ti
   0.8697000000000000    0.5290901900000000    0.1708357100000000 Ti
   0.3068138400000000    0.1140515100000000    0.9197233400000000 S
   0.9030370599999999    0.5005339700000000    0.4008411300000000 S
   0.7842419000000000    0.1945621300000000    0.8176215000000000 S
   0.5045212400000000    0.3605328300000000    0.7098602200000000 S
   0.1945621300000000    0.8176215000000000    0.7842419000000000 S
   0.7749189600000000    0.8319234900000000    0.3857475000000000 S
   0.5579718100000000    0.3275551400000000    0.1827746400000000 S
   0.1505759000000000    0.1001058700000000    0.6010004300000000 S
   0.1827746400000000    0.5579718100000000    0.3275551400000000 S
   0.7065162100000000    0.5758240600000000    0.0150653100000000 S
   0.5758240600000000    0.0150653100000000    0.7065162100000000 S
   0.1140515100000000    0.9197233400000000    0.3068138400000000 S
   0.3605328300000000    0.7098602200000000    0.5045212400000000 S
   0.8866198900000000    0.6458131800000000    0.9483519400000000 S
   0.9197233400000000    0.3068138400000000    0.1140515100000000 S
   0.7098602200000000    0.5045212400000000    0.3605328300000000 S
   0.9483519400000000    0.8866198900000000    0.6458131800000000 S
   0.6458131800000000    0.9483519400000000    0.8866198900000000 S
   0.1001058700000000    0.6010004300000000    0.1505759000000000 S
   0.5005339700000000    0.4008411300000000    0.9030370599999999 S
   0.8319234900000000    0.3857475000000000    0.7749189600000000 S
   0.8176215000000000    0.7842419000000000    0.1945621300000000 S
   0.4008411300000000    0.9030370599999999    0.5005339700000000 S
   0.3857475000000000    0.7749189600000000    0.8319234900000000 S
   0.0150653100000000    0.7065162100000000    0.5758240600000000 S
   0.3275551400000000    0.1827746400000000    0.5579718100000000 S
   0.6010004300000000    0.1505759000000000    0.1001058700000000 S
