Na14 Al6 O16
1.0
   5.8282246899999999    0.0000884800000000   -0.0000499300000000
   2.5776285500000000    7.4785283800000002    0.0001182300000000
   2.4476368599999998    3.3213596000000001   10.4123989100000003
Na Al O
14 6 16
direct
   0.8513997400000000    0.2267911800000000    0.6682968500000001 Na
   0.7227858300000000    0.0697663100000000    0.4521081400000000 Na
   0.4504892200000000    0.0683481500000000    0.2372710000000000 Na
   0.6254794900000000    0.6431269400000000    0.4434130600000000 Na
   0.3745205100000000    0.3568730600000000    0.5565869400000000 Na
   0.4771152000000000    0.5626465400000000    0.7276714900000000 Na
   0.2772141700000000    0.9302336900000000    0.5478918600000000 Na
   0.1486002600000000    0.7732088200000000    0.3317031500000000 Na
   0.2612917900000000    0.4539849700000000    0.0542335800000000 Na
   0.6625926900000000    0.1469882600000000    0.9502071000000000 Na
   0.7387082100000000    0.5460150300000000    0.9457664200000000 Na
   0.5228848000000000    0.4373534600000000    0.2723285100000000 Na
   0.5495107800000000    0.9316518499999999    0.7627290000000000 Na
   0.3374073100000000    0.8530117400000000    0.0497929000000000 Na
   0.8322301600000001    0.7434496600000000    0.1566083600000000 Al
   0.1677698400000000    0.2565503400000000    0.8433916400000000 Al
   0.9570582500000000    0.6825652100000000    0.6437602900000000 Al
   0.0429417500000000    0.3174347900000000    0.3562397100000000 Al
   0.0649805500000000    0.8391652200000000    0.8613083900000000 Al
   0.9350194500000000    0.1608347800000000    0.1386916100000000 Al
   0.1647203900000000    0.2257825400000000    0.0100572500000000 O
   0.6414731100000000    0.3016661300000000    0.1060617600000000 O
   0.0267592500000000    0.1528965800000000    0.2813233800000000 O
   0.9476005000000000    0.4619928700000000    0.7649442000000000 O
   0.6749520200000000    0.7851481000000000    0.5800727900000000 O
   0.0660522800000000    0.0717683800000000    0.8384743000000000 O
   0.2233446500000000    0.6627107200000000    0.5347730600000000 O
   0.0523995000000000    0.5380071300000000    0.2350558000000000 O
   0.3585268900000000    0.6983338700000000    0.8939382400000000 O
   0.9732407500000000    0.8471034200000001    0.7186766200000000 O
   0.9339477200000000    0.9282316200000000    0.1615257000000000 O
   0.7766553500000000    0.3372892800000000    0.4652269400000000 O
   0.4677737100000000    0.2420838000000000    0.7690534100000000 O
   0.8352796100000000    0.7742174600000000    0.9899427500000000 O
   0.5322262900000000    0.7579162000000000    0.2309465900000000 O
   0.3250479800000000    0.2148519000000000    0.4199272100000000 O
