Li2 V6 O16
1.0
   6.6553211499999998    0.0000000000000000    0.0208171800000000
   0.0000000000000000    3.6059755500000001    0.0000000000000000
  -2.9214990699999999    0.0000000000000000   11.2747114400000008
Li V O
2 6 16
direct
   0.1902926100000000    0.7500000000000000    0.6844025900000000 Li
   0.8097073900000000    0.2500000000000000    0.3155974100000000 Li
   0.6925720700000000    0.7500000000000000    0.5402569600000000 V
   0.3074279300000000    0.2500000000000000    0.4597430400000000 V
   0.8744560500000000    0.7500000000000000    0.0805237900000000 V
   0.1255439500000000    0.2500000000000000    0.9194762100000000 V
   0.7379023000000000    0.7500000000000000    0.8069478700000000 V
   0.2620977000000000    0.2500000000000000    0.1930521300000000 V
   0.3913038900000000    0.7500000000000000    0.4574348500000000 O
   0.6086961100000000    0.2500000000000000    0.5425651500000001 O
   0.0493478700000000    0.7500000000000000    0.9283386000000000 O
   0.9506521300000000    0.2500000000000000    0.0716614000000000 O
   0.8805632799999999    0.7500000000000000    0.6754509100000000 O
   0.1194367200000000    0.2500000000000000    0.3245490900000000 O
   0.7647787000000000    0.7500000000000000    0.1906869900000000 O
   0.2352213000000000    0.2500000000000000    0.8093130100000000 O
   0.8208322800000000    0.7500000000000000    0.4377810300000000 O
   0.1791677200000000    0.2500000000000000    0.5622189700000000 O
   0.6685022900000001    0.7500000000000000    0.9511727000000000 O
   0.3314977100000000    0.2500000000000000    0.0488273000000000 O
   0.5074021600000000    0.7500000000000000    0.7167684800000000 O
   0.4925978400000000    0.2500000000000000    0.2832315200000000 O
   0.1803987200000000    0.7500000000000000    0.1743819000000000 O
   0.8196012800000000    0.2500000000000000    0.8256181000000000 O
