Rb2 Y2 W4 O16
1.0
   5.3557674999999998   -5.2363142800000002   -0.0259054300000000
   5.3557674999999998    5.2363142800000002   -0.0259054300000000
  -4.7758218299999999    0.0000000000000000    5.6913611700000004
Rb Y W O
2 2 4 16
direct
   0.7991212300000000    0.2008787700000000    0.7500000000000000 Rb
   0.2008787700000000    0.7991212300000000    0.2500000000000000 Rb
   0.2262943600000000    0.7737056400000000    0.7500000000000000 Y
   0.7737056400000000    0.2262943600000000    0.2500000000000000 Y
   0.3008166000000000    0.3090813400000000    0.7768402599999999 W
   0.6991834000000000    0.6909186600000000    0.2231597400000000 W
   0.6909186600000000    0.6991834000000000    0.7231597400000001 W
   0.3090813400000000    0.3008166000000000    0.2768402600000000 W
   0.3787990900000000    0.2451145100000000    0.5589576700000000 O
   0.6212009100000000    0.7548854900000000    0.4410423300000000 O
   0.7548854900000000    0.6212009100000000    0.9410423300000000 O
   0.2451145100000000    0.3787990900000000    0.0589576700000000 O
   0.6265904300000000    0.9400840800000000    0.8754383200000000 O
   0.3734095700000000    0.0599159200000000    0.1245616800000000 O
   0.0599159200000000    0.3734095700000000    0.6245616800000000 O
   0.9400840800000000    0.6265904300000000    0.3754383200000000 O
   0.4094750900000000    0.6295789200000000    0.9670881900000000 O
   0.5905249100000000    0.3704210800000000    0.0329118100000000 O
   0.3704210800000000    0.5905249100000000    0.5329118100000000 O
   0.6295789200000000    0.4094750900000000    0.4670881900000000 O
   0.2168704300000000    0.0454594300000000    0.6937449999999999 O
   0.7831295700000001    0.9545405700000000    0.3062550000000000 O
   0.9545405700000000    0.7831295700000001    0.8062550000000001 O
   0.0454594300000000    0.2168704300000000    0.1937450000000000 O
