Sr2 Mo4 Se4 O22
1.0
   7.8940747900000003    0.0435702700000000   -0.0207300800000000
   3.1476694400000000    7.5192298600000003   -0.0429904500000000
   3.5792568100000000   -0.3837845500000000    8.0467721300000008
Sr Mo Se O
2 4 4 22
direct
   0.5730517300000000    0.2252739300000000    0.4764227900000000 Sr
   0.4269482700000000    0.7747260700000000    0.5235772100000000 Sr
   0.7225303500000000    0.3793337900000000    0.8084908400000000 Mo
   0.2774696500000000    0.6206662100000000    0.1915091600000000 Mo
   0.7191103300000000    0.9663868200000000    0.0502663900000000 Mo
   0.2808896700000000    0.0336131800000000    0.9497336100000000 Mo
   0.7571586600000000    0.5499618900000000    0.1462163900000000 Se
   0.2428413400000000    0.4500381100000000    0.8537836100000000 Se
   0.7620979200000000    0.7723567000000000    0.6874974600000000 Se
   0.2379020800000000    0.2276433000000000    0.3125025400000000 Se
   0.9444734299999999    0.3970155600000000    0.7835012500000000 O
   0.0555265700000000    0.6029844400000000    0.2164987500000000 O
   0.7663828300000000    0.2855291400000000    0.6211524500000000 O
   0.2336171700000000    0.7144708600000000    0.3788475500000000 O
   0.7334998700000001    0.1692628400000000    0.9246157100000000 O
   0.2665001300000000    0.8307371600000000    0.0753842900000000 O
   0.6334037800000000    0.6316073100000000    0.7168124400000000 O
   0.3665962200000000    0.3683926900000000    0.2831875600000000 O
   0.5985407600000000    0.5215145300000000    0.0627358000000000 O
   0.4014592400000000    0.4784854700000000    0.9372642000000000 O
   0.9440529100000000    0.8002842100000001    0.9315901900000000 O
   0.0559470900000000    0.1997157900000000    0.0684098100000000 O
   0.7536721500000000    0.0343429100000000    0.2116398800000000 O
   0.2463278500000000    0.9656570900000000    0.7883601200000000 O
   0.6222622600000000    0.7800251400000000    0.1968713800000000 O
   0.3777377400000000    0.2199748600000000    0.8031286200000000 O
   0.6022819600000000    0.9061188600000000    0.8744736400000001 O
   0.3977180400000000    0.0938811400000000    0.1255263600000000 O
   0.6718386400000000    0.4832067100000000    0.3390163800000000 O
   0.3281613600000000    0.5167932900000000    0.6609836200000000 O
   0.6814305800000000    0.8988239800000000    0.5489835800000000 O
   0.3185694200000000    0.1011760200000000    0.4510164200000000 O
