Li16 Nb2 N8 O1
1.0
   2.9864148600000000    1.7242077400000000    8.4583501699999992
  -2.9864148500000001    1.7242077700000000    8.4583501699999992
  -0.0000000100000000   -3.4484145200000000    8.4583501800000001
Li Nb N O
16 2 8 1
direct
   0.5824858200000000    0.5824858200000000    0.5824858200000000 Li
   0.4175141800000000    0.4175141800000000    0.4175141800000000 Li
   0.9224651300000000    0.9224651300000000    0.9224651300000000 Li
   0.0775348700000000    0.0775348700000000    0.0775348700000000 Li
   0.6704924900000000    0.9412385400000000    0.3170318500000000 Li
   0.3170318500000000    0.6704924900000000    0.9412385400000000 Li
   0.9412385400000000    0.3170318500000000    0.6704924900000000 Li
   0.3295075100000000    0.0587614600000000    0.6829681500000000 Li
   0.6829681500000000    0.3295075100000000    0.0587614600000000 Li
   0.0587614600000000    0.6829681500000000    0.3295075100000000 Li
   0.8261891400000000    0.5812747900000000    0.1665092100000000 Li
   0.4187252100000000    0.8334907900000000    0.1738108600000000 Li
   0.8334907900000000    0.1738108600000000    0.4187252100000000 Li
   0.1738108600000000    0.4187252100000000    0.8334907900000000 Li
   0.5812747900000000    0.1665092100000000    0.8261891400000000 Li
   0.1665092100000000    0.8261891400000000    0.5812747900000000 Li
   0.2494623000000000    0.2494623000000000    0.2494623000000000 Nb
   0.7505377000000000    0.7505377000000000    0.7505377000000000 Nb
   0.3274118000000000    0.3274118000000000    0.3274118000000000 N
   0.6725882000000000    0.6725882000000000    0.6725882000000000 N
   0.2246563800000000    0.5386614500000000    0.9099575400000000 N
   0.9099575400000000    0.2246563800000000    0.5386614500000000 N
   0.5386614500000000    0.9099575400000000    0.2246563800000000 N
   0.7753436200000000    0.4613385500000000    0.0900424600000000 N
   0.0900424600000000    0.7753436200000000    0.4613385500000000 N
   0.4613385500000000    0.0900424600000000    0.7753436200000000 N
   0.0000000000000000    0.0000000000000000    0.0000000000000000 O
