Ba6 W4 O18
1.0
   5.0548398600000004    2.9184125500000002    4.6518610799999998
  -5.0548398600000004    2.9184125500000002    4.6518610799999998
   0.0000000000000000   -5.8368260699999999    4.6518610699999998
Ba W O
6 4 18
direct
   0.9196534000000000    0.2500000000000000    0.5803466000000000 Ba
   0.2500000000000000    0.5803466000000000    0.9196534000000000 Ba
   0.5803466000000000    0.9196534000000000    0.2500000000000000 Ba
   0.0803466000000000    0.7500000000000000    0.4196534000000000 Ba
   0.4196534000000000    0.0803466000000000    0.7500000000000000 Ba
   0.7500000000000000    0.4196534000000000    0.0803466000000000 Ba
   0.1454897600000000    0.1454897600000000    0.1454897600000000 W
   0.3545102400000000    0.3545102400000000    0.3545102400000000 W
   0.8545102400000000    0.8545102400000000    0.8545102400000000 W
   0.6454897600000000    0.6454897600000000    0.6454897600000000 W
   0.9272223400000000    0.0869076000000000    0.2517695300000000 O
   0.2517695300000000    0.9272223400000000    0.0869076000000000 O
   0.0869076000000000    0.2517695300000000    0.9272223400000000 O
   0.4130924000000000    0.5727776600000000    0.2482304700000000 O
   0.2482304700000000    0.4130924000000000    0.5727776600000000 O
   0.5727776600000000    0.2482304700000000    0.4130924000000000 O
   0.0727776600000000    0.9130924000000000    0.7482304700000000 O
   0.7482304700000000    0.0727776600000000    0.9130924000000000 O
   0.9130924000000000    0.7482304700000000    0.0727776600000000 O
   0.5869076000000000    0.4272223400000000    0.7517695300000000 O
   0.3963676500000000    0.2500000000000000    0.1036323500000000 O
   0.2500000000000000    0.1036323500000000    0.3963676500000000 O
   0.1036323500000000    0.3963676500000000    0.2500000000000000 O
   0.6036323500000000    0.7500000000000000    0.8963676500000000 O
   0.7500000000000000    0.8963676500000000    0.6036323500000000 O
   0.8963676500000000    0.6036323500000000    0.7500000000000000 O
   0.4272223400000000    0.7517695300000000    0.5869076000000000 O
   0.7517695300000000    0.5869076000000000    0.4272223400000000 O
