Ag6 P2 S8
1.0
   7.5636164700000004    0.0000000000000000    0.0000000000000000
   0.0000000000000000    6.7464200900000000    0.0000000000000000
   0.0000000000000000    0.0000000000000000    6.4435184999999997
Ag P S
6 2 8
direct
   0.2648161000000000    0.8083269100000000    0.0159777200000000 Ag
   0.2351839000000000    0.1916730900000000    0.5159777200000000 Ag
   0.7648161000000000    0.1916730900000000    0.5159777200000000 Ag
   0.7351839000000000    0.8083269100000000    0.0159777200000000 Ag
   0.0000000000000000    0.3582231700000000    0.9830958500000000 Ag
   0.5000000000000000    0.6417768300000000    0.4830958500000000 Ag
   0.5000000000000000    0.3116566600000000    0.9957094200000000 P
   0.0000000000000000    0.6883433400000000    0.4957094200000000 P
   0.7231120300000000    0.1633706600000000    0.8948503900000000 S
   0.7768879700000000    0.8366293400000000    0.3948503900000000 S
   0.0000000000000000    0.4077866300000000    0.3723228400000000 S
   0.5000000000000000    0.5922133700000000    0.8723228400000000 S
   0.2231120300000000    0.8366293400000000    0.3948503900000000 S
   0.2768879700000000    0.1633706600000000    0.8948503900000000 S
   0.5000000000000000    0.3094407000000000    0.3133086800000000 S
   0.0000000000000000    0.6905593000000000    0.8133086800000000 S
