Sr6 Li2 Cr2 N8 O1
1.0
   6.1186697800000003   -0.0017644900000000   -0.0008077200000000
   2.3201202500000000    6.3805056000000002    0.0063507600000000
   1.9283030800000001    0.3742947200000000    7.2191838500000003
Sr Li Cr N O
6 2 2 8 1
direct
   0.2000302100000000    0.3805500600000000    0.3018882500000000 Sr
   0.2937886700000000    0.8649603200000000    0.0712842900000000 Sr
   0.7004403400000000    0.1886825600000000    0.4662431500000000 Sr
   0.2995596600000000    0.8113174399999999    0.5337568499999999 Sr
   0.7062113300000000    0.1350396800000000    0.9287157100000000 Sr
   0.7999697900000000    0.6194499400000000    0.6981117500000000 Sr
   0.2262890400000000    0.5096071000000000    0.9077300000000000 Li
   0.7737109599999999    0.4903929000000000    0.0922700000000000 Li
   0.7876167400000000    0.7880777400000000    0.2514695200000000 Cr
   0.2123832600000000    0.2119222600000000    0.7485304800000000 Cr
   0.5321671000000000    0.0114129400000000    0.2659871200000000 N
   0.9867949200000000    0.8205355700000000    0.3663707000000000 N
   0.7141391400000000    0.5680396599999999    0.3595058700000000 N
   0.9233930299999999    0.7444310100000000    0.0196277100000000 N
   0.2858608600000000    0.4319603400000000    0.6404941300000000 N
   0.4678329000000000    0.9885870600000000    0.7340128800000000 N
   0.0766069700000000    0.2555689900000000    0.9803722900000000 N
   0.0132050800000000    0.1794644300000000    0.6336293000000000 N
   0.5000000000000000    0.5000000000000000    0.0000000000000000 O
