Zr4 O8
1.0
   5.1999114700000000    0.0000000000000000    0.0246002800000000
   0.0000000000000000    5.2513636500000000    0.0000000000000000
  -0.9038117600000000    0.0000000000000000    5.2678505500000004
Zr O
4 8
direct
   0.7236431900000000    0.0396103800000000    0.7931412600000000 Zr
   0.7236431900000000    0.4603896200000000    0.2931412600000000 Zr
   0.2763568100000000    0.5396103799999999    0.7068587400000000 Zr
   0.2763568100000000    0.9603896200000001    0.2068587400000000 Zr
   0.0709804000000000    0.8347054800000000    0.8434485700000000 O
   0.0709804000000000    0.6652945200000000    0.3434485700000000 O
   0.5509477400000000    0.7425033500000000    0.0174429800000000 O
   0.4490522600000000    0.2425033500000000    0.4825570200000000 O
   0.5509477400000000    0.7574966500000000    0.5174429800000000 O
   0.4490522600000000    0.2574966500000000    0.9825570200000000 O
   0.9290195999999999    0.3347054800000000    0.6565514300000000 O
   0.9290195999999999    0.1652945200000000    0.1565514300000000 O
