Bi10 Mo3 O24
1.0
  11.7820848300000005   -2.8185117399999999    0.0536028500000000
  11.7820848300000005    2.8185117399999999    0.0536028500000000
  -0.8274320900000000    0.0000000000000000    8.6309916199999996
Bi Mo O
10 3 24
direct
   0.4725687300000000    0.4518670200000000    0.6761777400000000 Bi
   0.7777863699999999    0.6101352300000000    0.5481631200000000 Bi
   0.5481329800000000    0.5274312700000000    0.3238222600000000 Bi
   0.2771503400000000    0.1977086200000000    0.8167525900000000 Bi
   0.0858978100000000    0.0647027400000000    0.5941015700000000 Bi
   0.3898647700000000    0.2222136300000000    0.4518368800000000 Bi
   0.1779766600000000    0.1207456000000000    0.2507587600000000 Bi
   0.9352972600000000    0.9141021900000000    0.4058984300000000 Bi
   0.8792544000000000    0.8220233400000000    0.7492412400000000 Bi
   0.8022913800000000    0.7228496599999999    0.1832474100000000 Bi
   0.4361732500000000    0.3151409600000000    0.0709953100000000 Mo
   0.9886724500000000    0.0113275500000000    0.0000000000000000 Mo
   0.6848590400000000    0.5638267500000000    0.9290046900000000 Mo
   0.7606834400000000    0.8940342999999999    0.3502048000000000 O
   0.9694390300000000    0.3759540500000000    0.9974427100000000 O
   0.1059657000000000    0.2393165600000000    0.6497952000000000 O
   0.8668342000000000    0.2553658400000000    0.0596481100000000 O
   0.2920973500000000    0.7079026500000000    0.5000000000000000 O
   0.5474276800000000    0.0029766700000000    0.6501781599999999 O
   0.7756765600000000    0.2243234400000000    0.5000000000000000 O
   0.1753166600000000    0.8507770200000000    0.8356783200000000 O
   0.4752247500000000    0.7383788900000000    0.0835942700000000 O
   0.2616211100000000    0.5247752500000000    0.9164057300000000 O
   0.2049569000000000    0.4481168300000000    0.1688826300000000 O
   0.5583718700000000    0.2973236200000000    0.2293729000000000 O
   0.1473785500000000    0.6401183100000000    0.5869402800000000 O
   0.5518831700000000    0.7950431000000000    0.8311173700000000 O
   0.7026763800000000    0.4416281300000000    0.7706271000000000 O
   0.3598816900000000    0.8526214500000000    0.4130597200000000 O
   0.7446341600000000    0.1331658000000000    0.9403518900000000 O
   0.8689104500000000    0.3491272500000000    0.4197540700000000 O
   0.4792529400000000    0.9699040400000000    0.3153699700000000 O
   0.6508727500000000    0.1310895500000000    0.5802459300000000 O
   0.0300959600000000    0.5207470600000000    0.6846300300000000 O
   0.1492229800000000    0.8246833400000000    0.1643216800000000 O
   0.6240459500000000    0.0305609700000000    0.0025572900000000 O
   0.9970233300000000    0.4525723200000000    0.3498218400000000 O
