Na2 Cd3 P4 O14
1.0
   5.6632644299999999    0.0072181500000000   -0.0106538000000000
   2.6207882400000000    6.5275276000000000    0.0085704200000000
   1.0112016200000000    1.4949828199999999    7.6451164699999996
Na Cd P O
2 3 4 14
direct
   0.5895825400000000    0.0094382200000000    0.6835205800000000 Na
   0.4104174600000000    0.9905617799999999    0.3164794200000000 Na
   0.1899998600000000    0.5336661700000001    0.3074304800000000 Cd
   0.0000000000000000    0.0000000000000000    0.0000000000000000 Cd
   0.8100001400000000    0.4663338300000000    0.6925695200000000 Cd
   0.1969105600000000    0.7364497400000000    0.6660562300000000 P
   0.6529130600000000    0.6732568900000000    0.0761090600000000 P
   0.3470869400000000    0.3267431100000000    0.9238909400000000 P
   0.8030894400000000    0.2635502600000000    0.3339437700000000 P
   0.2541938800000000    0.5735409000000000    0.8525721300000000 O
   0.5489143700000000    0.2604028200000000    0.4258742400000000 O
   0.6846177600000000    0.7016723900000000    0.8796477800000000 O
   0.9694031100000000    0.0603292000000000    0.2773834900000000 O
   0.9430344400000000    0.3452734400000000    0.4398750300000000 O
   0.0569655600000000    0.6547265600000000    0.5601249700000001 O
   0.3153822400000000    0.2983276100000000    0.1203522200000000 O
   0.4510856300000000    0.7395971800000000    0.5741257600000000 O
   0.6285369500000000    0.2381115100000000    0.8558519800000000 O
   0.8148302100000000    0.7622474600000000    0.1568440600000000 O
   0.1851697900000000    0.2377525400000000    0.8431559400000000 O
   0.3714630500000000    0.7618884900000000    0.1441480200000000 O
   0.0305968900000000    0.9396708000000000    0.7226165100000000 O
   0.7458061200000000    0.4264591000000000    0.1474278700000000 O
