Ba2 Bi1 Sb1 O6
1.0
   5.2250598400000001   -3.0148693600000001   -0.0070306700000000
   5.2250598400000001    3.0148693600000001   -0.0070306700000000
  -3.5160367199999998    0.0000000000000000    4.9807556399999999
Ba Bi Sb O
2 1 1 6
direct
   0.2486927300000000    0.2486927300000000    0.7447227000000000 Ba
   0.7513072700000000    0.7513072700000000    0.2552773000000000 Ba
   0.0000000000000000    0.0000000000000000    0.0000000000000000 Bi
   0.5000000000000000    0.5000000000000000    0.5000000000000000 Sb
   0.7668556500000000    0.2972342800000000    0.3018488100000000 O
   0.7027657200000000    0.2331443500000000    0.6981511900000000 O
   0.2331443500000000    0.7027657200000000    0.6981511900000000 O
   0.2972342800000000    0.7668556500000000    0.3018488100000000 O
   0.7316521400000000    0.7316521400000000    0.7909638900000000 O
   0.2683478600000000    0.2683478600000000    0.2090361100000000 O
