Na4 Ga4 Ge2 S12
1.0
   0.0000000000000000   11.2145520699999999    3.6245648699999999
   6.2675518200000004    0.0000000000000000    3.6245648699999999
   6.2675518200000004   11.2145520699999999    0.0000000000000000
Na Ga Ge S
4 4 2 12
direct
   0.2913559800000000    0.5320376999999999    0.3012341900000000 Na
   0.5320376999999999    0.2913559800000000    0.8753721300000000 Na
   0.3746278700000000    0.9487658100000000    0.7179623000000001 Na
   0.9487658100000000    0.3746278700000000    0.9586440200000000 Na
   0.9417849100000000    0.9547923900000000    0.8249272700000000 Ga
   0.9547923900000000    0.9417849100000000    0.2784954300000000 Ga
   0.9715045700000000    0.4250727300000000    0.2952076100000000 Ga
   0.4250727300000000    0.9715045700000000    0.3082150900000000 Ga
   0.9117267700000000    0.9117267700000000    0.5882732300000000 Ge
   0.6617267700000000    0.6617267700000000    0.3382732300000000 Ge
   0.7666967099999999    0.7060380900000000    0.8875417400000000 S
   0.7060380900000000    0.7666967099999999    0.6397234500000000 S
   0.6102765500000000    0.3624582600000000    0.5439619100000000 S
   0.3624582600000000    0.6102765500000000    0.4833032900000000 S
   0.3084854200000000    0.1552172900000000    0.4711746700000000 S
   0.1552172900000000    0.3084854200000000    0.0651216200000000 S
   0.1848783800000000    0.7788253300000000    0.0947827100000000 S
   0.7788253300000000    0.1848783800000000    0.9415145800000000 S
   0.9570151500000000    0.7189255800000000    0.9991680800000000 S
   0.7189255800000000    0.9570151500000000    0.3248911900000000 S
   0.9251088100000000    0.2508319200000000    0.5310744200000000 S
   0.2508319200000000    0.9251088100000000    0.2929848500000000 S
