Rb2 N2 O6
1.0
   5.3568751399999996    0.0000000000000000    0.0000000000000000
   0.0000000000000000    5.7583135299999997    0.0000000000000000
   0.0000000000000000    0.0000000000000000    4.8953195400000000
Rb N O
2 2 6
direct
   0.5000000000000000    0.0000000000000000    0.6000302300000000 Rb
   0.0000000000000000    0.5000000000000000    0.3999697700000000 Rb
   0.0000000000000000    0.0000000000000000    0.0109463200000000 N
   0.5000000000000000    0.5000000000000000    0.9890536800000000 N
   0.0000000000000000    0.1901006000000000    0.8825362400000000 O
   0.0000000000000000    0.8098994000000000    0.8825362400000000 O
   0.5000000000000000    0.5000000000000000    0.7302309200000000 O
   0.0000000000000000    0.0000000000000000    0.2697690800000000 O
   0.5000000000000000    0.3098994000000000    0.1174637600000000 O
   0.5000000000000000    0.6901006000000000    0.1174637600000000 O
