Ba6 Ga4 S12
1.0
   4.5100819300000001   -7.1669782499999997    0.0028944200000000
   4.5100819300000001    7.1669782499999997    0.0028944200000000
  -0.2662921600000000    0.0000000000000000    8.9793830799999999
Ba Ga S
6 4 12
direct
   0.9625812300000000    0.0374187700000000    0.2500000000000000 Ba
   0.0374187700000000    0.9625812300000000    0.7500000000000000 Ba
   0.5437987399999999    0.2665891300000000    0.4913042400000000 Ba
   0.7334108700000000    0.4562012600000000    0.0086957600000000 Ba
   0.4562012600000000    0.7334108700000000    0.5086957600000001 Ba
   0.2665891300000000    0.5437987399999999    0.9913042399999999 Ba
   0.6553958700000000    0.9799509300000000    0.9292722100000000 Ga
   0.0200490700000000    0.3446041300000000    0.5707277900000000 Ga
   0.3446041300000000    0.0200490700000000    0.0707277900000000 Ga
   0.9799509300000000    0.6553958700000000    0.4292722100000000 Ga
   0.9160785700000000    0.5329766100000000    0.6684886300000000 S
   0.4670233900000000    0.0839214300000000    0.8315113700000000 S
   0.0839214300000000    0.4670233900000000    0.3315113700000000 S
   0.5329766100000000    0.9160785700000000    0.1684886300000000 S
   0.3675195600000000    0.2734628100000000    0.1697278000000000 S
   0.7265371900000001    0.6324804400000000    0.3302722000000000 S
   0.6324804400000000    0.7265371900000001    0.8302722000000000 S
   0.2734628100000000    0.3675195600000000    0.6697278000000000 S
   0.9220413900000000    0.2048155500000000    0.9545267000000000 S
   0.7951844500000000    0.0779586100000000    0.5454733000000000 S
   0.2048155500000000    0.9220413900000000    0.4545267000000000 S
   0.0779586100000000    0.7951844500000000    0.0454733000000000 S
