Ti3 P6 W1 O24
1.0
   4.2692057900000000    2.4648118399999999    7.3805005599999998
  -4.2691927700000001    2.4648343900000000    7.3805005599999998
  -0.0000130200000000   -4.9296462300000004    7.3805005599999998
Ti P W O
3 6 1 24
direct
   0.1413544200000000    0.1413544200000000    0.1413544200000000 Ti
   0.3572357800000000    0.3572357800000000    0.3572357800000000 Ti
   0.6439121100000000    0.6439121100000000    0.6439121100000000 Ti
   0.0329505900000000    0.4629584300000000    0.7487776300000000 P
   0.4629584300000000    0.7487776300000000    0.0329505900000000 P
   0.7487776300000000    0.0329505900000000    0.4629584300000000 P
   0.2496507700000000    0.9734284600000001    0.5298769200000000 P
   0.5298769200000000    0.2496507700000000    0.9734284600000001 P
   0.9734284600000001    0.5298769200000000    0.2496507700000000 P
   0.8577666400000000    0.8577666400000000    0.8577666400000000 W
   0.1561894300000000    0.5160574400000000    0.2419671600000000 O
   0.2419671600000000    0.1561894300000000    0.5160574400000000 O
   0.0906929300000000    0.2776310400000000    0.9055091100000000 O
   0.5160574400000000    0.2419671600000000    0.1561894300000000 O
   0.1933922800000000    0.4720188700000000    0.5550491200000000 O
   0.9953898100000000    0.6329442500000000    0.7935042600000000 O
   0.2776310400000000    0.9055091100000000    0.0906929300000000 O
   0.4720188700000000    0.5550491200000000    0.1933922800000000 O
   0.5550491200000000    0.1933922800000000    0.4720188700000000 O
   0.2062603500000000    0.9991539900000000    0.3720573800000000 O
   0.0821187700000000    0.9179458700000001    0.7213508199999999 O
   0.3720573800000000    0.2062603500000000    0.9991539900000000 O
   0.6329442500000000    0.7935042600000000    0.9953898100000000 O
   0.9055091100000000    0.0906929300000000    0.2776310400000000 O
   0.7935042600000000    0.9953898100000000    0.6329442500000000 O
   0.4339955900000000    0.8055653200000000    0.5456598300000000 O
   0.5456598300000000    0.4339955900000000    0.8055653200000000 O
   0.7213508199999999    0.0821187700000000    0.9179458700000001 O
   0.9991539900000000    0.3720573800000000    0.2062603500000000 O
   0.8055653200000000    0.5456598300000000    0.4339955900000000 O
   0.4889782800000000    0.7508435800000000    0.8478107700000000 O
   0.9179458700000001    0.7213508199999999    0.0821187700000000 O
   0.7508435800000000    0.8478107700000000    0.4889782800000000 O
   0.8478107700000000    0.4889782800000000    0.7508435800000000 O
