Cd6 Se6 O20
1.0
   8.3933747099999998    0.0000000000000000   -0.0182859700000000
   0.0000000000000000    5.3745428600000000    0.0000000000000000
  -3.4149663299999999    0.0000000000000000   10.1843876800000004
Cd Se O
6 6 20
direct
   0.9926497100000000    0.7512387000000000    0.1241056300000000 Cd
   0.0073502900000000    0.2512387000000000    0.8758943700000000 Cd
   0.9679701700000000    0.7355153400000000    0.6137475000000000 Cd
   0.0320298300000000    0.2355153400000000    0.3862525000000000 Cd
   0.3642844200000000    0.2755123400000000    0.1984225800000000 Cd
   0.6357155799999999    0.7755123400000000    0.8015774200000000 Cd
   0.2531411700000000    0.7763099200000000    0.9536214400000000 Se
   0.7468588300000000    0.2763099200000000    0.0463785600000000 Se
   0.2726784400000000    0.7118042500000000    0.4325084300000000 Se
   0.7273215600000000    0.2118042500000000    0.5674915699999999 Se
   0.6508132300000000    0.7584912900000000    0.2803952000000000 Se
   0.3491867700000000    0.2584912900000000    0.7196048000000000 Se
   0.0874938700000000    0.8696254200000000    0.8199156800000000 O
   0.9125061300000000    0.3696254200000000    0.1800843200000000 O
   0.1193338100000000    0.6006204100000000    0.4940402600000000 O
   0.8806661900000000    0.1006204100000000    0.5059597400000000 O
   0.1556660200000000    0.9179490500000000    0.3124142100000000 O
   0.8443339800000000    0.4179490500000000    0.6875857900000000 O
   0.1592464200000000    0.5433575800000000    0.0218336900000000 O
   0.8407535800000000    0.0433575800000000    0.9781663100000000 O
   0.2195653000000000    0.0155394600000000    0.0508783000000000 O
   0.7804347000000000    0.5155394599999999    0.9491217000000000 O
   0.2633479300000000    0.4499264300000000    0.3382012500000000 O
   0.7366520700000000    0.9499264300000000    0.6617987500000000 O
   0.5239258900000000    0.9627106400000000    0.3201305000000000 O
   0.4760741100000000    0.4627106400000000    0.6798695000000000 O
   0.5335117400000000    0.5672418900000000    0.1608102200000000 O
   0.4664882600000000    0.0672418900000000    0.8391897800000000 O
   0.7494055700000000    0.5868015700000000    0.4101007400000000 O
   0.2505944300000000    0.0868015700000000    0.5898992600000000 O
   0.7808232300000000    0.9092547100000000    0.2175891200000000 O
   0.2191767700000000    0.4092547100000000    0.7824108800000000 O
