Ba6 Na2 Nb2 V2 O17
1.0
   5.1057849199999996   -2.9354528100000001    0.0040056000000000
   5.1057849199999996    2.9354528100000001    0.0040056000000000
  -0.0273500800000000    0.0000000000000000   14.7712287399999997
Ba Na Nb V O
6 2 2 2 17
direct
   0.3423512800000000    0.3259827900000000    0.6552585800000000 Ba
   0.6740172100000000    0.6576487200000000    0.3447414200000000 Ba
   0.6694239200000000    0.6679099900000000    0.8144550800000000 Ba
   0.3320900100000000    0.3305760800000000    0.1855449200000000 Ba
   0.0065604300000000    0.9934395700000000    0.5000000000000000 Ba
   0.9541936400000000    0.0458063600000000    0.0000000000000000 Ba
   0.0048957300000000    0.9971240200000000    0.7491293600000000 Na
   0.0028759800000000    0.9951042700000000    0.2508706400000000 Na
   0.6741253500000000    0.6596892000000000    0.5861205200000000 Nb
   0.3403108000000000    0.3258746500000000    0.4138794800000000 Nb
   0.3291455300000000    0.3408279100000000    0.8952430100000000 V
   0.6591720900000000    0.6708544700000000    0.1047569900000000 V
   0.1698320200000000    0.1833337000000000    0.8531925400000000 O
   0.6296949100000000    0.2061867800000000    0.8406325000000000 O
   0.1487119400000000    0.6692079000000000    0.8651953100000001 O
   0.8166663000000000    0.8301679800000000    0.1468074600000000 O
   0.3307921000000000    0.8512880600000000    0.1348046900000000 O
   0.7938132200000000    0.3703050900000000    0.1593675000000000 O
   0.5217767000000000    0.4782233000000000    0.5000000000000000 O
   0.0013773100000000    0.5191023299999999    0.4973666400000000 O
   0.4808976700000000    0.9986226900000000    0.5026333600000000 O
   0.8066401100000000    0.8415686200000000    0.6594729900000000 O
   0.3643214900000000    0.7824899500000000    0.6621013300000000 O
   0.8673996600000000    0.3407057600000000    0.6560759300000000 O
   0.1584313800000000    0.1933598900000000    0.3405270100000000 O
   0.6592942400000000    0.1326003400000000    0.3439240700000000 O
   0.2175100500000000    0.6356785100000000    0.3378986700000000 O
   0.3917391600000000    0.2850352200000000    0.0086870200000000 O
   0.7149647800000000    0.6082608400000000    0.9913129800000000 O
