Na12 Ge4 S14
1.0
   4.4899127500000002   -5.1990776700000003    0.0026683500000000
   4.4899127500000002    5.1990776700000003    0.0026683500000000
  -3.7983218600000002    0.0000000000000000   14.4905159000000001
Na Ge S
12 4 14
direct
   0.5000000000000000    0.5000000000000000    0.0000000000000000 Na
   0.5000000000000000    0.5000000000000000    0.5000000000000000 Na
   0.0296404900000000    0.7386969100000000    0.9259019900000000 Na
   0.2613030900000000    0.9703595100000000    0.5740980100000000 Na
   0.9703595100000000    0.2613030900000000    0.0740980100000000 Na
   0.7386969100000000    0.0296404900000000    0.4259019900000000 Na
   0.5786133600000000    0.4213866400000000    0.7500000000000000 Na
   0.4213866400000000    0.5786133600000000    0.2500000000000000 Na
   0.0499604900000000    0.4947437700000000    0.6389366000000000 Na
   0.5052562300000000    0.9500395100000000    0.8610634000000000 Na
   0.9500395100000000    0.5052562300000000    0.3610634000000000 Na
   0.4947437700000000    0.0499604900000000    0.1389366000000000 Na
   0.0751505400000000    0.2404545100000000    0.8614264900000000 Ge
   0.7595454900000000    0.9248494600000000    0.6385735100000000 Ge
   0.9248494600000000    0.7595454900000000    0.1385735100000000 Ge
   0.2404545100000000    0.0751505400000000    0.3614264900000000 Ge
   0.2459285000000000    0.5001803300000000    0.8206553400000000 S
   0.4998196700000000    0.7540715000000000    0.6793446600000000 S
   0.7540715000000000    0.4998196700000000    0.1793446600000000 S
   0.5001803300000000    0.2459285000000000    0.3206553400000000 S
   0.2611463900000000    0.1322329100000000    0.9734159400000000 S
   0.8677670900000000    0.7388536100000000    0.5265840600000000 S
   0.7388536100000000    0.8677670900000000    0.0265840600000000 S
   0.1322329100000000    0.2611463900000000    0.4734159400000000 S
   0.7902439999999999    0.3113310900000000    0.8959674800000000 S
   0.6886689100000000    0.2097560000000000    0.6040325200000000 S
   0.2097560000000000    0.6886689100000000    0.1040325200000000 S
   0.3113310900000000    0.7902439999999999    0.3959674800000000 S
   0.0393749300000000    0.9606250700000000    0.7500000000000000 S
   0.9606250700000000    0.0393749300000000    0.2500000000000000 S
