Ba12 Ge4 O20
1.0
   7.3291612900000001    0.0000000000000000    0.0000000000000000
   0.0000000000000000    7.3291612900000001    0.0000000000000000
   0.0000000000000000    0.0000000000000000   11.7259357299999998
Ba Ge O
12 4 20
direct
   0.0000000000000000    0.5000000000000000    0.9994650500000000 Ba
   0.0000000000000000    0.5000000000000000    0.4994650500000000 Ba
   0.1832390800000000    0.8167609200000000    0.7500000000000000 Ba
   0.1832390800000000    0.1832390800000000    0.2500000000000000 Ba
   0.3167609200000000    0.3167609200000000    0.7500000000000000 Ba
   0.3167609200000000    0.6832390800000000    0.2500000000000000 Ba
   0.5000000000000000    0.0000000000000000    0.0005349500000000 Ba
   0.5000000000000000    0.0000000000000000    0.5005349500000000 Ba
   0.6832390800000000    0.3167609200000000    0.2500000000000000 Ba
   0.6832390800000000    0.6832390800000000    0.7500000000000000 Ba
   0.8167609200000000    0.8167609200000000    0.2500000000000000 Ba
   0.8167609200000000    0.1832390800000000    0.7500000000000000 Ba
   0.0000000000000000    0.0000000000000000    0.0000000000000000 Ge
   0.0000000000000000    0.0000000000000000    0.5000000000000000 Ge
   0.5000000000000000    0.5000000000000000    0.0000000000000000 Ge
   0.5000000000000000    0.5000000000000000    0.5000000000000000 Ge
   0.0000000000000000    0.5000000000000000    0.2219852800000000 O
   0.0000000000000000    0.5000000000000000    0.7219852800000000 O
   0.1124724600000000    0.8434175699999999    0.4057638700000000 O
   0.1124724600000000    0.1565824300000000    0.9057638700000000 O
   0.1565824300000000    0.1124724600000000    0.5942361300000000 O
   0.1565824300000000    0.8875275400000000    0.0942361300000000 O
   0.3434175700000000    0.6124724600000000    0.9057638700000000 O
   0.3434175700000000    0.3875275400000000    0.4057638700000000 O
   0.3875275400000000    0.3434175700000000    0.0942361300000000 O
   0.3875275400000000    0.6565824300000001    0.5942361300000000 O
   0.5000000000000000    0.0000000000000000    0.2780147200000000 O
   0.5000000000000000    0.0000000000000000    0.7780147200000000 O
   0.6124724600000000    0.3434175700000000    0.5942361300000000 O
   0.6124724600000000    0.6565824300000001    0.0942361300000000 O
   0.6565824300000001    0.6124724600000000    0.4057638700000000 O
   0.6565824300000001    0.3875275400000000    0.9057638700000000 O
   0.8434175699999999    0.8875275400000000    0.5942361300000000 O
   0.8434175699999999    0.1124724600000000    0.0942361300000000 O
   0.8875275400000000    0.1565824300000000    0.4057638700000000 O
   0.8875275400000000    0.8434175699999999    0.9057638700000000 O
