Ca2 C2 O6
1.0
   2.4998977099999999    1.4433171199999999    5.6038304999999999
  -2.4998977099999999    1.4433171199999999    5.6038304999999999
   0.0000000000000000   -2.8866332600000000    5.6038304999999999
Ca C O
2 2 6
direct
   0.5000000000000000    0.5000000000000000    0.5000000000000000 Ca
   0.0000000000000000    0.0000000000000000    0.0000000000000000 Ca
   0.2500000000000000    0.2500000000000000    0.2500000000000000 C
   0.7500000000000000    0.7500000000000000    0.7500000000000000 C
   0.9910743900000000    0.5089256100000000    0.2500000000000000 O
   0.2500000000000000    0.9910743900000000    0.5089256100000000 O
   0.5089256100000000    0.2500000000000000    0.9910743900000000 O
   0.7500000000000000    0.0089256100000000    0.4910743900000000 O
   0.4910743900000000    0.7500000000000000    0.0089256100000000 O
   0.0089256100000000    0.4910743900000000    0.7500000000000000 O
