Cs16 Pb4 O16
1.0
  11.7447481000000007    0.0000000000000000   -0.0050420800000000
   0.0000000000000000    7.3946901100000000    0.0000000000000000
  -4.1810149000000001    0.0000000000000000   10.9629014300000005
Cs Pb O
16 4 16
direct
   0.0596714400000000    0.5810872400000000    0.7007037900000000 Cs
   0.6294372100000000    0.6675299099999999    0.1084933200000000 Cs
   0.9403285600000000    0.0810872400000000    0.7992962100000000 Cs
   0.3705627900000000    0.1675299100000000    0.3915066800000000 Cs
   0.3705627900000000    0.3324700900000000    0.8915066800000000 Cs
   0.5757079700000000    0.1864802500000000    0.2068602900000000 Cs
   0.4242920300000000    0.6864802500000000    0.2931397100000000 Cs
   0.1607332000000000    0.1083152700000000    0.5836861300000000 Cs
   0.8392668000000000    0.6083152700000000    0.9163138700000000 Cs
   0.1607332000000000    0.3916847300000000    0.0836861300000000 Cs
   0.9403285600000000    0.4189127600000000    0.2992962100000000 Cs
   0.5757079700000000    0.3135197500000000    0.7068602899999999 Cs
   0.0596714400000000    0.9189127600000000    0.2007037900000000 Cs
   0.8392668000000000    0.8916847300000000    0.4163138700000000 Cs
   0.6294372100000000    0.8324700900000001    0.6084933200000000 Cs
   0.4242920300000000    0.8135197500000000    0.7931397100000001 Cs
   0.2402652300000000    0.6275394300000000    0.4928552400000000 Pb
   0.7597347700000000    0.1275394300000000    0.0071447600000000 Pb
   0.2402652300000000    0.8724605700000000    0.9928552400000000 Pb
   0.7597347700000000    0.3724605700000000    0.5071447600000000 Pb
   0.7848308200000000    0.5116947100000000    0.6713552100000000 O
   0.3640564100000000    0.6560841200000000    0.0157884500000000 O
   0.2151691800000000    0.4883052900000000    0.3286447900000000 O
   0.7848308200000000    0.9883052900000000    0.1713552100000000 O
   0.3640564100000000    0.8439158800000000    0.5157884500000000 O
   0.3116205100000000    0.4640554300000000    0.6510003599999999 O
   0.6883794900000000    0.9640554300000000    0.8489996400000001 O
   0.3116205100000000    0.0359445700000000    0.1510003600000000 O
   0.6359435900000000    0.3439158800000000    0.9842115500000000 O
   0.0682116000000000    0.7636562500000000    0.9729813800000000 O
   0.9317884000000000    0.2363437500000000    0.0270186200000000 O
   0.6883794900000000    0.5359445700000000    0.3489996400000000 O
   0.9317884000000000    0.2636562500000000    0.5270186200000000 O
   0.0682116000000000    0.7363437500000000    0.4729813800000000 O
   0.6359435900000000    0.1560841200000000    0.4842115500000000 O
   0.2151691800000000    0.0116947100000000    0.8286447900000000 O
