La4 Sb4 O16
1.0
   5.3863126499999998    0.0000000000000000   -0.0017760100000000
   0.0000000000000000    5.0910051500000000    0.0000000000000000
  -4.4779249300000004    0.0000000000000000   12.8388463000000002
La Sb O
4 4 16
direct
   0.3453297600000000    0.8024849200000000    0.3358014000000000 La
   0.3453297600000000    0.6975150800000000    0.8358014000000000 La
   0.6546702400000000    0.1975150800000000    0.6641986000000000 La
   0.6546702400000000    0.3024849200000000    0.1641986000000000 La
   0.0819443400000000    0.7514409100000000    0.0699037700000000 Sb
   0.0819443400000000    0.7485590900000000    0.5699037700000000 Sb
   0.9180556600000001    0.2485590900000000    0.9300962300000000 Sb
   0.9180556600000001    0.2514409100000000    0.4300962300000000 Sb
   0.2473523400000000    0.4357432300000000    0.0269381300000000 O
   0.2473523400000000    0.0642567700000000    0.5269381300000000 O
   0.7526476600000001    0.5642567700000000    0.9730618700000000 O
   0.7526476600000001    0.9357432300000000    0.4730618700000000 O
   0.0072413600000000    0.6012049699999999    0.1886380200000000 O
   0.0072413600000000    0.8987950300000001    0.6886380200000000 O
   0.9927586400000000    0.3987950300000000    0.8113619800000000 O
   0.9927586400000000    0.1012049700000000    0.3113619800000000 O
   0.8610014100000000    0.0726183000000000    0.0561175000000000 O
   0.8610014100000000    0.4273817000000000    0.5561175000000000 O
   0.1389985900000000    0.9273817000000000    0.9438825000000000 O
   0.1389985900000000    0.5726183000000000    0.4438825000000000 O
   0.4162843600000000    0.8774517700000000    0.1683977300000000 O
   0.4162843600000000    0.6225482300000000    0.6683977300000000 O
   0.5837156400000000    0.1225482300000000    0.8316022700000000 O
   0.5837156400000000    0.3774517700000000    0.3316022700000000 O
