Rb4 Ba4 P4 O16
1.0
   7.8017999299999996    0.0000000000000000    0.0000000000000000
   0.0000000000000000    5.7165115300000000    0.0000000000000000
   0.0000000000000000    0.0000000000000000   10.0544754600000008
Rb Ba P O
4 4 4 16
direct
   0.1566051600000000    0.7500000000000000    0.5865343000000000 Rb
   0.3433948400000000    0.2500000000000000    0.0865343000000000 Rb
   0.8433948400000000    0.2500000000000000    0.4134657000000000 Rb
   0.6566051600000000    0.7500000000000000    0.9134657000000000 Rb
   0.5053263200000000    0.2500000000000000    0.6928892400000000 Ba
   0.0053263200000000    0.2500000000000000    0.8071107600000000 Ba
   0.9946736800000000    0.7500000000000000    0.1928892400000000 Ba
   0.4946736800000000    0.7500000000000000    0.3071107600000000 Ba
   0.7678915900000000    0.2500000000000000    0.0842947500000000 P
   0.2321084100000000    0.7500000000000000    0.9157052500000000 P
   0.2678915900000000    0.2500000000000000    0.4157052500000000 P
   0.7321084100000000    0.7500000000000000    0.5842947500000000 P
   0.2962101000000000    0.9734443400000000    0.8428047600000000 O
   0.7037899000000000    0.4734443400000000    0.1571952400000000 O
   0.7962101000000000    0.5265556600000000    0.6571952400000000 O
   0.2037899000000000    0.0265556600000000    0.3428047600000000 O
   0.7037899000000000    0.0265556600000000    0.1571952400000000 O
   0.2962101000000000    0.5265556600000000    0.8428047600000000 O
   0.2037899000000000    0.4734443400000000    0.3428047600000000 O
   0.7962101000000000    0.9734443400000000    0.6571952400000000 O
   0.9674765000000000    0.2500000000000000    0.0830188400000000 O
   0.0325235000000000    0.7500000000000000    0.9169811600000000 O
   0.4674765000000000    0.2500000000000000    0.4169811600000000 O
   0.5325235000000000    0.7500000000000000    0.5830188400000000 O
   0.8009459400000000    0.7500000000000000    0.4384551500000000 O
   0.1990540600000000    0.2500000000000000    0.5615448500000000 O
   0.3009459400000000    0.7500000000000000    0.0615448500000000 O
   0.6990540600000000    0.2500000000000000    0.9384551500000000 O
