Li14 Cr2 N8 O1
1.0
   5.7524956100000004    0.0000003300000000    0.0000000000000000
  -2.8762485700000000    4.9818072899999999    0.0000000000000000
   0.0000000000000000    0.0000000000000000    8.1374253000000003
Li Cr N O
14 2 8 1
direct
   0.9280392300000000    0.3040535000000000    0.0906069800000000 Li
   0.6959465000000000    0.6239857300000000    0.0906069800000000 Li
   0.3760142700000000    0.0719607700000000    0.0906069800000000 Li
   0.0719607700000000    0.6959465000000000    0.9093930200000000 Li
   0.3040535000000000    0.3760142700000000    0.9093930200000000 Li
   0.6239857300000000    0.9280392300000000    0.9093930200000000 Li
   0.3523274800000000    0.3124559000000000    0.4134162200000000 Li
   0.6875441000000000    0.0398725800000000    0.4134162200000000 Li
   0.9601274200000000    0.6476725200000000    0.4134162200000000 Li
   0.6476725200000000    0.6875441000000000    0.5865837800000000 Li
   0.3124559000000000    0.9601274200000000    0.5865837800000000 Li
   0.0398725800000000    0.3523274800000000    0.5865837800000000 Li
   0.0000000000000000    0.0000000000000000    0.2569997400000000 Li
   0.0000000000000000    0.0000000000000000    0.7430002600000000 Li
   0.6666670000000000    0.3333330000000000    0.7609769800000000 Cr
   0.3333330000000000    0.6666670000000000    0.2390230200000000 Cr
   0.9390874400000000    0.3065999500000000    0.8315462100000000 N
   0.6666670000000000    0.3333330000000000    0.5476181700000000 N
   0.0609125600000000    0.6934000500000000    0.1684537900000000 N
   0.3065999500000000    0.3675125100000000    0.1684537900000000 N
   0.6324874900000000    0.9390874400000000    0.1684537900000000 N
   0.3675125100000000    0.0609125600000000    0.8315462100000000 N
   0.6934000500000000    0.6324874900000000    0.8315462100000000 N
   0.3333330000000000    0.6666670000000000    0.4523818300000000 N
   0.0000000000000000    0.0000000000000000    0.5000000000000000 O
