Cs4 Ag2 As2 S8
1.0
   6.7820453799999996    0.0312392600000000    0.0461821800000000
   2.3588943400000000    6.7002876300000000   -0.0089675000000000
   3.0666773200000002    2.3166455400000001   10.3767094400000008
Cs Ag As S
4 2 2 8
direct
   0.7556765400000000    0.5125054999999999    0.1876555900000000 Cs
   0.2621541000000000    0.2343863900000000    0.3995555400000000 Cs
   0.2443234600000000    0.4874945000000000    0.8123444100000000 Cs
   0.7378459000000001    0.7656136100000001    0.6004444600000000 Cs
   0.6320631100000000    0.0803437800000000    0.0780207400000000 Ag
   0.3679368900000000    0.9196562200000000    0.9219792600000000 Ag
   0.1335332600000000    0.8605981800000000    0.2273425300000000 As
   0.8664667400000000    0.1394018200000000    0.7726574700000000 As
   0.7816509400000000    0.9470651500000000    0.2735375700000000 S
   0.2534610800000000    0.7362465000000000    0.4034378700000000 S
   0.2600396800000000    0.6333152800000000    0.1068902100000000 S
   0.7399603200000000    0.3666847200000000    0.8931097900000000 S
   0.7659242800000000    0.8635934700000000    0.8851165800000000 S
   0.2183490600000000    0.0529348500000000    0.7264624300000000 S
   0.7465389200000000    0.2637535000000000    0.5965621300000000 S
   0.2340757200000000    0.1364065300000000    0.1148834200000000 S
