Mg4 V4 Ag4 O16
1.0
   9.4185852800000003    0.0000000000000000    0.0000000000000000
   0.0000000000000000    6.6543155299999999    0.0000000000000000
   0.0000000000000000    0.0000000000000000    5.2851006900000002
Mg V Ag O
4 4 4 16
direct
   0.5000000000000000    0.5000000000000000    0.5000000000000000 Mg
   0.0000000000000000    0.0000000000000000    0.0000000000000000 Mg
   0.5000000000000000    0.0000000000000000    0.5000000000000000 Mg
   0.0000000000000000    0.5000000000000000    0.0000000000000000 Mg
   0.8210239100000000    0.7500000000000000    0.4821032800000000 V
   0.3210239100000000    0.7500000000000000    0.0178967200000000 V
   0.1789760900000000    0.2500000000000000    0.5178967200000000 V
   0.6789760900000000    0.2500000000000000    0.9821032800000000 V
   0.8476917400000000    0.2500000000000000    0.5047603200000000 Ag
   0.3476917400000000    0.2500000000000000    0.9952396800000000 Ag
   0.1523082600000000    0.7500000000000000    0.4952396800000000 Ag
   0.6523082600000000    0.7500000000000000    0.0047603200000000 Ag
   0.6332994000000000    0.7500000000000000    0.4393411700000000 O
   0.1332994000000000    0.7500000000000000    0.0606588300000000 O
   0.3667006000000000    0.2500000000000000    0.5606588300000001 O
   0.8667006000000000    0.2500000000000000    0.9393411699999999 O
   0.8839573500000000    0.7500000000000000    0.7953802600000000 O
   0.3839573500000000    0.7500000000000000    0.7046197400000000 O
   0.1160426500000000    0.2500000000000000    0.2046197400000000 O
   0.6160426500000000    0.2500000000000000    0.2953802600000000 O
   0.8862144400000000    0.9513735500000000    0.3200907700000000 O
   0.3862144400000000    0.5486264500000000    0.1799092300000000 O
   0.1137855600000000    0.4513735500000000    0.6799092300000000 O
   0.6137855600000000    0.0486264500000000    0.8200907700000000 O
   0.1137855600000000    0.0486264500000000    0.6799092300000000 O
   0.6137855600000000    0.4513735500000000    0.8200907700000000 O
   0.8862144400000000    0.5486264500000000    0.3200907700000000 O
   0.3862144400000000    0.9513735500000000    0.1799092300000000 O
