Sr4 Y2 Sb2 O12
1.0
   5.7932678700000002    0.0000000000000000   -0.0000321900000000
   0.0000000000000000    5.8577459300000001    0.0000000000000000
  -5.7601775200000001    0.0000000000000000    8.2234401300000002
Sr Y Sb O
4 2 2 12
direct
   0.7589995000000000    0.5354780300000000    0.2502896100000000 Sr
   0.2410005000000000    0.0354780300000000    0.2497103900000000 Sr
   0.2410005000000000    0.4645219700000000    0.7497103899999999 Sr
   0.7589995000000000    0.9645219700000000    0.7502896100000001 Sr
   0.5000000000000000    0.0000000000000000    0.0000000000000000 Y
   0.5000000000000000    0.5000000000000000    0.5000000000000000 Y
   0.0000000000000000    0.5000000000000000    0.0000000000000000 Sb
   0.0000000000000000    0.0000000000000000    0.5000000000000000 Sb
   0.6852884900000000    0.9778459400000000    0.2637686300000000 O
   0.3147115100000000    0.4778459400000000    0.2362313700000000 O
   0.3147115100000000    0.0221540600000000    0.7362313700000001 O
   0.6852884900000000    0.5221540600000000    0.7637686299999999 O
   0.7669243400000000    0.2992094800000000    0.0403938500000000 O
   0.2330756600000000    0.7992094800000000    0.4596061500000000 O
   0.2330756600000000    0.7007905200000000    0.9596061500000000 O
   0.7669243400000000    0.2007905200000000    0.5403938500000000 O
   0.8454656699999999    0.7255502400000000    0.5431553300000000 O
   0.1545343300000000    0.2255502400000000    0.9568446700000000 O
   0.1545343300000000    0.2744497600000000    0.4568446700000000 O
   0.8454656699999999    0.7744497600000000    0.0431553300000000 O
