Rb4 Sn4 Se10
1.0
   5.7702916899999996   -4.2619435699999997    0.0091062800000000
   5.7702916899999996    4.2619435699999997    0.0091062800000000
  -3.7213314000000000    0.0000000000000000   11.4106916199999997
Rb Sn Se
4 4 10
direct
   0.9376129100000000    0.5897236400000000    0.6773992700000000 Rb
   0.4102763600000000    0.0623870900000000    0.8226007300000000 Rb
   0.0623870900000000    0.4102763600000000    0.3226007300000000 Rb
   0.5897236400000000    0.9376129100000000    0.1773992700000000 Rb
   0.4463769700000000    0.7471551200000000    0.4430194000000000 Sn
   0.2528448800000000    0.5536230300000000    0.0569806000000000 Sn
   0.5536230300000000    0.2528448800000000    0.5569806000000000 Sn
   0.7471551200000000    0.4463769700000000    0.9430194000000000 Sn
   0.1887362500000000    0.8112637500000000    0.2500000000000000 Se
   0.8112637500000000    0.1887362500000000    0.7500000000000000 Se
   0.3775128600000000    0.6451693800000000    0.6191202300000000 Se
   0.3548306200000000    0.6224871400000000    0.8808797700000000 Se
   0.6224871400000000    0.3548306200000000    0.3808797700000000 Se
   0.6451693800000000    0.3775128600000000    0.1191202300000000 Se
   0.7565507900000000    0.8689153400000000    0.4658350100000000 Se
   0.1310846600000000    0.2434492100000000    0.0341649900000000 Se
   0.8689153400000000    0.7565507900000000    0.9658350100000000 Se
   0.2434492100000000    0.1310846600000000    0.5341649900000000 Se
