Li4 Cd4 P4 O16
1.0
  10.7590451700000003    0.0000000000000000    0.0000000000000000
   0.0000000000000000    4.7986720900000002    0.0000000000000000
   0.0000000000000000    0.0000000000000000    6.2902946799999997
Li Cd P O
4 4 4 16
direct
   0.4965852700000000    0.0146414100000000    0.0088026800000000 Li
   0.5034147300000000    0.9853585900000000    0.5088026800000000 Li
   0.0034147300000000    0.5146414100000000    0.5088026800000000 Li
   0.9965852700000000    0.4853585900000000    0.0088026800000000 Li
   0.7175330599999999    0.4566936100000000    0.2511318400000000 Cd
   0.2824669400000000    0.5433063900000000    0.7511318400000000 Cd
   0.2175330600000000    0.0433063900000000    0.2511318400000000 Cd
   0.7824669400000001    0.9566936100000000    0.7511318400000000 Cd
   0.0874042300000000    0.1026670900000000    0.7488644900000000 P
   0.9125957700000000    0.8973329100000000    0.2488644900000000 P
   0.4125957700000000    0.6026670900000000    0.2488644900000000 P
   0.5874042300000000    0.3973329100000000    0.7488644900000000 P
   0.0458325700000000    0.7726171800000000    0.2500493300000000 O
   0.0908312800000000    0.7833281700000000    0.7457115500000000 O
   0.9541674300000000    0.2273828200000000    0.7500493300000000 O
   0.3454744700000000    0.7333169200000000    0.4466855900000000 O
   0.4091687200000000    0.2833281700000000    0.2457115500000000 O
   0.1545255300000000    0.2333169200000000    0.9466855900000000 O
   0.4541674300000000    0.2726171800000000    0.7500493300000000 O
   0.6545255300000000    0.2666830800000000    0.9466855900000000 O
   0.8454213699999999    0.7618632600000000    0.0528545100000000 O
   0.5908312800000000    0.7166718300000000    0.7457115500000000 O
   0.1545786300000000    0.2381367400000000    0.5528545100000000 O
   0.5458325700000000    0.7273828200000000    0.2500493300000000 O
   0.8454744700000000    0.7666830800000000    0.4466855900000000 O
   0.6545786300000001    0.2618632600000000    0.5528545100000000 O
   0.9091687200000000    0.2166718300000000    0.2457115500000000 O
   0.3454213700000000    0.7381367400000000    0.0528545100000000 O
