Cs4 P4 Pb4 O16
1.0
   9.8376372300000003    0.0000000000000000    0.0000000000000000
   0.0000000000000000    5.6530717099999999    0.0000000000000000
   0.0000000000000000    0.0000000000000000    8.9265872000000002
Cs P Pb O
4 4 4 16
direct
   0.0233724300000000    0.7500000000000000    0.6463058400000000 Cs
   0.5233724300000000    0.7500000000000000    0.8536941600000000 Cs
   0.9766275700000000    0.2500000000000000    0.3536941600000000 Cs
   0.4766275700000000    0.2500000000000000    0.1463058400000000 Cs
   0.8330290900000000    0.7500000000000000    0.0894097500000000 P
   0.3330290900000000    0.7500000000000000    0.4105902500000000 P
   0.1669709100000000    0.2500000000000000    0.9105902500000000 P
   0.6669709100000000    0.2500000000000000    0.5894097500000000 P
   0.1578794700000000    0.7500000000000000    0.0938761400000000 Pb
   0.6578794700000000    0.7500000000000000    0.4061238600000000 Pb
   0.8421205300000000    0.2500000000000000    0.9061238600000000 Pb
   0.3421205300000000    0.2500000000000000    0.5938761400000000 Pb
   0.9422130700000000    0.7500000000000000    0.9615424900000000 O
   0.4422130700000000    0.7500000000000000    0.5384575100000000 O
   0.0577869300000000    0.2500000000000000    0.0384575100000000 O
   0.5577869300000000    0.2500000000000000    0.4615424900000000 O
   0.9022597800000000    0.7500000000000000    0.2447053500000000 O
   0.4022597800000000    0.7500000000000000    0.2552946500000000 O
   0.0977402200000000    0.2500000000000000    0.7552946500000000 O
   0.5977402200000000    0.2500000000000000    0.7447053500000000 O
   0.7423314800000000    0.9749967200000000    0.0707428500000000 O
   0.2423314800000000    0.5250032800000000    0.4292571500000000 O
   0.2576685200000000    0.4749967200000000    0.9292571500000000 O
   0.7576685200000000    0.0250032800000000    0.5707428500000000 O
   0.2576685200000000    0.0250032800000000    0.9292571500000000 O
   0.7576685200000000    0.4749967200000000    0.5707428500000000 O
   0.7423314800000000    0.5250032800000000    0.0707428500000000 O
   0.2423314800000000    0.9749967200000000    0.4292571500000000 O
