Ba4 Te2 P4 O18
1.0
   6.9537521900000003    0.0030578600000000    0.0113572200000000
   1.8566181500000001    7.1679954400000003   -0.0155984600000000
   1.5490962699999999    1.6728483400000000    8.5938732699999996
Ba Te P O
4 2 4 18
direct
   0.6297501400000000    0.1951414000000000    0.5822144900000000 Ba
   0.8989290000000000    0.6182720400000000    0.7559506300000000 Ba
   0.3702498600000000    0.8048586000000000    0.4177855100000000 Ba
   0.1010710000000000    0.3817279600000000    0.2440493700000000 Ba
   0.3529737000000000    0.8874777400000000    0.9559892200000000 Te
   0.6470263000000001    0.1125222600000000    0.0440107800000000 Te
   0.1361440500000000    0.1214346500000000    0.6469454800000000 P
   0.8638559500000000    0.8785653500000000    0.3530545200000000 P
   0.3768510700000000    0.5208418200000000    0.8171302200000000 P
   0.6231489300000000    0.4791581800000000    0.1828697800000000 P
   0.2793897100000000    0.1496969300000000    0.4930594000000000 O
   0.3767868700000000    0.0714137700000000    0.1021814500000000 O
   0.1974305100000000    0.5340740800000000    0.9420908900000000 O
   0.0695805100000000    0.9328515600000000    0.6749759000000000 O
   0.8025694900000000    0.4659259200000000    0.0579091100000000 O
   0.7260843600000000    0.8867116600000000    0.2221697400000000 O
   0.0416373700000000    0.7080367200000000    0.3483553000000000 O
   0.5259442800000000    0.3007583900000000    0.1980004800000000 O
   0.5503028800000000    0.3434398200000000    0.8562730800000000 O
   0.6723128900000001    0.4792883800000000    0.3439643700000000 O
   0.6232131300000000    0.9285862300000000    0.8978185500000000 O
   0.4740557200000000    0.6992416100000000    0.8019995200000000 O
   0.4496971200000000    0.6565601800000000    0.1437269200000000 O
   0.7206102900000000    0.8503030700000000    0.5069406000000000 O
   0.2739156400000000    0.1132883400000000    0.7778302600000000 O
   0.9583626300000000    0.2919632800000000    0.6516447000000000 O
   0.9304194900000000    0.0671484400000000    0.3250241000000000 O
   0.3276871100000000    0.5207116200000000    0.6560356300000000 O
