Na2 La4 Ta2 O12
1.0
   5.6594014599999998    0.0000000000000000    0.0010122700000000
   0.0000000000000000    5.9443766000000000    0.0000000000000000
  -5.5187471800000001    0.0000000000000000    8.1277947800000003
Na La Ta O
2 4 2 12
direct
   0.0000000000000000    0.5000000000000000    0.5000000000000000 Na
   0.0000000000000000    0.0000000000000000    0.0000000000000000 Na
   0.7733293800000000    0.0594064900000000    0.2550711900000000 La
   0.2266706200000000    0.5594064900000000    0.2449288100000000 La
   0.7733293800000000    0.4405935100000000    0.7550711900000000 La
   0.2266706200000000    0.9405935100000000    0.7449288100000000 La
   0.5000000000000000    0.5000000000000000    0.0000000000000000 Ta
   0.5000000000000000    0.0000000000000000    0.5000000000000000 Ta
   0.7447534500000000    0.7219073000000000    0.5725337500000000 O
   0.2552465500000000    0.2219073000000000    0.9274662500000000 O
   0.2552465500000000    0.2780927000000000    0.4274662500000000 O
   0.7447534500000000    0.7780927000000000    0.0725337500000000 O
   0.6089792400000000    0.0546265600000000    0.7294469099999999 O
   0.3910207600000000    0.5546265600000000    0.7705530900000001 O
   0.3910207600000000    0.9453734400000000    0.2705530900000000 O
   0.6089792400000000    0.4453734400000000    0.2294469100000000 O
   0.8391294300000000    0.3218272000000000    0.0521461200000000 O
   0.1608705700000000    0.8218272000000000    0.4478538800000000 O
   0.1608705700000000    0.6781728000000000    0.9478538800000000 O
   0.8391294300000000    0.1781728000000000    0.5521461200000000 O
