Rb4 Zn4 P4 O16
1.0
   8.8045670499999993    0.0000000000000000   -0.0130492100000000
   0.0000000000000000    5.3719878400000001    0.0000000000000000
  -0.0472071700000000    0.0000000000000000    8.9241530800000000
Rb Zn P O
4 4 4 16
direct
   0.5010059100000001    0.7845588400000000    0.3101517000000000 Rb
   0.4989940900000000    0.2845588400000000    0.6898483000000000 Rb
   0.9920295800000000    0.2509342900000000    0.7966849300000000 Rb
   0.0079704200000000    0.7509342900000000    0.2033150700000000 Rb
   0.6731176300000000    0.7917999500000000    0.9085208900000000 Zn
   0.3268823700000000    0.2917999500000000    0.0914791100000000 Zn
   0.1770718600000000    0.7515660199999999    0.5767378700000000 Zn
   0.8229281400000000    0.2515660200000000    0.4232621300000000 Zn
   0.3082241500000000    0.7893211400000000    0.9025820700000000 P
   0.6917758500000000    0.2893211400000000    0.0974179300000000 P
   0.1940281400000000    0.2568896500000000    0.4218933400000000 P
   0.8059718600000000    0.7568896500000000    0.5781066600000000 P
   0.1962537600000000    0.2046696700000000    0.2514145400000000 O
   0.8037462399999999    0.7046696700000000    0.7485854600000000 O
   0.2770394900000000    0.0445282900000000    0.5079028300000000 O
   0.7229605099999999    0.5445282900000000    0.4920971700000000 O
   0.2782363600000000    0.5041159700000000    0.4586763300000000 O
   0.7217636400000000    0.0041159700000000    0.5413236700000000 O
   0.0295658700000000    0.2784658400000000    0.4762623900000000 O
   0.9704341300000000    0.7784658400000000    0.5237376100000000 O
   0.2894319500000000    0.6365415500000000    0.0490774300000000 O
   0.7105680500000000    0.1365415500000000    0.9509225700000000 O
   0.2736395500000000    0.0682945600000000    0.9338246200000000 O
   0.7263604500000000    0.5682945600000000    0.0661753800000000 O
   0.5298440700000000    0.2598643600000000    0.1615369000000000 O
   0.4701559300000000    0.7598643600000000    0.8384631000000000 O
   0.8077992400000000    0.1913478500000000    0.2145911800000000 O
   0.1922007600000000    0.6913478500000000    0.7854088200000000 O
