Cs4 Sn2 Ge6 O18
1.0
   7.3245822499999997    0.0000018500000000    0.0000000000000000
  -3.6622932200000000    6.3432732999999999    0.0000000000000000
   0.0000000000000000    0.0000000000000000   10.5857141499999994
Cs Sn Ge O
4 2 6 18
direct
   0.6666670000000000    0.3333330000000000    0.5574559600000000 Cs
   0.3333330000000000    0.6666670000000000    0.0574559600000000 Cs
   0.3333330000000000    0.6666670000000000    0.4425440400000000 Cs
   0.6666670000000000    0.3333330000000000    0.9425440400000000 Cs
   0.0000000000000000    0.0000000000000000    0.5000000000000000 Sn
   0.0000000000000000    0.0000000000000000    0.0000000000000000 Sn
   0.2349240600000000    0.8628225100000000    0.7500000000000000 Ge
   0.3721015400000000    0.2349240600000000    0.2500000000000000 Ge
   0.8628225100000000    0.6278984600000000    0.2500000000000000 Ge
   0.1371774900000000    0.3721015400000000    0.7500000000000000 Ge
   0.6278984600000000    0.7650759400000000    0.7500000000000000 Ge
   0.7650759400000000    0.1371774900000000    0.2500000000000000 Ge
   0.0695887400000000    0.5805815100000000    0.7500000000000000 O
   0.4890062300000000    0.0695887400000000    0.2500000000000000 O
   0.5805815100000000    0.5109937700000000    0.2500000000000000 O
   0.4194184900000000    0.4890062300000000    0.7500000000000000 O
   0.5109937700000000    0.9304112600000000    0.7500000000000000 O
   0.9304112600000000    0.4194184900000000    0.2500000000000000 O
   0.2233830600000000    0.9781161800000000    0.6069381300000000 O
   0.2452658800000000    0.2233830600000000    0.1069381300000000 O
   0.9781161800000000    0.7547341200000000    0.1069381300000000 O
   0.0218838200000000    0.2452658800000000    0.6069381300000000 O
   0.7547341200000000    0.7766169400000000    0.6069381300000000 O
   0.7766169400000000    0.0218838200000000    0.1069381300000000 O
   0.7766169400000000    0.0218838200000000    0.3930618700000000 O
   0.7547341200000000    0.7766169400000000    0.8930618700000000 O
   0.0218838200000000    0.2452658800000000    0.8930618700000000 O
   0.9781161800000000    0.7547341200000000    0.3930618700000000 O
   0.2452658800000000    0.2233830600000000    0.3930618700000000 O
   0.2233830600000000    0.9781161800000000    0.8930618700000000 O
