Tl2 Bi2 W4 O16
1.0
   5.4220365599999996   -5.3574321800000000   -0.0234528300000000
   5.4220365599999996    5.3574321800000000   -0.0234528300000000
  -4.8230476400000004    0.0000000000000000    5.7071482299999996
Tl Bi W O
2 2 4 16
direct
   0.7868054500000000    0.2131945500000000    0.7500000000000000 Tl
   0.2131945500000000    0.7868054500000000    0.2500000000000000 Tl
   0.2230187900000000    0.7769812100000000    0.7500000000000000 Bi
   0.7769812100000000    0.2230187900000000    0.2500000000000000 Bi
   0.3014574200000000    0.3099356600000000    0.7764063400000000 W
   0.6985425800000000    0.6900643400000001    0.2235936600000000 W
   0.6900643400000001    0.6985425800000000    0.7235936600000000 W
   0.3099356600000000    0.3014574200000000    0.2764063400000000 W
   0.3749357600000000    0.2491235800000000    0.5567671199999999 O
   0.6250642400000000    0.7508764200000000    0.4432328800000000 O
   0.7508764200000000    0.6250642400000000    0.9432328800000001 O
   0.2491235800000000    0.3749357600000000    0.0567671200000000 O
   0.6190156200000000    0.9330531600000000    0.8654994300000000 O
   0.3809843800000000    0.0669468400000000    0.1345005700000000 O
   0.0669468400000000    0.3809843800000000    0.6345005700000000 O
   0.9330531600000000    0.6190156200000000    0.3654994300000000 O
   0.4130420100000000    0.6276296500000000    0.9744798900000000 O
   0.5869579900000000    0.3723703500000000    0.0255201100000000 O
   0.3723703500000000    0.5869579900000000    0.5255201100000000 O
   0.6276296500000000    0.4130420100000000    0.4744798900000000 O
   0.2131045900000000    0.0477940600000000    0.6837373500000000 O
   0.7868954100000000    0.9522059400000000    0.3162626500000000 O
   0.9522059400000000    0.7868954100000000    0.8162626500000000 O
   0.0477940600000000    0.2131045900000000    0.1837373500000000 O
