Sr4 Sc8 S16
1.0
  11.5161268200000002    0.0000000000000000    0.0000000000000000
   0.0000000000000000    3.7463782299999999    0.0000000000000000
   0.0000000000000000    0.0000000000000000   13.5324239800000008
Sr Sc S
4 8 16
direct
   0.7388405100000000    0.2500000000000000    0.8328883000000000 Sr
   0.2611594900000000    0.7500000000000000    0.1671117000000000 Sr
   0.2388405100000000    0.2500000000000000    0.6671117000000000 Sr
   0.7611594900000000    0.7500000000000000    0.3328883000000000 Sr
   0.0604806300000000    0.2500000000000000    0.8911492700000000 Sc
   0.9395193700000000    0.7500000000000000    0.1088507300000000 Sc
   0.5604806300000000    0.2500000000000000    0.6088507300000000 Sc
   0.4395193700000000    0.7500000000000000    0.3911492700000000 Sc
   0.0804072800000000    0.2500000000000000    0.4017035800000000 Sc
   0.9195927200000000    0.7500000000000000    0.5982964200000001 Sc
   0.5804072800000000    0.2500000000000000    0.0982964200000000 Sc
   0.4195927200000000    0.7500000000000000    0.9017035799999999 Sc
   0.0865498800000000    0.2500000000000000    0.0758608000000000 S
   0.9134501200000000    0.7500000000000000    0.9241392000000000 S
   0.5865498800000000    0.2500000000000000    0.4241392000000000 S
   0.4134501200000000    0.7500000000000000    0.5758608000000000 S
   0.9728794400000000    0.2500000000000000    0.7160754400000000 S
   0.0271205600000000    0.7500000000000000    0.2839245600000000 S
   0.4728794400000000    0.2500000000000000    0.7839245600000000 S
   0.5271205600000000    0.7500000000000000    0.2160754400000000 S
   0.3761946500000000    0.2500000000000000    0.0265190400000000 S
   0.6238053500000000    0.7500000000000000    0.9734809600000000 S
   0.8761946500000000    0.2500000000000000    0.4734809600000000 S
   0.1238053500000000    0.7500000000000000    0.5265190400000000 S
   0.2041398300000000    0.7500000000000000    0.8403669100000000 S
   0.7958601700000000    0.2500000000000000    0.1596330900000000 S
   0.7041398300000000    0.7500000000000000    0.6596330900000000 S
   0.2958601700000000    0.2500000000000000    0.3403669100000000 S
