Li4 Ag4 O4
1.0
  -4.5368278999999996    4.5368278999999996    1.8890019499999999
   4.5368278999999996   -4.5368278999999996    1.8890019499999999
   4.5368278999999996    4.5368278999999996   -1.8890019499999999
Li Ag O
4 4 4
direct
   0.1375552100000000    0.5000000000000000    0.6375552100000000 Li
   0.5000000000000000    0.1375552100000000    0.6375552100000000 Li
   0.5000000000000000    0.8624447900000000    0.3624447900000000 Li
   0.8624447900000000    0.5000000000000000    0.3624447900000000 Li
   0.8382684200000000    0.1617315800000000    0.0000000000000000 Ag
   0.8382684200000000    0.8382684200000000    0.6765378500000000 Ag
   0.1617315800000000    0.8382684200000000    0.0000000000000000 Ag
   0.1617315800000000    0.1617315800000000    0.3234621500000000 Ag
   0.6789233500000000    0.0000000000000000    0.6789233500000000 O
   0.0000000000000000    0.6789233500000000    0.6789233500000000 O
   0.0000000000000000    0.3210766500000000    0.3210766500000000 O
   0.3210766500000000    0.0000000000000000    0.3210766500000000 O
