Sn2 O4
1.0
   4.7764699999999998    0.0000000000000000    0.0000000000000000
   0.0000000000000000    4.7764699999999998    0.0000000000000000
   0.0000000000000000    0.0000000000000000    3.2169699999999999
Sn O
2 4
direct
   0.5000000000000000    0.5000000000000000    0.5000000000000000 Sn
   0.0000000000000000    0.0000000000000000    0.0000000000000000 Sn
   0.3062860000000000    0.3062860000000000    0.0000000000000000 O
   0.8062859999999999    0.1937140000000000    0.5000000000000000 O
   0.1937140000000000    0.8062859999999999    0.5000000000000000 O
   0.6937140000000001    0.6937140000000001    0.0000000000000000 O
