Li8 Ti4 O12
1.0
   2.5447222599999999   -4.4156241800000000    0.0015037800000000
   2.5447222599999999    4.4156241800000000    0.0015037800000000
  -1.7321311200000000    0.0000000000000000    9.5944951599999992
Li Ti O
8 4 12
direct
   0.8400716200000000    0.6804701700000000    0.5003457700000000 Li
   0.3195298300000000    0.1599283800000000    0.9996542300000000 Li
   0.1599283800000000    0.3195298300000000    0.4996542300000000 Li
   0.6804701700000000    0.8400716200000000    0.0003457700000000 Li
   0.0000000000000000    0.5000000000000000    0.0000000000000000 Li
   0.5000000000000000    0.0000000000000000    0.5000000000000000 Li
   0.0848153900000000    0.9151846100000000    0.2500000000000000 Li
   0.9151846100000000    0.0848153900000000    0.7500000000000000 Li
   0.4175821100000000    0.5824178900000000    0.2500000000000000 Ti
   0.2498766700000000    0.7501233300000000    0.7500000000000000 Ti
   0.7501233300000000    0.2498766700000000    0.2500000000000000 Ti
   0.5824178900000000    0.4175821100000000    0.7500000000000000 Ti
   0.9555460200000000    0.7699245900000000    0.8669684100000000 O
   0.1231797500000000    0.5999992600000000    0.3649427700000000 O
   0.2300754100000000    0.0444539800000000    0.6330315900000000 O
   0.0444539800000000    0.2300754100000000    0.1330315900000000 O
   0.4763436800000000    0.3080971800000000    0.3649110400000000 O
   0.4000007400000000    0.8768202500000000    0.1350572300000000 O
   0.8768202500000000    0.4000007400000000    0.6350572300000000 O
   0.5999992600000000    0.1231797500000000    0.8649427700000000 O
   0.3080971800000000    0.4763436800000000    0.8649110400000000 O
   0.6919028200000000    0.5236563200000000    0.1350889600000000 O
   0.5236563200000000    0.6919028200000000    0.6350889600000000 O
   0.7699245900000000    0.9555460200000000    0.3669684100000000 O
