Rb4 W6 Se2 O24
1.0
   7.2556722599999999   -0.0000000000000000    0.0000000000000000
  -3.6278356299999999    6.2835957999999996    0.0000000000000000
   0.0000000000000000    0.0000000000000000   12.0926462499999996
Rb W Se O
4 6 2 24
direct
   0.6666670000000000    0.3333330000000000    0.3858691300000000 Rb
   0.3333330000000000    0.6666670000000000    0.8858691300000000 Rb
   0.3333330000000000    0.6666670000000000    0.5045071000000000 Rb
   0.6666670000000000    0.3333330000000000    0.0045071000000000 Rb
   0.8305398899999999    0.1694601100000000    0.6710507900000000 W
   0.1694601100000000    0.8305398899999999    0.1710507900000000 W
   0.8305398899999999    0.6610797899999999    0.6710507900000000 W
   0.3389202100000000    0.1694601100000000    0.6710507900000000 W
   0.1694601100000000    0.3389202100000000    0.1710507900000000 W
   0.6610797899999999    0.8305398899999999    0.1710507900000000 W
   0.0000000000000000    0.0000000000000000    0.9383481000000000 Se
   0.0000000000000000    0.0000000000000000    0.4383481000000000 Se
   0.7981891500000000    0.5963792900000000    0.8103810299999999 O
   0.8752687200000000    0.7505374500000001    0.4998174300000000 O
   0.4561465600000000    0.5438534400000000    0.1260547200000000 O
   0.1245075200000000    0.8754924800000000    0.6835429200000001 O
   0.2494625500000000    0.1247312800000000    0.4998174300000000 O
   0.2490150400000000    0.1245075200000000    0.1835429200000000 O
   0.2018108500000000    0.4036207100000000    0.3103810300000000 O
   0.5963792900000000    0.7981891500000000    0.3103810300000000 O
   0.1245075200000000    0.2490150400000000    0.6835429200000001 O
   0.8754924800000000    0.7509849600000000    0.1835429200000000 O
   0.2018108500000000    0.7981891500000000    0.3103810300000000 O
   0.5438534400000000    0.0877058800000000    0.6260547200000000 O
   0.4036207100000000    0.2018108500000000    0.8103810299999999 O
   0.5438534400000000    0.4561465600000000    0.6260547200000000 O
   0.0877058800000000    0.5438534400000000    0.1260547200000000 O
   0.4561465600000000    0.9122941200000000    0.1260547200000000 O
   0.7981891500000000    0.2018108500000000    0.8103810299999999 O
   0.1247312800000000    0.2494625500000000    0.9998174300000000 O
   0.7505374500000001    0.8752687200000000    0.9998174300000000 O
   0.1247312800000000    0.8752687200000000    0.9998174300000000 O
   0.8752687200000000    0.1247312800000000    0.4998174300000000 O
   0.7509849600000000    0.8754924800000000    0.6835429200000001 O
   0.8754924800000000    0.1245075200000000    0.1835429200000000 O
   0.9122941200000000    0.4561465600000000    0.6260547200000000 O
