Li12 B4 O12
1.0
   3.2467092399999999    0.0000000000000000    0.0071710300000000
   0.0000000000000000    9.1807847500000008    0.0000000000000000
  -1.5927895200000000    0.0000000000000000    8.1412028700000008
Li B O
12 4 12
direct
   0.4938700100000000    0.7668001000000000    0.0186100400000000 Li
   0.5061299900000000    0.2668001000000000    0.4813899600000000 Li
   0.5061299900000000    0.2331999000000000    0.9813899600000000 Li
   0.4938700100000000    0.7331999000000000    0.5186100400000000 Li
   0.2761490600000000    0.5229778100000000    0.1128016400000000 Li
   0.7238509400000001    0.0229778100000000    0.3871983600000000 Li
   0.7238509400000001    0.4770221900000000    0.8871983600000000 Li
   0.2761490600000000    0.9770221900000000    0.6128016400000000 Li
   0.9081584700000001    0.5734818800000000    0.3676885200000000 Li
   0.0918415300000000    0.0734818800000000    0.1323114800000000 Li
   0.0918415300000000    0.4265181200000000    0.6323114800000000 Li
   0.9081584700000001    0.9265181200000000    0.8676885200000000 Li
   0.1981655100000000    0.8141334800000000    0.2546177200000000 B
   0.8018344900000000    0.3141334800000000    0.2453822800000000 B
   0.8018344900000000    0.1858665200000000    0.7453822800000000 B
   0.1981655100000000    0.6858665200000000    0.7546177200000000 B
   0.0276954500000000    0.8630309600000000    0.0987315000000000 O
   0.9723045500000000    0.3630309600000000    0.4012685000000000 O
   0.9723045500000000    0.1369690400000000    0.9012685000000000 O
   0.0276954500000000    0.6369690400000000    0.5987315000000000 O
   0.2271632800000000    0.9065571900000000    0.3890378300000000 O
   0.7728367200000000    0.4065571900000000    0.1109621700000000 O
   0.7728367200000000    0.0934428100000000    0.6109621700000000 O
   0.2271632800000000    0.5934428100000000    0.8890378300000000 O
   0.3653996300000000    0.6737922300000000    0.2787212900000000 O
   0.6346003700000000    0.1737922300000000    0.2212787100000000 O
   0.6346003700000000    0.3262077700000000    0.7212787100000000 O
   0.3653996300000000    0.8262077700000000    0.7787212900000000 O
