Mg4 Se8 O20
1.0
   6.8374134199999999    0.0000000000000000    0.0000000000000000
   0.0000000000000000   10.3921903400000009    0.0000000000000000
   0.0000000000000000    0.0000000000000000    6.0035443800000001
Mg Se O
4 8 20
direct
   0.0000000000000000    0.5607085300000000    0.7500000000000000 Mg
   0.5000000000000000    0.9392914700000000    0.2500000000000000 Mg
   0.0000000000000000    0.4392914700000000    0.2500000000000000 Mg
   0.5000000000000000    0.0607085300000000    0.7500000000000000 Mg
   0.1344810600000000    0.8455486300000000    0.5294641900000000 Se
   0.3655189400000000    0.6544513700000000    0.0294641900000000 Se
   0.6344810600000000    0.6544513700000000    0.4705358100000000 Se
   0.8655189400000000    0.8455486300000000    0.9705358100000000 Se
   0.8655189400000000    0.1544513700000000    0.4705358100000000 Se
   0.6344810600000000    0.3455486300000000    0.9705358100000000 Se
   0.3655189400000000    0.3455486300000000    0.5294641900000000 Se
   0.1344810600000000    0.1544513700000000    0.0294641900000000 Se
   0.5000000000000000    0.5652213100000000    0.2500000000000000 O
   0.0000000000000000    0.9347786900000000    0.7500000000000000 O
   0.5000000000000000    0.4347786900000000    0.7500000000000000 O
   0.0000000000000000    0.0652213100000000    0.2500000000000000 O
   0.1949081100000000    0.7086706500000000    0.6648879900000000 O
   0.3050918900000000    0.7913293500000000    0.1648879900000000 O
   0.6949081100000000    0.7913293500000000    0.3351120100000000 O
   0.8050918900000000    0.7086706500000000    0.8351120100000000 O
   0.8050918900000000    0.2913293500000000    0.3351120100000000 O
   0.6949081100000000    0.2086706500000000    0.8351120100000000 O
   0.3050918900000000    0.2086706500000000    0.6648879900000000 O
   0.1949081100000000    0.2913293500000000    0.1648879900000000 O
   0.3448271900000000    0.0666467400000000    0.0477558900000000 O
   0.1551728100000000    0.4333532600000000    0.5477558900000000 O
   0.8448271900000000    0.4333532600000000    0.9522441100000000 O
   0.6551728100000000    0.0666467400000000    0.4522441100000000 O
   0.6551728100000000    0.9333532600000000    0.9522441100000000 O
   0.8448271900000000    0.5666467400000000    0.4522441100000000 O
   0.1551728100000000    0.5666467400000000    0.0477558900000000 O
   0.3448271900000000    0.9333532600000000    0.5477558900000000 O
