Ba2 Ca1 W1 O6
1.0
  -2.9541706699999999    2.9541707499999998    4.2067993100000001
   2.9541706699999999   -2.9541707499999998    4.2067993100000001
   2.9541707499999998    2.9541706699999999   -4.2067993100000001
Ba Ca W O
2 1 1 6
direct
   0.2500000000000000    0.7500000000000000    0.5000000000000000 Ba
   0.7500000000000000    0.2500000000000000    0.5000000000000000 Ba
   0.0000000000000000    0.0000000000000000    0.0000000000000000 Ca
   0.5000000000000000    0.5000000000000000    0.0000000000000000 W
   0.2703484700000000    0.2703484700000000    0.0000000000000000 O
   0.7296515300000000    0.7296515300000000    0.0000000000000000 O
   0.2423331300000000    0.2992826200000000    0.5416157500000000 O
   0.7576668700000000    0.7007173799999999    0.4583842500000000 O
   0.2992826200000000    0.7576668700000000    0.0569504900000000 O
   0.7007173799999999    0.2423331300000000    0.9430495100000000 O
