Rb8 Ge8 Se20
1.0
   8.2098639999999996   -8.0317150000000002    0.0000000000000000
   8.2098639999999996    8.0317150000000002    0.0000000000000000
  -1.9457139999999999    0.0000000000000000    9.1170860000000005
Rb Ge Se
8 8 20
direct
   0.2069000000000000    0.4757950000000000    0.6189310000000000 Rb
   0.5242050000000000    0.7931000000000000    0.8810690000000000 Rb
   0.7931000000000000    0.5242050000000000    0.3810690000000000 Rb
   0.4757950000000000    0.2069000000000000    0.1189310000000000 Rb
   0.9507540000000000    0.7810850000000000    0.8968010000000000 Rb
   0.2189150000000000    0.0492460000000000    0.6031990000000000 Rb
   0.0492460000000000    0.2189150000000000    0.1031990000000000 Rb
   0.7810850000000000    0.9507540000000000    0.3968010000000000 Rb
   0.2710250000000000    0.5306860000000000    0.0987650000000000 Ge
   0.4693140000000000    0.7289750000000000    0.4012350000000000 Ge
   0.7289750000000000    0.4693140000000000    0.9012350000000000 Ge
   0.5306860000000000    0.2710250000000000    0.5987650000000000 Ge
   0.8713170000000000    0.2679020000000000    0.6097900000000001 Ge
   0.7320980000000000    0.1286830000000000    0.8902099999999999 Ge
   0.1286830000000000    0.7320980000000000    0.3902100000000000 Ge
   0.2679020000000000    0.8713170000000000    0.1097900000000000 Ge
   0.1095760000000000    0.5456580000000000    0.2380920000000000 Se
   0.4543420000000000    0.8904240000000000    0.2619080000000000 Se
   0.8904240000000000    0.4543420000000000    0.7619080000000000 Se
   0.5456580000000000    0.1095760000000000    0.7380920000000000 Se
   0.7500590000000000    0.3137190000000000    0.0510140000000000 Se
   0.6862810000000000    0.2499410000000000    0.4489860000000000 Se
   0.2499410000000000    0.6862810000000000    0.9489860000000000 Se
   0.3137190000000000    0.7500590000000000    0.5510140000000000 Se
   0.2495130000000000    0.3558190000000000    0.9459040000000000 Se
   0.6441810000000000    0.7504870000000000    0.5540960000000000 Se
   0.7504870000000000    0.6441810000000000    0.0540960000000000 Se
   0.3558190000000000    0.2495130000000000    0.4459040000000000 Se
   0.9843950000000000    0.7515130000000000    0.5358010000000000 Se
   0.2484870000000000    0.0156050000000000    0.9641990000000000 Se
   0.0156050000000000    0.2484870000000000    0.4641990000000000 Se
   0.7515130000000000    0.9843950000000000    0.0358010000000000 Se
   0.1071070000000000    0.8928930000000000    0.2500000000000000 Se
   0.8928930000000000    0.1071070000000000    0.7500000000000000 Se
   0.4584960000000000    0.5415040000000000    0.2500000000000000 Se
   0.5415040000000000    0.4584960000000000    0.7500000000000000 Se
