Cs4 Li2 V2 O8
1.0
   3.0064367800000000   -6.0647485300000001    0.0000000000000000
   3.0064367800000000    6.0647485300000001    0.0000000000000000
   0.0000000000000000    0.0000000000000000    8.1504535699999998
Cs Li V O
4 2 2 8
direct
   0.3936471500000000    0.6063528500000001    0.5436498000000000 Cs
   0.6063528500000001    0.3936471500000000    0.0436498000000000 Cs
   0.0697890600000000    0.9302109400000000    0.4101614600000000 Cs
   0.9302109400000000    0.0697890600000000    0.9101614600000000 Cs
   0.2034679100000000    0.7965320900000000    0.8235099500000000 Li
   0.7965320900000000    0.2034679100000000    0.3235099500000000 Li
   0.6979263300000000    0.3020736700000000    0.6048793600000000 V
   0.3020736700000000    0.6979263300000000    0.1048793600000000 V
   0.1036104300000000    0.4230198500000000    0.2110745700000000 O
   0.8963895700000000    0.5769801500000000    0.7110745700000000 O
   0.3624010700000000    0.6375989300000000    0.9126066900000001 O
   0.6375989300000000    0.3624010700000000    0.4126066900000000 O
   0.5769801500000000    0.8963895700000000    0.2110745700000000 O
   0.4230198500000000    0.1036104300000000    0.7110745700000000 O
   0.8380979700000000    0.1619020300000000    0.5620425999999999 O
   0.1619020300000000    0.8380979700000000    0.0620426000000000 O
