Hg6 Se6 O20
1.0
   8.4442539799999992    0.0000000000000000   -0.0056877800000000
   0.0000000000000000    5.3410820299999999    0.0000000000000000
  -3.4590139400000002    0.0000000000000000   10.6311692499999992
Hg Se O
6 6 20
direct
   0.0073965000000000    0.7518030500000000    0.1308815300000000 Hg
   0.9926035000000000    0.2518030500000000    0.8691184700000000 Hg
   0.0065776700000000    0.7493799400000000    0.6278366399999999 Hg
   0.9934223300000000    0.2493799400000000    0.3721633600000000 Hg
   0.3749545100000000    0.2631488400000000    0.2025855800000000 Hg
   0.6250454900000000    0.7631488400000001    0.7974144200000000 Hg
   0.2615075000000000    0.7698967000000000    0.9616774700000000 Se
   0.7384925000000000    0.2698967000000000    0.0383225300000000 Se
   0.2667084400000000    0.7164087800000000    0.4239203600000000 Se
   0.7332915600000000    0.2164087800000000    0.5760796400000000 Se
   0.6449969600000000    0.7534175500000000    0.2829961400000000 Se
   0.3550030400000000    0.2534175500000000    0.7170038600000000 Se
   0.1013124800000000    0.8795857900000000    0.8337857000000000 O
   0.8986875200000000    0.3795857900000000    0.1662143000000000 O
   0.1192425400000000    0.5924356700000000    0.4876525600000000 O
   0.8807574600000000    0.0924356700000000    0.5123474400000000 O
   0.1499440700000000    0.9376388900000000    0.3178137100000000 O
   0.8500559300000000    0.4376388900000000    0.6821862900000000 O
   0.1634117400000000    0.5241371400000000    0.0136966200000000 O
   0.8365882600000000    0.0241371400000000    0.9863033800000000 O
   0.2246795900000000    0.9864881700000000    0.0662514100000000 O
   0.7753204100000000    0.4864881700000000    0.9337485900000000 O
   0.2436725900000000    0.4729766400000000    0.3193642700000000 O
   0.7563274100000000    0.9729766399999999    0.6806357300000000 O
   0.5167656100000000    0.9391415100000000    0.3331982800000000 O
   0.4832343900000000    0.4391415100000000    0.6668017200000000 O
   0.5273820800000000    0.5791531400000000    0.1593646800000000 O
   0.4726179200000000    0.0791531400000000    0.8406353200000000 O
   0.7448532400000000    0.5617625000000001    0.3974249500000000 O
   0.2551467600000000    0.0617625000000000    0.6025750500000000 O
   0.7674300300000000    0.9291626900000000    0.2257755100000000 O
   0.2325699700000000    0.4291626900000000    0.7742244900000000 O
