Cu4 As4 Pb4 S12
1.0
   7.6134589000000004    0.0000000000000000    0.0000000000000000
   0.0000000000000000    7.9387526800000003    0.0000000000000000
   0.0000000000000000    0.0000000000000000    8.5950504300000006
Cu As Pb S
4 4 4 12
direct
   0.7429360400000000    0.7781971000000000    0.4291384500000000 Cu
   0.2429360400000000    0.2218029000000000    0.9291384499999999 Cu
   0.7570639600000000    0.2218029000000000    0.9291384499999999 Cu
   0.2570639600000000    0.7781971000000000    0.4291384500000000 Cu
   0.5000000000000000    0.4384704700000000    0.5762728000000000 As
   0.0000000000000000    0.0045979900000000    0.6593089600000001 As
   0.5000000000000000    0.9954020099999999    0.1593089600000000 As
   0.0000000000000000    0.5615295300000001    0.0762728000000000 As
   0.5000000000000000    0.5800942600000000    0.9975107600000001 Pb
   0.0000000000000000    0.4199057400000000    0.4975107600000000 Pb
   0.0000000000000000    0.0615504900000000    0.1915223900000000 Pb
   0.5000000000000000    0.9384495100000000    0.6915223900000000 Pb
   0.5000000000000000    0.7457022400000000    0.2869707300000000 S
   0.2249767800000000    0.0636091900000000    0.4908740900000000 S
   0.7249767800000000    0.9363908100000000    0.9908740900000000 S
   0.7750232200000000    0.0636091900000000    0.4908740900000000 S
   0.7706655000000000    0.3905726800000000    0.1473045700000000 S
   0.2293345000000000    0.3905726800000000    0.1473045700000000 S
   0.2706655000000000    0.6094273200000000    0.6473045700000000 S
   0.2750232200000000    0.9363908100000000    0.9908740900000000 S
   0.0000000000000000    0.2542977600000000    0.7869707300000000 S
   0.5000000000000000    0.2778645300000000    0.7989341200000000 S
   0.0000000000000000    0.7221354700000000    0.2989341200000000 S
   0.7293345000000000    0.6094273200000000    0.6473045700000000 S
