Zn2 Ga2 N2 O2
1.0
   3.2065383199999999    0.0000000000000000    0.0000000000000000
   0.0000000000000000    5.4851900999999996    0.0000000000000000
   0.0000000000000000    0.0000000000000000    5.1792360000000004
Zn Ga N O
2 2 2 2
direct
   0.5000000000000000    0.1744732500000000    0.4911025100000000 Zn
   0.5000000000000000    0.8255267500000000    0.9911025100000000 Zn
   0.0000000000000000    0.3476821900000000    0.0071585600000000 Ga
   0.0000000000000000    0.6523178100000000    0.5071585600000000 Ga
   0.0000000000000000    0.3321485900000000    0.3710440900000000 N
   0.0000000000000000    0.6678514100000000    0.8710440900000000 N
   0.5000000000000000    0.1757752400000000    0.8846918400000000 O
   0.5000000000000000    0.8242247600000000    0.3846918400000000 O
