Ba4 In2 Bi2 Se10
1.0
   2.1620092500000001   -9.5122478600000004    0.0000000000000000
   2.1620092500000001    9.5122478600000004    0.0000000000000000
   0.0000000000000000    0.0000000000000000   13.0862351199999996
Ba In Bi Se
4 2 2 10
direct
   0.3864937800000000    0.6135062200000000    0.1457038500000000 Ba
   0.6135062200000000    0.3864937800000000    0.6457038500000000 Ba
   0.6285574100000000    0.3714425900000000    0.0190198100000000 Ba
   0.3714425900000000    0.6285574100000000    0.5190198100000000 Ba
   0.9414548300000000    0.0585451700000000    0.8874878500000000 In
   0.0585451700000000    0.9414548300000000    0.3874878500000000 In
   0.2840214200000000    0.7159785800000000    0.8093550800000000 Bi
   0.7159785800000000    0.2840214200000000    0.3093550800000000 Bi
   0.7842059300000001    0.2157940700000000    0.6622291800000000 Se
   0.2157940700000000    0.7842059300000001    0.1622291800000000 Se
   0.0043032200000000    0.9956967799999999    0.0610934500000000 Se
   0.9956967799999999    0.0043032200000000    0.5610934500000000 Se
   0.4525496700000000    0.5474503300000000    0.7722727400000000 Se
   0.5474503300000000    0.4525496700000000    0.2722727400000000 Se
   0.1402910500000000    0.8597089500000000    0.8301205900000000 Se
   0.8597089500000000    0.1402910500000000    0.3301205900000000 Se
   0.8112885600000000    0.1887114400000000    0.9671364500000000 Se
   0.1887114400000000    0.8112885600000000    0.4671364500000000 Se
