Ba4 Na1 Bi3 O12
1.0
  -4.2855727000000003    4.2855727000000003    4.2855727000000003
   4.2855727000000003   -4.2855727000000003    4.2855727000000003
   4.2855727000000003    4.2855727000000003   -4.2855727000000003
Ba Na Bi O
4 1 3 12
direct
   0.0000000000000000    0.5000000000000000    0.0000000000000000 Ba
   0.5000000000000000    0.0000000000000000    0.0000000000000000 Ba
   0.5000000000000000    0.5000000000000000    0.5000000000000000 Ba
   0.0000000000000000    0.0000000000000000    0.5000000000000000 Ba
   0.0000000000000000    0.0000000000000000    0.0000000000000000 Na
   0.5000000000000000    0.0000000000000000    0.5000000000000000 Bi
   0.5000000000000000    0.5000000000000000    0.0000000000000000 Bi
   0.0000000000000000    0.5000000000000000    0.5000000000000000 Bi
   0.7366284900000000    0.7366284900000000    0.0000000000000000 O
   0.2500000000000000    0.5000000000000000    0.7500000000000000 O
   0.2633715100000000    0.0000000000000000    0.2633715100000000 O
   0.5000000000000000    0.7500000000000000    0.2500000000000000 O
   0.7500000000000000    0.2500000000000000    0.5000000000000000 O
   0.7500000000000000    0.5000000000000000    0.2500000000000000 O
   0.0000000000000000    0.7366284900000000    0.7366284900000000 O
   0.0000000000000000    0.2633715100000000    0.2633715100000000 O
   0.2633715100000000    0.2633715100000000    0.0000000000000000 O
   0.2500000000000000    0.7500000000000000    0.5000000000000000 O
   0.5000000000000000    0.2500000000000000    0.7500000000000000 O
   0.7366284900000000    0.0000000000000000    0.7366284900000000 O
