Cd2 Ga4 O8
1.0
   0.0000000000000000    4.3187319000000004    4.3187319000000004
   4.3187319000000004    0.0000000000000000    4.3187319000000004
   4.3187319000000004    4.3187319000000004    0.0000000000000000
Cd Ga O
2 4 8
direct
   0.7500000000000000    0.7500000000000000    0.7500000000000000 Cd
   0.5000000000000000    0.5000000000000000    0.5000000000000000 Cd
   0.1250000000000000    0.1250000000000000    0.1250000000000000 Ga
   0.6250000000000000    0.1250000000000000    0.1250000000000000 Ga
   0.1250000000000000    0.1250000000000000    0.6250000000000000 Ga
   0.1250000000000000    0.6250000000000000    0.1250000000000000 Ga
   0.8929601600000000    0.3211205200000000    0.8929601600000000 O
   0.3570398400000000    0.3570398400000000    0.9288794800000000 O
   0.3570398400000000    0.3570398400000000    0.3570398400000000 O
   0.9288794800000000    0.3570398400000000    0.3570398400000000 O
   0.8929601600000000    0.8929601600000000    0.8929601600000000 O
   0.3211205200000000    0.8929601600000000    0.8929601600000000 O
   0.3570398400000000    0.9288794800000000    0.3570398400000000 O
   0.8929601600000000    0.8929601600000000    0.3211205200000000 O
