Pb6 Se2 O10
1.0
   5.2765528599999998   -5.3352290900000003    0.0000000000000000
   5.2765528599999998    5.3352290900000003    0.0000000000000000
   0.0000000000000000    0.0000000000000000    5.7318360100000003
Pb Se O
6 2 10
direct
   0.1172576200000000    0.8827423800000000    0.1904758900000000 Pb
   0.8827423800000000    0.1172576200000000    0.6904758900000000 Pb
   0.6384432799999999    0.8667020900000000    0.1869966300000000 Pb
   0.3615567200000000    0.1332979100000000    0.6869966300000000 Pb
   0.1332979100000000    0.3615567200000000    0.1869966300000000 Pb
   0.8667020900000000    0.6384432799999999    0.6869966300000000 Pb
   0.6260316000000000    0.3739684000000000    0.1380665300000000 Se
   0.3739684000000000    0.6260316000000000    0.6380665300000000 Se
   0.8698401300000000    0.8649545800000000    0.9488655800000000 O
   0.1301598700000000    0.1350454200000000    0.4488655800000000 O
   0.1350454200000000    0.1301598700000000    0.9488655800000000 O
   0.8649545800000000    0.8698401300000000    0.4488655800000000 O
   0.7796100200000000    0.2203899800000000    0.2236091900000000 O
   0.2203899800000000    0.7796100200000000    0.7236091900000000 O
   0.4378868500000000    0.3030627500000000    0.2895619900000000 O
   0.5621131500000000    0.6969372500000000    0.7895619900000000 O
   0.6969372500000000    0.5621131500000000    0.2895619900000000 O
   0.3030627500000000    0.4378868500000000    0.7895619900000000 O
