La8 W4 O24
1.0
   5.4474985100000000    0.0000000000000000    0.0000000000000000
   0.0000000000000000    9.3845156500000009    0.0000000000000000
   0.0000000000000000    0.0000000000000000   10.2802992300000007
La W O
8 4 24
direct
   0.0277931200000000    0.3959633800000000    0.0407543100000000 La
   0.0280492100000000    0.2800522800000000    0.6345040400000000 La
   0.4719507900000000    0.7199477200000000    0.1345040400000000 La
   0.4722068800000000    0.6040366200000000    0.5407543100000000 La
   0.5277931200000000    0.1040366200000000    0.9592456900000000 La
   0.5280492100000000    0.2199477200000000    0.3654959600000000 La
   0.9719507900000000    0.7800522800000000    0.8654959600000000 La
   0.9722068800000000    0.8959633800000000    0.4592456900000000 La
   0.0419869100000000    0.0031713900000000    0.1442030600000000 W
   0.4580130900000000    0.9968286100000000    0.6442030600000000 W
   0.5419869100000000    0.4968286100000000    0.8557969400000000 W
   0.9580130900000000    0.5031713900000000    0.3557969400000000 W
   0.0660758400000000    0.6485948200000000    0.4779718500000000 O
   0.1704950800000000    0.5504499000000000    0.2195242200000000 O
   0.1969478400000000    0.8656743099999999    0.6763103800000000 O
   0.1790749700000000    0.8632172400000000    0.2560311900000000 O
   0.2187821200000000    0.3893351000000000    0.4386965000000000 O
   0.2484431700000000    0.0889519200000000    0.5089538600000000 O
   0.2515568300000000    0.9110480800000000    0.0089538600000000 O
   0.2812178800000000    0.6106649000000000    0.9386965000000000 O
   0.3209250300000000    0.1367827600000000    0.7560311900000000 O
   0.3030521600000000    0.1343256900000000    0.1763103800000000 O
   0.3295049200000000    0.4495501000000000    0.7195242200000000 O
   0.4339241600000000    0.3514051800000000    0.9779718500000000 O
   0.5660758400000000    0.8514051800000000    0.5220281500000000 O
   0.6704950800000000    0.9495501000000000    0.7804757800000000 O
   0.6969478400000000    0.6343256900000001    0.3236896200000000 O
   0.6790749700000001    0.6367827600000000    0.7439688100000000 O
   0.7187821200000000    0.1106649000000000    0.5613035000000000 O
   0.7484431700000000    0.4110480800000000    0.4910461400000000 O
   0.7515568300000000    0.5889519200000000    0.9910461400000000 O
   0.7812178800000000    0.8893351000000000    0.0613035000000000 O
   0.8209250299999999    0.3632172400000000    0.2439688100000000 O
   0.8030521600000000    0.3656743100000000    0.8236896200000000 O
   0.8295049200000000    0.0504499000000000    0.2804757800000000 O
   0.9339241600000000    0.1485948200000000    0.0220281500000000 O
