Cs2 Sb4 S8
1.0
   6.2761924300000000    0.0912035800000000   -0.0072212000000000
   1.7267665500000000    6.5529949199999997    0.0010421600000000
   0.4300753400000000    1.5594910200000001    9.2868338500000007
Cs Sb S
2 4 8
direct
   0.6772943200000000    0.6724041700000000    0.0623765300000000 Cs
   0.3227056800000000    0.3275958300000000    0.9376234700000000 Cs
   0.6608791200000000    0.6871290900000000    0.5389653800000000 Sb
   0.3391208800000000    0.3128709100000000    0.4610346200000000 Sb
   0.9302455800000000    0.0985904600000000    0.6675908200000000 Sb
   0.0697544200000000    0.9014095400000000    0.3324091800000000 Sb
   0.7138440200000000    0.3449312400000000    0.4015160800000000 S
   0.2861559800000000    0.6550687600000000    0.5984839199999999 S
   0.5871492699999999    0.9824357100000000    0.7066815800000000 S
   0.4128507300000000    0.0175642900000000    0.2933184200000000 S
   0.0939256600000000    0.9212041100000000    0.9230341200000000 S
   0.9060743400000000    0.0787958900000000    0.0769658800000000 S
   0.1845115200000000    0.5723292000000000    0.2370664000000000 S
   0.8154884800000000    0.4276708000000000    0.7629336000000000 S
