Si4 Se2 N4
1.0
   5.3769989300000001   -2.7906979999999999    0.0000000000000000
   5.3769989300000001    2.7906979999999999    0.0000000000000000
   0.0000000000000000    0.0000000000000000    4.8798567400000001
Si Se N
4 2 4
direct
   0.4582672200000000    0.1670572700000000    0.9099435600000000 Si
   0.8329427300000000    0.5417327800000000    0.9099435600000000 Si
   0.5417327800000000    0.8329427300000000    0.4099435600000000 Si
   0.1670572700000000    0.4582672200000000    0.4099435600000000 Si
   0.2182972200000000    0.7817027800000000    0.2609032100000000 Se
   0.7817027800000000    0.2182972200000000    0.7609032100000001 Se
   0.4062044400000000    0.1493954200000000    0.2564048300000000 N
   0.8506045800000001    0.5937955600000000    0.2564048300000000 N
   0.5937955600000000    0.8506045800000001    0.7564048300000000 N
   0.1493954200000000    0.4062044400000000    0.7564048300000000 N
