Na8 Mo2 N4 O4
1.0
   5.8103058200000000    0.0016835300000000   -0.0019963700000000
   2.1045695200000001    5.4466824400000000    0.0056283700000000
   2.7942969400000002    0.1107468000000000    8.3316115499999999
Na Mo N O
8 2 4 4
direct
   0.2408440900000000    0.7608929200000000    0.9851469200000000 Na
   0.7591559100000000    0.2391070800000000    0.0148530800000000 Na
   0.0566230200000000    0.7572091200000000    0.4014859100000000 Na
   0.9433769800000000    0.2427908800000000    0.5985140900000000 Na
   0.4781942400000000    0.7387689500000000    0.5596510800000000 Na
   0.5218057600000000    0.2612310500000000    0.4403489200000000 Na
   0.6129428900000000    0.7242618700000000    0.1838930100000000 Na
   0.3870571100000000    0.2757381300000000    0.8161069900000000 Na
   0.8404593800000000    0.7192565400000001    0.7627233800000000 Mo
   0.1595406200000000    0.2807434600000000    0.2372766200000000 Mo
   0.2957613300000000    0.0353082100000000    0.3647626100000000 N
   0.1583501700000000    0.5400206500000000    0.6439444600000001 N
   0.8416498300000000    0.4599793500000000    0.3560555400000000 N
   0.7042386700000000    0.9646917900000000    0.6352373900000000 N
   0.6355747400000000    0.5134807700000000    0.8137787900000000 O
   0.1505868100000000    0.1553315100000000    0.0518834000000000 O
   0.3644252600000000    0.4865192300000000    0.1862212100000000 O
   0.8494131900000000    0.8446684900000000    0.9481166000000000 O
