Li2 La2 W4 O16
1.0
   7.1088911599999998    0.0232590900000000   -0.0243268600000000
  -0.1401851400000000    7.3810881000000004    0.0200424000000000
  -3.2598576800000001   -3.0945643299999999    6.0500193099999997
Li La W O
2 2 4 16
direct
   0.2610945900000000    0.6679645200000000    0.0102852300000000 Li
   0.7389054100000000    0.3320354800000000    0.9897147700000000 Li
   0.1850738900000000    0.2881206000000000    0.4611474800000000 La
   0.8149261100000000    0.7118794000000001    0.5388525199999999 La
   0.2576019100000000    0.2924046500000000    0.0289097900000000 W
   0.7423980900000000    0.7075953500000000    0.9710902100000000 W
   0.6463574500000000    0.1006872500000000    0.2787458500000000 W
   0.3536425500000000    0.8993127500000000    0.7212541500000000 W
   0.1827181800000000    0.3626610700000000    0.8084063000000000 O
   0.8172818200000000    0.6373389300000000    0.1915937000000000 O
   0.4401877600000000    0.5351649000000001    0.2450506500000000 O
   0.5598122400000000    0.4648351000000000    0.7549493500000000 O
   0.8638522100000000    0.0078378800000000    0.1951014200000000 O
   0.1361477900000000    0.9921621200000000    0.8048985800000000 O
   0.7043730800000000    0.0069522300000000    0.4737637000000000 O
   0.2956269200000000    0.9930477700000000    0.5262363000000000 O
   0.1780854700000000    0.6458216400000000    0.5649475900000001 O
   0.8219145300000000    0.3541783600000000    0.4350524100000000 O
   0.4808328800000000    0.8271549000000000    0.0071817100000000 O
   0.5191671200000000    0.1728451000000000    0.9928182900000000 O
   0.0367991400000000    0.3056661600000000    0.0871752900000000 O
   0.9632008600000000    0.6943338400000000    0.9128247100000000 O
   0.3850161100000000    0.1718939600000000    0.2564654600000000 O
   0.6149838900000000    0.8281060400000000    0.7435345400000000 O
