Na8 Be4 Si4 O16
1.0
   6.9904268199999997    0.0000000000000000    0.0042599100000000
   0.0000000000000000    4.9339808999999999    0.0000000000000000
  -0.0081687900000000    0.0000000000000000    9.9051853500000000
Na Be Si O
8 4 4 16
direct
   0.9986578500000000    0.7911634000000000    0.1089800300000000 Na
   0.7349197200000001    0.3167804900000000    0.1410413900000000 Na
   0.2650802800000000    0.8167804900000000    0.3589586100000000 Na
   0.2650802800000000    0.6832195100000000    0.8589586100000000 Na
   0.7349197200000001    0.1832195100000000    0.6410413900000000 Na
   0.0013421500000000    0.2911634000000000    0.3910199700000000 Na
   0.9986578500000000    0.7088366000000000    0.6089800300000000 Na
   0.0013421500000000    0.2088366000000000    0.8910199700000000 Na
   0.5008859500000000    0.1589594800000000    0.9118402600000000 Be
   0.4991140500000000    0.6589594800000000    0.5881597400000000 Be
   0.4991140500000000    0.8410405200000000    0.0881597400000000 Be
   0.5008859500000000    0.3410405200000000    0.4118402600000000 Be
   0.2760203600000000    0.1566990700000000    0.6583610300000000 Si
   0.2760203600000000    0.3433009300000000    0.1583610300000000 Si
   0.7239796400000000    0.8433009299999999    0.3416389700000000 Si
   0.7239796400000000    0.6566990700000001    0.8416389700000000 Si
   0.4403924300000000    0.1689752600000000    0.0749337100000000 O
   0.6879075700000000    0.1656787600000000    0.3773921700000000 O
   0.3120924300000000    0.6656787600000000    0.1226078300000000 O
   0.3120924300000000    0.8343212400000000    0.6226078300000000 O
   0.6879075700000000    0.3343212400000000    0.8773921700000000 O
   0.0566474700000000    0.2373849100000000    0.6234120100000000 O
   0.5596075700000001    0.6689752600000000    0.4250662900000000 O
   0.5596075700000001    0.8310247400000000    0.9250662900000000 O
   0.4403924300000000    0.3310247400000000    0.5749337100000000 O
   0.3148600300000000    0.2895827900000000    0.3204462000000000 O
   0.6851399700000000    0.7895827900000000    0.1795538000000000 O
   0.6851399700000000    0.7104172100000000    0.6795538000000000 O
   0.9433525300000000    0.7626150900000001    0.3765879900000000 O
   0.9433525300000000    0.7373849099999999    0.8765879900000000 O
   0.0566474700000000    0.2626150900000000    0.1234120100000000 O
   0.3148600300000000    0.2104172100000000    0.8204462000000000 O
