Na2 Ti4 As6 O24
1.0
   4.4811091500000000    2.5871694999999999    7.4403782100000004
  -4.4811091500000000    2.5871694999999999    7.4403782100000004
   0.0000000000000000   -5.1743389899999999    7.4403782100000004
Na Ti As O
2 4 6 24
direct
   0.5000000000000000    0.5000000000000000    0.5000000000000000 Na
   0.0000000000000000    0.0000000000000000    0.0000000000000000 Na
   0.3586656800000000    0.3586656800000000    0.3586656800000000 Ti
   0.8586656800000000    0.8586656800000000    0.8586656800000000 Ti
   0.6413343200000000    0.6413343200000000    0.6413343200000000 Ti
   0.1413343200000000    0.1413343200000000    0.1413343200000000 Ti
   0.5376237800000000    0.2500000000000000    0.9623762200000000 As
   0.9623762200000000    0.5376237800000000    0.2500000000000000 As
   0.2500000000000000    0.9623762200000000    0.5376237800000000 As
   0.0376237800000000    0.4623762200000000    0.7500000000000000 As
   0.7500000000000000    0.0376237800000000    0.4623762200000000 As
   0.4623762200000000    0.7500000000000000    0.0376237800000000 As
   0.5050561500000000    0.2946642200000000    0.1395483500000000 O
   0.1395483500000000    0.5050561500000000    0.2946642200000000 O
   0.2946642200000000    0.1395483500000000    0.5050561500000000 O
   0.0050561500000000    0.6395483500000000    0.7946642200000000 O
   0.7946642200000000    0.0050561500000000    0.6395483500000000 O
   0.6395483500000000    0.7946642200000000    0.0050561500000000 O
   0.4949438500000000    0.7053357800000000    0.8604516500000000 O
   0.8604516500000000    0.4949438500000000    0.7053357800000000 O
   0.7053357800000000    0.8604516500000000    0.4949438500000000 O
   0.9949438500000000    0.3604516500000000    0.2053357800000000 O
   0.2053357800000000    0.9949438500000000    0.3604516500000000 O
   0.3604516500000000    0.2053357800000000    0.9949438500000000 O
   0.4434548500000000    0.5715497700000000    0.2365922600000000 O
   0.2365922600000000    0.4434548500000000    0.5715497700000000 O
   0.5715497700000000    0.2365922600000000    0.4434548500000000 O
   0.9434548500000000    0.7365922600000000    0.0715497700000000 O
   0.0715497700000000    0.9434548500000000    0.7365922600000000 O
   0.7365922600000000    0.0715497700000000    0.9434548500000000 O
   0.5565451500000000    0.4284502300000000    0.7634077400000000 O
   0.7634077400000000    0.5565451500000000    0.4284502300000000 O
   0.4284502300000000    0.7634077400000000    0.5565451500000000 O
   0.0565451500000000    0.2634077400000000    0.9284502300000000 O
   0.9284502300000000    0.0565451500000000    0.2634077400000000 O
   0.2634077400000000    0.9284502300000000    0.0565451500000000 O
