Ag6 P2 O8
1.0
   5.9396879000000000    0.0000000000000000    0.0000000000000000
   0.0000000000000000    5.9396879000000000    0.0000000000000000
   0.0000000000000000    0.0000000000000000    5.9396879000000000
Ag P O
6 2 8
direct
   0.0000000000000000    0.2500000000000000    0.5000000000000000 Ag
   0.2500000000000000    0.5000000000000000    0.0000000000000000 Ag
   0.5000000000000000    0.0000000000000000    0.7500000000000000 Ag
   0.5000000000000000    0.0000000000000000    0.2500000000000000 Ag
   0.0000000000000000    0.7500000000000000    0.5000000000000000 Ag
   0.7500000000000000    0.5000000000000000    0.0000000000000000 Ag
   0.0000000000000000    0.0000000000000000    0.0000000000000000 P
   0.5000000000000000    0.5000000000000000    0.5000000000000000 P
   0.3483230700000000    0.3483230700000000    0.6516769300000000 O
   0.6516769300000000    0.3483230700000000    0.3483230700000000 O
   0.6516769300000000    0.6516769300000000    0.6516769300000000 O
   0.3483230700000000    0.6516769300000000    0.3483230700000000 O
   0.1516769300000000    0.1516769300000000    0.1516769300000000 O
   0.1516769300000000    0.8483230700000000    0.8483230700000000 O
   0.8483230700000000    0.8483230700000000    0.1516769300000000 O
   0.8483230700000000    0.1516769300000000    0.8483230700000000 O
