Cs8 C4 O12
1.0
   6.1188931300000000    0.0000000000000000   -0.0204701600000000
   0.0000000000000000   10.3074905700000006    0.0000000000000000
  -0.8787562900000000    0.0000000000000000    7.9460932199999998
Cs C O
8 4 12
direct
   0.2419481000000000    0.9164834900000000    0.1736039200000000 Cs
   0.7580519000000000    0.4164834900000000    0.3263960800000000 Cs
   0.7580519000000000    0.0835165100000000    0.8263960800000000 Cs
   0.2419481000000000    0.5835165100000000    0.6736039200000000 Cs
   0.2594273500000000    0.2848646000000000    0.0200770400000000 Cs
   0.7405726500000001    0.7848646000000000    0.4799229600000000 Cs
   0.7405726500000001    0.7151354000000000    0.9799229600000000 Cs
   0.2594273500000000    0.2151354000000000    0.5200770400000000 Cs
   0.2488169700000000    0.5810175100000000    0.2654313100000000 C
   0.2488169700000000    0.9189824900000000    0.7654313100000000 C
   0.7511830300000000    0.4189824900000000    0.7345686900000000 C
   0.7511830300000000    0.0810175100000000    0.2345686900000000 C
   0.0748419100000000    0.8493933800000000    0.7827652800000000 O
   0.9251580900000000    0.3493933800000000    0.7172347200000000 O
   0.9251580900000000    0.1506066200000000    0.2172347200000000 O
   0.0748419100000000    0.6506066200000000    0.2827652800000000 O
   0.4135455800000000    0.8695816200000001    0.6980952900000000 O
   0.4135455800000000    0.6304183799999999    0.1980952900000000 O
   0.5864544200000000    0.1304183800000000    0.3019047100000000 O
   0.5864544200000000    0.3695816200000000    0.8019047100000000 O
   0.2577033800000000    0.4612681500000000    0.3190703800000000 O
   0.7422966200000000    0.9612681500000000    0.1809296200000000 O
   0.7422966200000000    0.5387318500000000    0.6809296200000000 O
   0.2577033800000000    0.0387318500000000    0.8190703800000000 O
