Sr4 P4 S12
1.0
   6.6099822899999996    0.0000000000000000   -0.0147591900000000
   0.0000000000000000    7.5029900500000002    0.0000000000000000
  -6.3217285900000002    0.0000000000000000    9.3380860800000001
Sr P S
4 4 12
direct
   0.7088457400000000    0.8886700300000000    0.2494953700000000 Sr
   0.2911542600000000    0.3886700300000000    0.2505046300000000 Sr
   0.2911542600000000    0.1113299700000000    0.7505046300000000 Sr
   0.7088457400000000    0.6113299700000000    0.7494953700000000 Sr
   0.3719200800000000    0.8906749700000000    0.4338870300000000 P
   0.6280799200000000    0.3906749700000000    0.0661129700000000 P
   0.6280799200000000    0.1093250300000000    0.5661129700000000 P
   0.3719200800000000    0.6093250300000000    0.9338870300000000 P
   0.1389305100000000    0.5049157500000000    0.7368289900000000 S
   0.8610694900000000    0.0049157500000000    0.7631710100000000 S
   0.8610694900000000    0.4950842500000000    0.2631710100000000 S
   0.1389305100000000    0.9950842500000000    0.2368289900000000 S
   0.2168922900000000    0.6928590900000000    0.0368287300000000 S
   0.7831077100000000    0.1928590900000000    0.4631712700000000 S
   0.7831077100000000    0.3071409100000000    0.9631712700000000 S
   0.2168922900000000    0.8071409100000000    0.5368287300000000 S
   0.5992290700000000    0.8008323500000000    0.9446310200000000 S
   0.4007709300000000    0.3008323500000000    0.5553689800000000 S
   0.4007709300000000    0.1991676500000000    0.0553689800000000 S
   0.5992290700000000    0.6991676500000000    0.4446310200000000 S
