Sc6 Ga6 O18
1.0
   5.7041518599999996    0.0000000000000000    0.0000000000000000
  -2.8520764199999999    4.9399411500000001    0.0000000000000000
   0.0000000000000000    0.0000000000000000   11.4470003899999995
Sc Ga O
6 6 18
direct
   0.6666670000000000    0.3333330000000000    0.7362880500000000 Sc
   0.0000000000000000    0.0000000000000000    0.7769969600000000 Sc
   0.0000000000000000    0.0000000000000000    0.2769969600000000 Sc
   0.6666670000000000    0.3333330000000000    0.2362880500000000 Sc
   0.3333330000000000    0.6666670000000000    0.2362880500000000 Sc
   0.3333330000000000    0.6666670000000000    0.7362880500000000 Sc
   0.6660212800000000    0.6660212800000000    0.0029608700000000 Ga
   0.3339787200000000    0.3339787200000000    0.5029608700000000 Ga
   0.3339787200000000    1.0000000000000000    0.0029608700000000 Ga
   0.6660212800000000    0.0000000000000000    0.5029608700000000 Ga
   1.0000000000000000    0.6660212800000000    0.5029608700000000 Ga
   0.0000000000000000    0.3339787200000000    0.0029608700000000 Ga
   0.6961936700000000    0.6961936700000000    0.1713124000000000 O
   0.6366858399999999    0.6366858399999999    0.8372911800000000 O
   0.3633141600000000    0.3633141600000000    0.3372911800000000 O
   0.3038063300000000    0.3038063300000000    0.6713124000000000 O
   0.6666670000000000    0.3333330000000000    0.5278696700000000 O
   0.0000000000000000    0.0000000000000000    0.9748072600000000 O
   0.0000000000000000    0.0000000000000000    0.4748072600000000 O
   0.6666670000000000    0.3333330000000000    0.0278696700000000 O
   0.3038063300000000    0.0000000000000000    0.1713124000000000 O
   0.3633141600000000    1.0000000000000000    0.8372911800000000 O
   0.0000000000000000    0.6961936700000000    0.6713124000000000 O
   0.6366858399999999    0.0000000000000000    0.3372911800000000 O
   0.6961936700000000    1.0000000000000000    0.6713124000000000 O
   1.0000000000000000    0.6366858399999999    0.3372911800000000 O
   0.3333330000000000    0.6666670000000000    0.0278696700000000 O
   0.3333330000000000    0.6666670000000000    0.5278696700000000 O
   0.0000000000000000    0.3633141600000000    0.8372911800000000 O
   1.0000000000000000    0.3038063300000000    0.1713124000000000 O
