Ba8 Hg4 S12
1.0
   8.8886648400000006    0.0000000000000000    0.0000000000000000
   0.0000000000000000    4.3260405500000001    0.0000000000000000
   0.0000000000000000    0.0000000000000000   17.1642000599999989
Ba Hg S
8 4 12
direct
   0.2591729800000000    0.2500000000000000    0.0394962100000000 Ba
   0.4231522700000000    0.2500000000000000    0.7846602200000000 Ba
   0.0768477300000000    0.7500000000000000    0.2846602200000000 Ba
   0.9231522700000000    0.2500000000000000    0.7153397800000000 Ba
   0.7591729800000000    0.2500000000000000    0.4605037900000000 Ba
   0.2408270200000000    0.7500000000000000    0.5394962100000000 Ba
   0.7408270200000000    0.7500000000000000    0.9605037900000000 Ba
   0.5768477300000000    0.7500000000000000    0.2153397800000000 Ba
   0.6241231400000000    0.7500000000000000    0.6329653100000000 Hg
   0.3758768600000000    0.2500000000000000    0.3670346900000000 Hg
   0.1241231400000000    0.7500000000000000    0.8670346900000000 Hg
   0.8758768600000000    0.2500000000000000    0.1329653100000000 Hg
   0.8121714600000000    0.2500000000000000    0.2782795600000000 S
   0.1878285400000000    0.7500000000000000    0.7217204400000000 S
   0.3121714600000000    0.2500000000000000    0.2217204400000000 S
   0.6878285400000000    0.7500000000000000    0.7782795600000000 S
   0.9856047200000000    0.2500000000000000    0.9045607900000000 S
   0.0143952800000000    0.7500000000000000    0.0954392100000000 S
   0.4856047200000000    0.2500000000000000    0.5954392100000000 S
   0.5143952800000000    0.7500000000000000    0.4045607900000000 S
   0.6149037200000000    0.2500000000000000    0.0719822900000000 S
   0.8850962800000000    0.7500000000000000    0.5719822900000000 S
   0.1149037200000000    0.2500000000000000    0.4280177100000000 S
   0.3850962800000000    0.7500000000000000    0.9280177100000000 S
