Mg6 B4 O12
1.0
   4.5022748999999997    0.0000000000000000    0.0000000000000000
   0.0000000000000000    5.3789385599999999    0.0000000000000000
   0.0000000000000000    0.0000000000000000    8.4260423099999997
Mg B O
6 4 12
direct
   0.0000000000000000    0.5000000000000000    0.8131850700000000 Mg
   0.5000000000000000    0.0000000000000000    0.6868149300000000 Mg
   0.0000000000000000    0.5000000000000000    0.1868149300000000 Mg
   0.5000000000000000    0.0000000000000000    0.3131850700000000 Mg
   0.5000000000000000    0.5000000000000000    0.5000000000000000 Mg
   0.0000000000000000    0.0000000000000000    0.0000000000000000 Mg
   0.0468273700000000    0.2427430800000000    0.5000000000000000 B
   0.4531726300000000    0.7427430800000000    0.0000000000000000 B
   0.9531726300000000    0.7572569200000000    0.5000000000000000 B
   0.5468273700000000    0.2572569200000000    0.0000000000000000 B
   0.2971865300000000    0.7960356800000000    0.1394898900000000 O
   0.7971865299999999    0.7039643200000000    0.3605101100000000 O
   0.2971865300000000    0.7960356800000000    0.8605101100000000 O
   0.7028134700000001    0.2039643200000000    0.8605101100000000 O
   0.7971865299999999    0.7039643200000000    0.6394898900000000 O
   0.2028134700000000    0.2960356800000000    0.6394898900000000 O
   0.2502635400000000    0.3236170000000000    0.0000000000000000 O
   0.7502635400000000    0.1763830000000000    0.5000000000000000 O
   0.2497364600000000    0.8236170000000000    0.5000000000000000 O
   0.7497364600000000    0.6763830000000000    0.0000000000000000 O
   0.7028134700000001    0.2039643200000000    0.1394898900000000 O
   0.2028134700000000    0.2960356800000000    0.3605101100000000 O
