Sr2 W2 O8
1.0
  -2.7076915300000000    2.7076914200000002    5.9262309300000000
   2.7076915300000000   -2.7076914200000002    5.9262309300000000
   2.7076914200000002    2.7076915300000000   -5.9262309300000000
Sr W O
2 2 8
direct
   0.7500000000000000    0.2500000000000000    0.5000000000000000 Sr
   0.0000000000000000    0.0000000000000000    0.0000000000000000 Sr
   0.2500000000000000    0.7500000000000000    0.5000000000000000 W
   0.5000000000000000    0.5000000000000000    0.0000000000000000 W
   0.5697409100000000    0.9782225400000000    0.8806220800000000 O
   0.0975994700000000    0.6891178300000000    0.1193779200000000 O
   0.4391178300000000    0.8197409100000000    0.0915183700000000 O
   0.7282225400000000    0.3475994700000000    0.9084816300000000 O
   0.1802590900000000    0.2717774600000000    0.6193779200000000 O
   0.6524005300000000    0.5608821700000000    0.3806220800000000 O
   0.3108821700000000    0.4302590900000000    0.4084816300000000 O
   0.0217774600000000    0.9024005300000000    0.5915183700000000 O
