Sn4 Bi4 O14
1.0
   0.0000000000000000    5.3131475799999999    5.3131475799999999
   5.3131475799999999    0.0000000000000000    5.3131475799999999
   5.3131475799999999    5.3131475799999999    0.0000000000000000
Sn Bi O
4 4 14
direct
   0.6250000000000000    0.6250000000000000    0.1250000000000000 Sn
   0.6250000000000000    0.1250000000000000    0.6250000000000000 Sn
   0.1250000000000000    0.6250000000000000    0.6250000000000000 Sn
   0.6250000000000000    0.6250000000000000    0.6250000000000000 Sn
   0.1250000000000000    0.1250000000000000    0.6250000000000000 Bi
   0.1250000000000000    0.6250000000000000    0.1250000000000000 Bi
   0.6250000000000000    0.1250000000000000    0.1250000000000000 Bi
   0.1250000000000000    0.1250000000000000    0.1250000000000000 Bi
   0.0000000000000000    0.0000000000000000    0.0000000000000000 O
   0.2500000000000000    0.2500000000000000    0.2500000000000000 O
   0.9578985200000000    0.5421014800000000    0.9578985200000000 O
   0.7078985200000000    0.2921014800000000    0.7078985200000000 O
   0.9578985200000000    0.9578985200000000    0.5421014800000000 O
   0.5421014800000000    0.9578985200000000    0.9578985200000000 O
   0.9578985200000000    0.5421014800000000    0.5421014800000000 O
   0.5421014800000000    0.5421014800000000    0.9578985200000000 O
   0.5421014800000000    0.9578985200000000    0.5421014800000000 O
   0.2921014800000000    0.7078985200000000    0.7078985200000000 O
   0.7078985200000000    0.2921014800000000    0.2921014800000000 O
   0.2921014800000000    0.7078985200000000    0.2921014800000000 O
   0.7078985200000000    0.7078985200000000    0.2921014800000000 O
   0.2921014800000000    0.2921014800000000    0.7078985200000000 O
