Rb4 Li2 V2 S8
1.0
   0.0000000000000000    6.5272544000000003   11.4965568800000000
   2.9036538200000002    0.0000000000000000   11.4965568800000000
   2.9036538200000002    6.5272544000000003    0.0000000000000000
Rb Li V S
4 2 2 8
direct
   0.6787764100000000    0.6787764100000000    0.3212235900000000 Rb
   0.9287764100000000    0.9287764100000000    0.5712235900000000 Rb
   0.5712235900000000    0.5712235900000000    0.9287764100000000 Rb
   0.3212235900000000    0.3212235900000000    0.6787764100000000 Rb
   0.0000000000000000    0.0000000000000000    0.0000000000000000 Li
   0.2500000000000000    0.2500000000000000    0.2500000000000000 Li
   0.5000000000000000    0.5000000000000000    0.5000000000000000 V
   0.7500000000000000    0.7500000000000000    0.7500000000000000 V
   0.9253675099999999    0.6816369900000000    0.3837835400000000 S
   0.3246324900000000    0.5683630100000000    0.8662164600000000 S
   0.6816369900000000    0.9253675099999999    0.0092119600000000 S
   0.8662164600000000    0.2407880400000000    0.3246324900000000 S
   0.5683630100000000    0.3246324900000000    0.2407880400000000 S
   0.2407880400000000    0.8662164600000000    0.5683630100000000 S
   0.3837835400000000    0.0092119600000000    0.9253675099999999 S
   0.0092119600000000    0.3837835400000000    0.6816369900000000 S
