Ga4 B4 Pb4 O16
1.0
   6.8674670999999998    0.0000000000000000    0.0000000000000000
   0.0000000000000000    5.9047261799999999    0.0000000000000000
   0.0000000000000000    0.0000000000000000    8.3746539500000008
Ga B Pb O
4 4 4 16
direct
   0.0000000000000000    0.0000000000000000    0.0000000000000000 Ga
   0.0000000000000000    0.5000000000000000    0.0000000000000000 Ga
   0.5000000000000000    0.5000000000000000    0.5000000000000000 Ga
   0.5000000000000000    0.0000000000000000    0.5000000000000000 Ga
   0.2212284000000000    0.7500000000000000    0.2646458200000000 B
   0.7787716000000000    0.2500000000000000    0.7353541800000000 B
   0.7212284000000000    0.7500000000000000    0.2353541800000000 B
   0.2787716000000000    0.2500000000000000    0.7646458200000000 B
   0.9497014400000000    0.7500000000000000    0.6438592100000000 Pb
   0.0502985600000000    0.2500000000000000    0.3561407900000000 Pb
   0.4497014400000000    0.7500000000000000    0.8561407900000000 Pb
   0.5502985600000000    0.2500000000000000    0.1438592100000000 Pb
   0.1832151200000000    0.2500000000000000    0.9103664600000000 O
   0.8167848800000000    0.7500000000000000    0.0896335400000000 O
   0.6832151200000000    0.2500000000000000    0.5896335400000000 O
   0.3167848800000000    0.7500000000000000    0.4103664600000000 O
   0.8930487900000000    0.2500000000000000    0.1111295500000000 O
   0.1069512100000000    0.7500000000000000    0.8888704500000000 O
   0.3930487900000000    0.2500000000000000    0.3888704500000000 O
   0.6069512100000000    0.7500000000000000    0.6111295500000000 O
   0.8279878500000000    0.0459771300000000    0.8068791500000000 O
   0.1720121500000000    0.5459771300000000    0.1931208500000000 O
   0.3279878500000000    0.4540228700000000    0.6931208500000000 O
   0.6720121500000000    0.9540228700000000    0.3068791500000000 O
   0.1720121500000000    0.9540228700000000    0.1931208500000000 O
   0.8279878500000000    0.4540228700000000    0.8068791500000000 O
   0.6720121500000000    0.5459771300000000    0.3068791500000000 O
   0.3279878500000000    0.0459771300000000    0.6931208500000000 O
