Na4 V4 O12
1.0
  14.2896930500000003    0.0000000000000000    0.0000000000000000
   0.0000000000000000    3.6147495799999998    0.0000000000000000
   0.0000000000000000    0.0000000000000000    5.3087159200000000
Na V O
4 4 12
direct
   0.3263181800000000    0.2500000000000000    0.8861802300000000 Na
   0.6736818200000000    0.7500000000000000    0.1138197700000000 Na
   0.1736818200000000    0.7500000000000000    0.3861802300000000 Na
   0.8263181800000000    0.2500000000000000    0.6138197700000000 Na
   0.9141419900000000    0.7500000000000000    0.0708808200000000 V
   0.0858580100000000    0.2500000000000000    0.9291191800000000 V
   0.5858580100000000    0.2500000000000000    0.5708808200000000 V
   0.4141419900000000    0.7500000000000000    0.4291191800000000 V
   0.6856510099999999    0.2500000000000000    0.4039449900000000 O
   0.3867482300000000    0.7500000000000000    0.1271328400000000 O
   0.4470382100000000    0.2500000000000000    0.5012612200000000 O
   0.5529617900000000    0.7500000000000000    0.4987387800000000 O
   0.8867482300000000    0.7500000000000000    0.3728671600000000 O
   0.0529617900000000    0.7500000000000000    0.0012612200000000 O
   0.3143489900000000    0.7500000000000000    0.5960550100000001 O
   0.8143489900000001    0.7500000000000000    0.9039449899999999 O
   0.6132517700000000    0.2500000000000000    0.8728671600000000 O
   0.1132517700000000    0.2500000000000000    0.6271328400000000 O
   0.1856510100000000    0.2500000000000000    0.0960550100000000 O
   0.9470382100000000    0.2500000000000000    0.9987387800000000 O
