Cs4 Ga4 S12
1.0
   7.5417344599999998    0.0000000000000000   -0.0723287400000000
   0.0000000000000000   12.3509888100000005    0.0000000000000000
  -1.9587842700000000    0.0000000000000000    6.1065629699999997
Cs Ga S
4 4 12
direct
   0.2521185100000000    0.4156502900000000    0.7801765300000000 Cs
   0.7478814900000000    0.9156502900000000    0.7198234700000000 Cs
   0.7478814900000000    0.5843497100000000    0.2198234700000000 Cs
   0.2521185100000000    0.0843497100000000    0.2801765300000000 Cs
   0.8072200899999999    0.2720513000000000    0.8501832499999999 Ga
   0.1927799100000000    0.7720513000000000    0.6498167500000001 Ga
   0.1927799100000000    0.7279487000000000    0.1498167500000000 Ga
   0.8072200899999999    0.2279487000000000    0.3501832500000000 Ga
   0.6879785500000000    0.0813852100000000    0.1339680500000000 S
   0.3120214500000000    0.5813852100000000    0.3660319500000000 S
   0.3120214500000000    0.9186147900000000    0.8660319500000000 S
   0.6879785500000000    0.4186147900000000    0.6339680500000000 S
   0.0185180400000000    0.6730084600000000    0.8124747000000000 S
   0.9814819600000000    0.1730084600000000    0.6875253000000000 S
   0.9814819600000000    0.3269915400000000    0.1875253000000000 S
   0.0185180400000000    0.8269915400000000    0.3124747000000000 S
   0.5508518900000000    0.1726482300000000    0.8558874000000000 S
   0.4491481100000000    0.6726482300000000    0.6441126000000000 S
   0.4491481100000000    0.8273517700000000    0.1441126000000000 S
   0.5508518900000000    0.3273517700000000    0.3558874000000000 S
