Na2 Nb4 Se4 O19
1.0
   3.9128479600000001   -0.0073746400000000   -0.0058082000000000
  -1.3115656499999999   10.2570128700000005   -0.0296443900000000
  -0.0271963700000000   -3.1427573700000000   10.6658091699999993
Na Nb Se O
2 4 4 19
direct
   0.7669490700000000    0.9329779600000000    0.8629438800000000 Na
   0.2330509300000000    0.0670220400000000    0.1370561200000000 Na
   0.3697005600000000    0.1873063500000000    0.7040381700000000 Nb
   0.6302994400000000    0.8126936500000000    0.2959618300000000 Nb
   0.5371018500000000    0.5575452500000000    0.6827300600000000 Nb
   0.4628981500000000    0.4424547500000000    0.3172699400000000 Nb
   0.3384034900000000    0.8264776400000000    0.5858212900000001 Se
   0.6615965100000000    0.1735223600000000    0.4141787100000000 Se
   0.2773705700000000    0.7209944700000001    0.9849056800000000 Se
   0.7226294300000000    0.2790055300000000    0.0150943200000000 Se
   0.6432662000000000    0.8774947800000000    0.4890693700000000 O
   0.3567338000000000    0.1225052200000000    0.5109306300000001 O
   0.3130855600000000    0.9769058100000000    0.6992074900000000 O
   0.6869144400000000    0.0230941900000000    0.3007925100000000 O
   0.6102191700000000    0.7646975000000000    0.6716901000000000 O
   0.3897808300000000    0.2353025000000000    0.3283099000000000 O
   0.5729214300000000    0.6556161600000000    0.8750984400000000 O
   0.4270785700000000    0.3443838400000000    0.1249015600000000 O
   0.5978314400000000    0.7731140700000000    0.1089669500000000 O
   0.4021685600000000    0.2268859300000000    0.8910330500000000 O
   0.2414339200000000    0.8714396000000000    0.9609111700000000 O
   0.7585660800000000    0.1285604000000000    0.0390888300000000 O
   0.8808344000000000    0.1744388600000000    0.7044076700000000 O
   0.1191656000000000    0.8255611400000000    0.2955923300000000 O
   0.4618361000000000    0.3748732200000000    0.7012516700000000 O
   0.5381639000000000    0.6251267800000000    0.2987483300000000 O
   0.5000000000000000    0.5000000000000000    0.5000000000000000 O
   0.0354357300000000    0.5800282800000000    0.6962096600000000 O
   0.9645642700000000    0.4199717200000000    0.3037903400000000 O
