Rb4 Cd4 Au4 S8
1.0
  13.6356406700000008    0.0000000000000000    0.0000000000000000
   0.0000000000000000    5.6126987000000002    0.0000000000000000
   0.0000000000000000   -0.0000000000000000    6.9167091300000001
Rb Cd Au S
4 4 4 8
direct
   0.0000000000000000    0.7137222100000000    0.7500000000000000 Rb
   0.5000000000000000    0.7137222100000000    0.2500000000000000 Rb
   0.5000000000000000    0.2862777900000000    0.7500000000000000 Rb
   0.0000000000000000    0.2862777900000000    0.2500000000000000 Rb
   0.7500000000000000    0.0000000000000000    0.6001514800000000 Cd
   0.7500000000000000    0.0000000000000000    0.1001514800000000 Cd
   0.2500000000000000    0.0000000000000000    0.8998485200000000 Cd
   0.2500000000000000    0.0000000000000000    0.3998485200000000 Cd
   0.7500000000000000    0.5000000000000000    0.3555249500000000 Au
   0.2500000000000000    0.5000000000000000    0.6444750500000000 Au
   0.7500000000000000    0.5000000000000000    0.8555249500000000 Au
   0.2500000000000000    0.5000000000000000    0.1444750500000000 Au
   0.8648835499999999    0.7988229999999999    0.3518273900000000 S
   0.3648835500000000    0.7988229999999999    0.6481726100000000 S
   0.6351164500000001    0.2011770000000000    0.3518273900000000 S
   0.6351164500000001    0.7988229999999999    0.8518273900000000 S
   0.3648835500000000    0.2011770000000000    0.1481726100000000 S
   0.1351164500000000    0.2011770000000000    0.6481726100000000 S
   0.1351164500000000    0.7988229999999999    0.1481726100000000 S
   0.8648835499999999    0.2011770000000000    0.8518273900000000 S
