Cd1 Ga2 S4
1.0
  -2.7541501099999999    2.7541500999999999    5.0855976600000004
   2.7541501099999999   -2.7541500999999999    5.0855976600000004
   2.7541500999999999    2.7541501099999999   -5.0855976600000004
Cd Ga S
1 2 4
direct
   0.0000000000000000    0.0000000000000000    0.0000000000000000 Cd
   0.2500000000000000    0.7500000000000000    0.5000000000000000 Ga
   0.5000000000000000    0.5000000000000000    0.0000000000000000 Ga
   0.8657937300000000    0.4033751700000000    0.9933245300000000 S
   0.4100516300000000    0.8724691999999999    0.0066754700000000 S
   0.1275308000000000    0.1342062700000000    0.5375824400000000 S
   0.5966248300000000    0.5899483700000000    0.4624175600000000 S
