Rb4 B4 Se12
1.0
   7.2411250999999996    0.0000000000000000   -0.0372668100000000
   0.0000000000000000   12.2993175400000005    0.0000000000000000
  -1.5645226600000000    0.0000000000000000    5.9720828099999999
Rb B Se
4 4 12
direct
   0.7411650000000000    0.0766132300000000    0.2928293100000000 Rb
   0.2588350000000000    0.5766132300000000    0.2071706900000000 Rb
   0.2588350000000000    0.9233867700000000    0.7071706900000000 Rb
   0.7411650000000000    0.4233867700000000    0.7928293100000000 Rb
   0.2946636100000000    0.2300413100000000    0.3101240700000000 B
   0.7053363900000000    0.7300413100000001    0.1898759300000000 B
   0.7053363900000000    0.7699586899999999    0.6898759300000000 B
   0.2946636100000000    0.2699586900000000    0.8101240700000000 B
   0.0516839300000000    0.1814104600000000    0.8140655500000000 Se
   0.9483160700000000    0.6814104600000001    0.6859344500000000 Se
   0.9483160700000000    0.8185895399999999    0.1859344500000000 Se
   0.0516839300000000    0.3185895400000000    0.3140655500000000 Se
   0.1955009600000000    0.4124184600000000    0.6538816900000000 Se
   0.8044990400000001    0.9124184600000000    0.8461183100000000 Se
   0.8044990400000001    0.5875815400000000    0.3461183100000000 Se
   0.1955009600000000    0.0875815400000000    0.1538816900000000 Se
   0.4571908900000000    0.1930759800000000    0.6247252500000000 Se
   0.5428091100000000    0.6930759800000000    0.8752747500000000 Se
   0.5428091100000000    0.8069240200000000    0.3752747500000000 Se
   0.4571908900000000    0.3069240200000000    0.1247252500000000 Se
