Na4 Mg2 Si2 O8
1.0
   5.2454617299999997    0.0000000000000000   -0.0001554900000000
   0.0000000000000000    5.5071637500000001    0.0000000000000000
  -5.2232575499999996    0.0000000000000000    6.9297677400000000
Na Mg Si O
4 2 2 8
direct
   0.7376909000000000    0.3333628600000000    0.2496920700000000 Na
   0.4855592300000000    0.1820674800000000    0.4941773900000000 Na
   0.7376909000000000    0.6666371400000000    0.7496920700000000 Na
   0.4855592300000000    0.8179325200000001    0.9941773900000000 Na
   0.0010586600000000    0.1841444500000000    0.0005172200000000 Mg
   0.0010586600000000    0.8158555500000000    0.5005172200000000 Mg
   0.2526678300000000    0.3142882300000000    0.7476294200000000 Si
   0.2526678300000000    0.6857117700000001    0.2476294200000000 Si
   0.3085976300000000    0.7922205100000000    0.4434116100000000 O
   0.3085976300000000    0.2077794900000000    0.9434116100000000 O
   0.9758855500000000    0.8421482600000000    0.0538683400000000 O
   0.9758855500000000    0.1578517400000000    0.5538683400000000 O
   0.5901177399999999    0.2899453100000000    0.7744119900000001 O
   0.1479034600000000    0.6031766100000000    0.7198419500000000 O
   0.1479034600000000    0.3968233900000000    0.2198419500000000 O
   0.5901177399999999    0.7100546900000000    0.2744119900000000 O
