Sr6 Li2 Ta2 O12
1.0
   4.8916329000000003    2.8241853600000000    3.7246593699999999
  -4.8916329000000003    2.8241853600000000    3.7246593699999999
   0.0000000000000000   -5.6483717000000002    3.7246593699999999
Sr Li Ta O
6 2 2 12
direct
   0.7500000000000000    0.3983571000000000    0.1016429000000000 Sr
   0.1016429000000000    0.7500000000000000    0.3983571000000000 Sr
   0.3983571000000000    0.1016429000000000    0.7500000000000000 Sr
   0.2500000000000000    0.6016429000000000    0.8983571000000000 Sr
   0.8983571000000000    0.2500000000000000    0.6016429000000000 Sr
   0.6016429000000000    0.8983571000000000    0.2500000000000000 Sr
   0.2500000000000000    0.2500000000000000    0.2500000000000000 Li
   0.7500000000000000    0.7500000000000000    0.7500000000000000 Li
   0.5000000000000000    0.5000000000000000    0.5000000000000000 Ta
   0.0000000000000000    0.0000000000000000    0.0000000000000000 Ta
   0.4205047100000000    0.5476987100000000    0.2176842100000000 O
   0.2176842100000000    0.4205047100000000    0.5476987100000000 O
   0.5476987100000000    0.2176842100000000    0.4205047100000000 O
   0.9205047100000000    0.7176842100000000    0.0476987100000000 O
   0.0476987100000000    0.9205047100000000    0.7176842100000000 O
   0.7176842100000000    0.0476987100000000    0.9205047100000000 O
   0.5794952900000000    0.4523012900000000    0.7823157900000000 O
   0.7823157900000000    0.5794952900000000    0.4523012900000000 O
   0.4523012900000000    0.7823157900000000    0.5794952900000000 O
   0.0794952900000000    0.2823157900000000    0.9523012900000000 O
   0.9523012900000000    0.0794952900000000    0.2823157900000000 O
   0.2823157900000000    0.9523012900000000    0.0794952900000000 O
