Nb8 Tl8 O24
1.0
   6.5774048599999997   -3.7997794499999999   -0.0123683200000000
   6.5774048599999997    3.7997794499999999   -0.0123683200000000
  -4.4175007400000004    0.0000000000000000   12.3881581500000006
Nb Tl O
8 8 24
direct
   0.9995848500000000    0.0009483200000000    0.0015630000000000 Nb
   0.9992796800000000    0.5011139999999999    0.0016356500000000 Nb
   0.4993714700000000    0.5016313999999999    0.0015519300000000 Nb
   0.7523164500000000    0.2488069700000000    0.7515098800000000 Nb
   0.5016313999999999    0.4993714700000000    0.5015519300000000 Nb
   0.5011139999999999    0.9992796800000000    0.5016356500000000 Nb
   0.0009483200000000    0.9995848500000000    0.5015630000000000 Nb
   0.2488069700000000    0.7523164500000000    0.2515098800000000 Nb
   0.2975420700000000    0.1908943100000000    0.7574178900000000 Tl
   0.2743935400000000    0.7489131500000000    0.7540991400000000 Tl
   0.8346799900000000    0.6955927900000000    0.7441143400000000 Tl
   0.0008726200000000    0.5000828700000000    0.4978694000000000 Tl
   0.7489131500000000    0.2743935400000000    0.2540991400000000 Tl
   0.1908943100000000    0.2975420700000000    0.2574178900000000 Tl
   0.5000828700000000    0.0008726200000000    0.9978694000000000 Tl
   0.6955927900000000    0.8346799900000000    0.2441143400000000 Tl
   0.2809415300000000    0.4097609000000000    0.9728417700000001 O
   0.9074960600000000    0.0342749600000000    0.8461879400000000 O
   0.9656192700000000    0.0925145700000000    0.6562298500000000 O
   0.9032453300000000    0.7803749500000000    0.9647228900000000 O
   0.5995674700000000    0.0875588000000000    0.6581382400000000 O
   0.2806525200000000    0.7818785600000000    0.9707485500000000 O
   0.7803749500000000    0.9032453300000000    0.4647228900000000 O
   0.5265844700000000    0.4049987500000000    0.8430458900000000 O
   0.9111518100000000    0.4022794400000000    0.8451047300000000 O
   0.2199000600000000    0.7179441100000000    0.5333569800000000 O
   0.5935855400000000    0.7179487700000000    0.5302991800000000 O
   0.5990451800000000    0.4727286900000000    0.6595680700000000 O
   0.4049987500000000    0.5265844700000000    0.3430458900000000 O
   0.4097609000000000    0.2809415300000000    0.4728417700000000 O
   0.0875588000000000    0.5995674700000000    0.1581382400000000 O
   0.4727286900000000    0.5990451800000000    0.1595680700000000 O
   0.7818785600000000    0.2806525200000000    0.4707485500000000 O
   0.2209474600000000    0.0951593500000000    0.5362126699999999 O
   0.7179441100000000    0.2199000600000000    0.0333569800000000 O
   0.0342749600000000    0.9074960600000000    0.3461879400000000 O
   0.4022794400000000    0.9111518100000000    0.3451047300000000 O
   0.0951593500000000    0.2209474600000000    0.0362126700000000 O
   0.0925145700000000    0.9656192700000000    0.1562298500000000 O
   0.7179487700000000    0.5935855400000000    0.0302991800000000 O
