Mg8 Si4 O16
1.0
  10.1926202000000004    0.0000000000000000    0.0000000000000000
   0.0000000000000000    5.9797040900000002    0.0000000000000000
   0.0000000000000000    0.0000000000000000    4.7629062700000002
Mg Si O
8 4 16
direct
   0.0000000000000000    0.5000000000000000    0.0000000000000000 Mg
   0.5000000000000000    0.0000000000000000    0.5000000000000000 Mg
   0.0000000000000000    0.0000000000000000    0.0000000000000000 Mg
   0.5000000000000000    0.5000000000000000    0.5000000000000000 Mg
   0.7767080000000000    0.7500000000000000    0.4914568200000000 Mg
   0.2767080000000000    0.7500000000000000    0.0085431800000000 Mg
   0.2232920000000000    0.2500000000000000    0.5085431800000000 Mg
   0.7232920000000000    0.2500000000000000    0.9914568200000000 Mg
   0.5938511800000000    0.7500000000000000    0.9267836500000000 Si
   0.0938511800000000    0.7500000000000000    0.5732163500000000 Si
   0.4061488200000000    0.2500000000000000    0.0732163500000000 Si
   0.9061488200000000    0.2500000000000000    0.4267836500000000 Si
   0.5917466000000000    0.7500000000000000    0.2683613900000000 O
   0.0917466000000000    0.7500000000000000    0.2316386100000000 O
   0.4082534000000000    0.2500000000000000    0.7316386100000000 O
   0.9082534000000000    0.2500000000000000    0.7683613900000000 O
   0.4458175300000000    0.7500000000000000    0.7777584000000000 O
   0.9458175300000000    0.7500000000000000    0.7222416000000000 O
   0.5541824700000000    0.2500000000000000    0.2222416000000000 O
   0.0541824700000000    0.2500000000000000    0.2777584000000000 O
   0.6634779000000000    0.5316867800000000    0.7756902500000000 O
   0.1634779000000000    0.9683132200000000    0.7243097500000000 O
   0.3365221000000000    0.0316867800000000    0.2243097500000000 O
   0.8365221000000000    0.4683132200000000    0.2756902500000000 O
   0.3365221000000000    0.4683132200000000    0.2243097500000000 O
   0.8365221000000000    0.0316867800000000    0.2756902500000000 O
   0.6634779000000000    0.9683132200000000    0.7756902500000000 O
   0.1634779000000000    0.5316867800000000    0.7243097500000000 O
