Cd1 Se1
1.0
   0.0000000000000000    3.0401280000000002    3.0401280000000002
   3.0401280000000002    0.0000000000000000    3.0401280000000002
   3.0401280000000002    3.0401280000000002    0.0000000000000000
Cd Se
1 1
direct
   0.0000000000000000    0.0000000000000000    0.0000000000000000 Cd
   0.2500000000000000    0.2500000000000000    0.2500000000000000 Se
