Sr6 Mg2 Si4 O16
1.0
   4.7158183700000000   -2.7248958999999999    0.0015227900000000
   4.7158183700000000    2.7248958999999999    0.0015227900000000
  -0.2193149900000000    0.0000000000000000   13.8546270800000002
Sr Mg Si O
6 2 4 16
direct
   0.9421289800000000    0.0578710200000000    0.7500000000000000 Sr
   0.0578710200000000    0.9421289800000000    0.2500000000000000 Sr
   0.6903142700000000    0.6559022000000000    0.0873823500000000 Sr
   0.3440978000000000    0.3096857300000000    0.4126176500000000 Sr
   0.3096857300000000    0.3440978000000000    0.9126176499999999 Sr
   0.6559022000000000    0.6903142700000000    0.5873823500000001 Sr
   0.0000000000000000    0.0000000000000000    0.0000000000000000 Mg
   0.0000000000000000    0.0000000000000000    0.5000000000000000 Mg
   0.6470123400000000    0.6725065800000000    0.8648175500000000 Si
   0.3274934200000000    0.3529876600000000    0.6351824500000000 Si
   0.3529876600000000    0.3274934200000000    0.1351824500000000 Si
   0.6725065800000000    0.6470123400000000    0.3648175500000000 Si
   0.7820930400000000    0.3680038100000000    0.9237413600000000 O
   0.6319961900000000    0.2179069600000000    0.5762586400000000 O
   0.1502438800000000    0.2176621400000000    0.5806246800000000 O
   0.7823378600000001    0.8497561200000000    0.9193753200000000 O
   0.7488146100000000    0.5953088200000000    0.7542048200000000 O
   0.4046911800000000    0.2511853900000000    0.7457951800000000 O
   0.2176621400000000    0.1502438800000000    0.0806246800000000 O
   0.8497561200000000    0.7823378600000001    0.4193753200000000 O
   0.2511853900000000    0.4046911800000000    0.2457951800000000 O
   0.5953088200000000    0.7488146100000000    0.2542048200000000 O
   0.6962360500000000    0.1559879500000000    0.1147894800000000 O
   0.8440120500000000    0.3037639500000000    0.3852105200000000 O
   0.2179069600000000    0.6319961900000000    0.0762586400000000 O
   0.3680038100000000    0.7820930400000000    0.4237413600000000 O
   0.3037639500000000    0.8440120500000000    0.8852105200000000 O
   0.1559879500000000    0.6962360500000000    0.6147894800000000 O
