Na8 Sn2 Se8
1.0
   8.1066722400000000    0.0000000000000000    0.0000000000000000
   0.0000000000000000    8.1066722400000000    0.0000000000000000
   0.0000000000000000    0.0000000000000000    7.2288069100000003
Na Sn Se
8 2 8
direct
   0.1966013000000000    0.4054866800000000    0.0283745100000000 Na
   0.5945133200000000    0.1966013000000000    0.9716254900000000 Na
   0.4054866800000000    0.8033987000000000    0.9716254900000000 Na
   0.8033987000000000    0.5945133200000000    0.0283745100000000 Na
   0.6966013000000000    0.0945133200000000    0.4716254900000000 Na
   0.3033987000000000    0.9054866800000000    0.4716254900000000 Na
   0.9054866800000000    0.6966013000000000    0.5283745100000000 Na
   0.0945133200000000    0.3033987000000000    0.5283745100000000 Na
   0.0000000000000000    0.0000000000000000    0.0000000000000000 Sn
   0.5000000000000000    0.5000000000000000    0.5000000000000000 Sn
   0.2549019400000000    0.5967806000000000    0.6922967600000000 Se
   0.7450980600000000    0.4032194000000000    0.6922967600000000 Se
   0.0967806000000000    0.7549019400000000    0.1922967600000000 Se
   0.2450980600000000    0.0967806000000000    0.8077032400000000 Se
   0.7549019400000000    0.9032194000000000    0.8077032400000000 Se
   0.9032194000000000    0.2450980600000000    0.1922967600000000 Se
   0.5967806000000000    0.7450980600000000    0.3077032400000000 Se
   0.4032194000000000    0.2549019400000000    0.3077032400000000 Se
