Ba4 Li2 B10 O20
1.0
   4.4271416400000003    0.0000000000000000    0.0104371400000000
   0.0000000000000000   14.6107965199999992    0.0000000000000000
  -1.6353042099999999    0.0000000000000000    6.4735996900000004
Ba Li B O
4 2 10 20
direct
   0.3332151300000000    0.9120735000000000    0.1965739300000000 Ba
   0.6667848700000000    0.4120735000000000    0.8034260700000000 Ba
   0.6667848700000000    0.0879265000000000    0.8034260700000000 Ba
   0.3332151300000000    0.5879265000000000    0.1965739300000000 Ba
   0.9912886000000000    0.7500000000000000    0.4766257500000000 Li
   0.0087114000000000    0.2500000000000000    0.5233742500000000 Li
   0.4389443700000000    0.1635842700000000    0.3233432400000000 B
   0.5610556300000000    0.6635842700000000    0.6766567600000000 B
   0.5610556300000000    0.8364157300000000    0.6766567600000000 B
   0.4389443700000000    0.3364157300000000    0.3233432400000000 B
   0.7739478100000000    0.7500000000000000    0.0035353700000000 B
   0.2260521900000000    0.2500000000000000    0.9964646300000000 B
   0.0490679600000000    0.9206900700000000    0.6780703600000000 B
   0.9509320400000000    0.4206900700000000    0.3219296400000000 B
   0.9509320400000000    0.0793099300000000    0.3219296400000000 B
   0.0490679600000000    0.5793099300000000    0.6780703600000000 B
   0.7226347000000000    0.9134349000000000    0.6019784800000000 O
   0.2773653000000000    0.4134349000000000    0.3980215200000000 O
   0.2773653000000000    0.0865651000000000    0.3980215200000000 O
   0.7226347000000000    0.5865651000000000    0.6019784800000000 O
   0.6241813000000000    0.7500000000000000    0.5830108100000000 O
   0.3758187000000000    0.2500000000000000    0.4169891900000000 O
   0.9670553700000000    0.7500000000000000    0.1933449800000000 O
   0.0329446300000000    0.2500000000000000    0.8066550200000000 O
   0.1710811500000000    0.5124541300000000    0.8108466300000000 O
   0.8289188500000000    0.0124541300000000    0.1891533700000000 O
   0.8289188500000000    0.4875458700000000    0.1891533700000000 O
   0.1710811500000000    0.9875458700000000    0.8108466300000000 O
   0.2218088900000000    0.6453123500000000    0.6053434800000000 O
   0.7781911100000000    0.1453123500000000    0.3946565200000000 O
   0.7781911100000000    0.3546876500000000    0.3946565200000000 O
   0.2218088900000000    0.8546876500000000    0.6053434800000000 O
   0.6689057600000000    0.6675621800000000    0.9047924100000000 O
   0.3310942400000000    0.1675621800000000    0.0952075900000000 O
   0.3310942400000000    0.3324378200000000    0.0952075900000000 O
   0.6689057600000000    0.8324378200000000    0.9047924100000000 O
