Ba1 Be2 P2 O8
1.0
   5.0666063299999999    0.0000000000000000    0.0000000000000000
  -2.5333036600000001    4.3878101999999997    0.0000000000000000
   0.0000000000000000    0.0000000000000000    7.4204704200000000
Ba Be P O
1 2 2 8
direct
   0.0000000000000000    0.0000000000000000    0.0000000000000000 Ba
   0.6666670000000000    0.3333330000000000    0.2973138500000000 Be
   0.3333330000000000    0.6666670000000000    0.7026861500000000 Be
   0.3333330000000000    0.6666670000000000    0.2895517500000000 P
   0.6666670000000000    0.3333330000000000    0.7104482500000000 P
   0.6666670000000000    0.3333330000000000    0.5080761000000000 O
   0.3333330000000000    0.6666670000000000    0.4919239000000000 O
   0.4964369300000000    0.9928748700000000    0.2089759800000000 O
   0.0071251300000000    0.5035630700000000    0.2089759800000000 O
   0.4964369300000000    0.5035630700000000    0.2089759800000000 O
   0.5035630700000000    0.0071251300000000    0.7910240200000000 O
   0.9928748700000000    0.4964369300000000    0.7910240200000000 O
   0.5035630700000000    0.4964369300000000    0.7910240200000000 O
