Li2 Sb2 Mo4 O16
1.0
  10.8689719300000007   -2.4561288200000000    0.0059422000000000
  10.8689719300000007    2.4561288200000000    0.0059422000000000
  -0.9942294699999999    0.0000000000000000    5.4418796199999999
Li Sb Mo O
2 2 4 16
direct
   0.5000000000000000    0.0000000000000000    0.5000000000000000 Li
   0.0000000000000000    0.5000000000000000    0.0000000000000000 Li
   0.6976353900000000    0.3023646100000000    0.7500000000000000 Sb
   0.3023646100000000    0.6976353900000000    0.2500000000000000 Sb
   0.1087870700000000    0.6157995300000000    0.7246484300000000 Mo
   0.3842004700000000    0.8912129300000000    0.7753515700000000 Mo
   0.8912129300000000    0.3842004700000000    0.2753515700000000 Mo
   0.6157995300000000    0.1087870700000000    0.2246484300000000 Mo
   0.3853548700000000    0.2927195900000000    0.5401836200000000 O
   0.7072804100000000    0.6146451300000000    0.9598163800000000 O
   0.6146451300000000    0.7072804100000000    0.4598163800000000 O
   0.2927195900000000    0.3853548700000000    0.0401836200000000 O
   0.8760188600000000    0.7037048100000000    0.7168662900000000 O
   0.2962951900000000    0.1239811400000000    0.7831337100000000 O
   0.1239811400000000    0.2962951900000000    0.2831337100000000 O
   0.7037048100000000    0.8760188600000000    0.2168662900000000 O
   0.0618065200000000    0.1436014400000000    0.4862742400000000 O
   0.8563985600000000    0.9381934800000000    0.0137257600000000 O
   0.9381934800000000    0.8563985600000000    0.5137257600000000 O
   0.1436014400000000    0.0618065200000000    0.9862742400000000 O
   0.4621418300000000    0.6420688900000000    0.6161441100000000 O
   0.3579311100000000    0.5378581700000000    0.8838558900000000 O
   0.5378581700000000    0.3579311100000000    0.3838558900000000 O
   0.6420688900000000    0.4621418300000000    0.1161441100000000 O
