Sr8 Li4 Ta4 Al4 N16 O2
1.0
   6.0124610699999996    0.0000000000000000    0.0348516300000000
   0.0000000000000000   10.0064349900000007    0.0000000000000000
  -5.4143268999999998    0.0000000000000000    9.2774741600000006
Sr Li Ta Al N O
8 4 4 4 16 2
direct
   0.5674284200000000    0.7592637700000000    0.0741921900000000 Sr
   0.5674284200000000    0.7407362300000000    0.5741921900000000 Sr
   0.4325715800000000    0.2407362300000000    0.9258078100000000 Sr
   0.4325715800000000    0.2592637700000000    0.4258078100000000 Sr
   0.2328773000000000    0.9350793700000000    0.7003125000000000 Sr
   0.2328773000000000    0.5649206300000000    0.2003125000000000 Sr
   0.7671227000000000    0.0649206300000000    0.2996875000000000 Sr
   0.7671227000000000    0.4350793700000000    0.7996875000000000 Sr
   0.1910035000000000    0.0121680000000000    0.9951999800000000 Li
   0.1910035000000000    0.4878320000000000    0.4951999800000000 Li
   0.8089965000000000    0.9878320000000000    0.0048000200000000 Li
   0.8089965000000000    0.5121680000000000    0.5048000200000000 Li
   0.2277284000000000    0.5973564700000000    0.7639563500000000 Ta
   0.2277284000000000    0.9026435300000000    0.2639563500000000 Ta
   0.7722715999999999    0.4026435300000000    0.2360436500000000 Ta
   0.7722715999999999    0.0973564700000000    0.7360436500000000 Ta
   0.8889366300000000    0.7527784600000000    0.9055746900000000 Al
   0.8889366300000000    0.7472215400000000    0.4055746900000000 Al
   0.1110633700000000    0.2472215400000000    0.0944253100000000 Al
   0.1110633700000000    0.2527784600000000    0.5944253100000000 Al
   0.1248526600000000    0.6292923400000000    0.9089417900000000 N
   0.1248526600000000    0.8707076600000000    0.4089417900000000 N
   0.8751473400000001    0.3707076600000000    0.0910582100000000 N
   0.8751473400000001    0.1292923400000000    0.5910582100000000 N
   0.5712447600000000    0.6664648600000000    0.8307791300000000 N
   0.5712447600000000    0.8335351400000000    0.3307791300000000 N
   0.4287552400000000    0.3335351400000000    0.1692208700000000 N
   0.4287552400000000    0.1664648600000000    0.6692208700000000 N
   0.0004067700000000    0.8033121900000000    0.0930270800000000 N
   0.0004067700000000    0.6966878100000000    0.5930270800000000 N
   0.9995932300000000    0.1966878100000000    0.9069729200000000 N
   0.9995932300000000    0.3033121900000000    0.4069729200000000 N
   0.8234034800000000    0.9109991400000000    0.7979481700000000 N
   0.8234034800000000    0.5890008600000000    0.2979481700000000 N
   0.1765965200000000    0.0890008600000000    0.2020518300000000 N
   0.1765965200000000    0.4109991400000000    0.7020518300000000 N
   0.5000000000000000    0.0000000000000000    0.0000000000000000 O
   0.5000000000000000    0.5000000000000000    0.5000000000000000 O
