Rb2 V6 O16
1.0
   4.9888226099999997    0.0000000000000000    0.0020398700000000
   0.0000000000000000    8.4499249899999995    0.0000000000000000
  -0.9727908300000000    0.0000000000000000    7.8092385899999996
Rb V O
2 6 16
direct
   0.0614475300000000    0.2500000000000000    0.9281188200000000 Rb
   0.9385524700000000    0.7500000000000000    0.0718811800000000 Rb
   0.4402014000000000    0.5549418400000000    0.6788826100000001 V
   0.5597986000000000    0.0549418400000000    0.3211173900000000 V
   0.5597986000000000    0.4450581600000000    0.3211173900000000 V
   0.4402014000000000    0.9450581600000000    0.6788826100000001 V
   0.0691963700000000    0.2500000000000000    0.4142066600000000 V
   0.9308036300000000    0.7500000000000000    0.5857933400000001 V
   0.1139875300000000    0.5987093000000000    0.7355164800000000 O
   0.8860124700000001    0.0987093000000000    0.2644835200000000 O
   0.8860124700000001    0.4012907000000000    0.2644835200000000 O
   0.1139875300000000    0.9012907000000000    0.7355164800000000 O
   0.4259984900000000    0.5640098200000000    0.1734843700000000 O
   0.5740015100000000    0.0640098200000000    0.8265156299999999 O
   0.5740015100000000    0.4359901800000000    0.8265156299999999 O
   0.4259984900000000    0.9359901800000000    0.1734843700000000 O
   0.1336573300000000    0.7500000000000000    0.4391795700000000 O
   0.8663426700000000    0.2500000000000000    0.5608204300000000 O
   0.5898241400000001    0.7500000000000000    0.7533358999999999 O
   0.4101758600000000    0.2500000000000000    0.2466641000000000 O
   0.6866900800000000    0.9125700800000000    0.5048795600000000 O
   0.3133099200000000    0.4125700800000000    0.4951204400000000 O
   0.3133099200000000    0.0874299200000000    0.4951204400000000 O
   0.6866900800000000    0.5874299200000000    0.5048795600000000 O
