Cs2 Hg1 O2
1.0
  -2.1941848099999999    2.1941848099999999    7.2108363899999999
   2.1941848099999999   -2.1941848099999999    7.2108363899999999
   2.1941848099999999    2.1941848099999999   -7.2108363899999999
Cs Hg O
2 1 2
direct
   0.6647404600000000    0.6647404600000000    0.0000000000000000 Cs
   0.3352595400000000    0.3352595400000000    0.0000000000000000 Cs
   0.0000000000000000    0.0000000000000000    0.0000000000000000 Hg
   0.8628131800000000    0.8628131800000000    0.0000000000000000 O
   0.1371868200000000    0.1371868200000000    0.0000000000000000 O
