Ba3 Zn6 Si4 Te1 O20
1.0
   7.9331176799999996   -5.6891216299999998    0.0120453900000000
   7.9331176799999996    5.6891216299999998    0.0120453900000000
  -1.5115817400000000    0.0000000000000000    4.8819864099999997
Ba Zn Si Te O
3 6 4 1 20
direct
   0.2134413300000000    0.2134413300000000    0.7512143200000000 Ba
   0.7865586700000000    0.7865586700000000    0.2487856800000000 Ba
   0.5000000000000000    0.5000000000000000    0.0000000000000000 Ba
   0.8470724600000000    0.1529275400000000    0.5000000000000000 Zn
   0.1529275400000000    0.8470724600000000    0.5000000000000000 Zn
   0.6378808500000001    0.0770169900000000    0.8271205700000001 Zn
   0.9229830100000000    0.3621191500000000    0.1728794300000000 Zn
   0.3621191500000000    0.9229830100000000    0.1728794300000000 Zn
   0.0770169900000000    0.6378808500000001    0.8271205700000001 Zn
   0.4830022400000000    0.2169924400000000    0.3406469400000000 Si
   0.7830075600000000    0.5169977600000000    0.6593530600000000 Si
   0.5169977600000000    0.7830075600000000    0.6593530600000000 Si
   0.2169924400000000    0.4830022400000000    0.3406469400000000 Si
   0.0000000000000000    0.0000000000000000    0.0000000000000000 Te
   0.3830774400000000    0.1122762600000000    0.3373548300000000 O
   0.8877237400000000    0.6169225600000000    0.6626451700000000 O
   0.6169225600000000    0.8877237400000000    0.6626451700000000 O
   0.1122762600000000    0.3830774400000000    0.3373548300000000 O
   0.6399434300000000    0.1808414400000000    0.5516873799999999 O
   0.8191585600000000    0.3600565700000000    0.4483126200000000 O
   0.3600565700000000    0.8191585600000000    0.4483126200000000 O
   0.1808414400000000    0.6399434300000000    0.5516873799999999 O
   0.4968101100000000    0.2212564000000000    0.0305328100000000 O
   0.7787436000000000    0.5031898900000000    0.9694671900000000 O
   0.5031898900000000    0.7787436000000000    0.9694671900000000 O
   0.2212564000000000    0.4968101100000000    0.0305328100000000 O
   0.0688986800000000    0.0688986800000000    0.3734318000000000 O
   0.9311013200000000    0.9311013200000000    0.6265682000000000 O
   0.8083378200000000    0.0483636300000000    0.1069097500000000 O
   0.9516363700000000    0.1916621800000000    0.8930902500000000 O
   0.1916621800000000    0.9516363700000000    0.8930902500000000 O
   0.0483636300000000    0.8083378200000000    0.1069097500000000 O
   0.3905973300000000    0.3905973300000000    0.4653716500000000 O
   0.6094026700000000    0.6094026700000000    0.5346283500000000 O
