Tl4 Ag4 S4
1.0
   8.0332793299999992    0.0000000000000000    0.0000000000000000
   0.0000000000000000    4.4101935399999999    0.0000000000000000
   0.0000000000000000    0.0000000000000000    7.1687734399999998
Tl Ag S
4 4 4
direct
   0.9955555800000000    0.7500000000000000    0.1776356100000000 Tl
   0.0044444200000000    0.2500000000000000    0.8223643899999999 Tl
   0.4955555800000000    0.7500000000000000    0.3223643900000000 Tl
   0.5044444200000000    0.2500000000000000    0.6776356100000001 Tl
   0.6725984100000000    0.2500000000000000    0.0850885500000000 Ag
   0.3274015900000000    0.7500000000000000    0.9149114500000000 Ag
   0.1725984100000000    0.2500000000000000    0.4149114500000000 Ag
   0.8274015900000000    0.7500000000000000    0.5850885500000000 Ag
   0.1801080500000000    0.7500000000000000    0.6022342000000001 S
   0.8198919500000000    0.2500000000000000    0.3977658000000000 S
   0.6801080500000000    0.7500000000000000    0.8977657999999999 S
   0.3198919500000000    0.2500000000000000    0.1022342000000000 S
