Ge4 Pb4 S12
1.0
   7.2019218100000000    0.0000000000000000   -0.0389238800000000
   0.0000000000000000   10.2911535799999996    0.0000000000000000
  -1.7662940499999999    0.0000000000000000    6.6141760500000002
Ge Pb S
4 4 12
direct
   0.1778052100000000    0.2038975900000000    0.5071604199999999 Ge
   0.8221947900000000    0.7038975900000000    0.9928395800000001 Ge
   0.8221947900000000    0.7961024100000000    0.4928395800000000 Ge
   0.1778052100000000    0.2961024100000000    0.0071604200000000 Ge
   0.3616484900000000    0.9147425300000001    0.2225040500000000 Pb
   0.6383515100000000    0.4147425300000000    0.2774959500000000 Pb
   0.6383515100000000    0.0852574700000000    0.7774959500000000 Pb
   0.3616484900000000    0.5852574699999999    0.7225040500000000 Pb
   0.2692086500000000    0.0018505100000000    0.5885202100000000 S
   0.7307913500000000    0.5018505100000000    0.9114797900000000 S
   0.7307913500000000    0.9981494900000000    0.4114797900000000 S
   0.2692086500000000    0.4981494900000000    0.0885202100000000 S
   0.4423573200000000    0.3231220700000000    0.5862325400000000 S
   0.5576426799999999    0.8231220700000000    0.9137674600000000 S
   0.5576426799999999    0.6768779300000000    0.4137674600000000 S
   0.4423573200000000    0.1768779300000000    0.0862325400000000 S
   0.9792129500000000    0.2163659100000000    0.1875154800000000 S
   0.0207870500000000    0.7163659100000001    0.3124845200000000 S
   0.0207870500000000    0.7836340899999999    0.8124845200000000 S
   0.9792129500000000    0.2836340900000000    0.6875154800000000 S
