Ca4 Mg4 Si4 O16
1.0
  11.0632710500000009    0.0000000000000000    0.0000000000000000
   0.0000000000000000    6.3479513499999998    0.0000000000000000
   0.0000000000000000    0.0000000000000000    4.8210215300000003
Ca Mg Si O
4 4 4 16
direct
   0.7237664100000000    0.7500000000000000    0.0201817900000000 Ca
   0.2762335900000000    0.2500000000000000    0.9798182100000000 Ca
   0.2237664100000000    0.7500000000000000    0.4798182100000000 Ca
   0.7762335900000000    0.2500000000000000    0.5201817900000000 Ca
   0.0000000000000000    0.0000000000000000    0.0000000000000000 Mg
   0.0000000000000000    0.5000000000000000    0.0000000000000000 Mg
   0.5000000000000000    0.0000000000000000    0.5000000000000000 Mg
   0.5000000000000000    0.5000000000000000    0.5000000000000000 Mg
   0.5809631700000000    0.2500000000000000    0.0871602600000000 Si
   0.0809631700000000    0.2500000000000000    0.4128397400000000 Si
   0.4190368300000000    0.7500000000000000    0.9128397400000000 Si
   0.9190368300000000    0.7500000000000000    0.5871602600000000 Si
   0.6478301300000000    0.4568490700000000    0.2273861000000000 O
   0.8521698700000000    0.5431509300000000    0.7273861000000000 O
   0.3521698700000000    0.9568490700000000    0.7726139000000000 O
   0.1478301300000000    0.0431509300000000    0.2726139000000000 O
   0.3521698700000000    0.5431509300000000    0.7726139000000000 O
   0.1478301300000000    0.4568490700000000    0.2726139000000000 O
   0.6478301300000000    0.0431509300000000    0.2273861000000000 O
   0.8521698700000000    0.9568490700000000    0.7273861000000000 O
   0.0526770800000000    0.7500000000000000    0.7468888900000000 O
   0.4473229200000000    0.2500000000000000    0.2468888900000000 O
   0.9473229200000000    0.2500000000000000    0.2531111100000000 O
   0.5526770800000000    0.7500000000000000    0.7531111100000000 O
   0.9224988500000000    0.7500000000000000    0.2492878100000000 O
   0.5775011500000000    0.2500000000000000    0.7492878100000000 O
   0.0775011500000000    0.2500000000000000    0.7507121900000000 O
   0.4224988500000000    0.7500000000000000    0.2507121900000000 O
