Na2 Li4 As2 O8
1.0
   6.9465381700000002    0.0000000000000000    0.0000000000000000
   0.0000000000000000    5.2470369999999997    0.0000000000000000
   0.0000000000000000    0.0000000000000000    5.0531183000000004
Na Li As O
2 4 2 8
direct
   0.0000000000000000    0.7971538100000000    0.5217242000000000 Na
   0.5000000000000000    0.2028461900000000    0.0217242000000000 Na
   0.7494036600000000    0.3226856200000000    0.5083690500000000 Li
   0.2494036600000000    0.6773143800000000    0.0083690500000000 Li
   0.2505963400000000    0.3226856200000000    0.5083690500000000 Li
   0.7505963400000000    0.6773143800000000    0.0083690500000000 Li
   0.5000000000000000    0.8119699100000000    0.4990856700000000 As
   0.0000000000000000    0.1880300900000000    0.9990856700000000 As
   0.0000000000000000    0.8664431900000000    0.0670021100000000 O
   0.0000000000000000    0.2253184600000000    0.6609419100000000 O
   0.5000000000000000    0.1335568100000000    0.5670021100000000 O
   0.5000000000000000    0.7746815400000000    0.1609419100000000 O
   0.7982818600000000    0.3284067800000000    0.1273040100000000 O
   0.7017181400000000    0.6715932200000000    0.6273040100000000 O
   0.2982818600000000    0.6715932200000000    0.6273040100000000 O
   0.2017181400000000    0.3284067800000000    0.1273040100000000 O
