Sb4 W2 O12
1.0
   5.5229002600000001    0.0000000000000000    0.0216379200000000
   0.0000000000000000    4.9456175099999999    0.0000000000000000
  -0.8684784600000000    0.0000000000000000    9.1415272099999996
Sb W O
4 2 12
direct
   0.6039741000000000    0.9574727400000000    0.1672581000000000 Sb
   0.1058785300000000    0.5456152800000000    0.1656200100000000 Sb
   0.3960259000000000    0.4574727400000000    0.8327419000000000 Sb
   0.8941214700000000    0.0456152800000000    0.8343799900000000 Sb
   0.7537753100000000    0.5258877700000000    0.5057092500000000 W
   0.2462246900000000    0.0258877700000000    0.4942907500000000 W
   0.4724932600000000    0.2734134500000000    0.4414185300000000 O
   0.9696091800000000    0.2295840400000000    0.4403492400000000 O
   0.0303908200000000    0.7295840400000000    0.5596507600000000 O
   0.5275067400000000    0.7734134499999999    0.5585814700000000 O
   0.7578237000000000    0.3528109200000000    0.6900149500000000 O
   0.7390056100000000    0.6455761500000000    0.3096289700000000 O
   0.2609943900000000    0.1455761500000000    0.6903710300000000 O
   0.2421763000000000    0.8528109200000000    0.3099850500000000 O
   0.3911592700000000    0.6816407799999999    0.0583739700000000 O
   0.8929708200000001    0.8269098700000000    0.0620416600000000 O
   0.6088407300000001    0.1816407800000000    0.9416260300000000 O
   0.1070291800000000    0.3269098700000000    0.9379583400000000 O
