Sr1 Se1
1.0
   0.0000000000000000    3.1021027000000001    3.1021027000000001
   3.1021027000000001    0.0000000000000000    3.1021027000000001
   3.1021027000000001    3.1021027000000001    0.0000000000000000
Sr Se
1 1
direct
   0.0000000000000000    0.0000000000000000    0.0000000000000000 Sr
   0.5000000000000000    0.5000000000000000    0.5000000000000000 Se
