Zn1 Ga2 Se4
1.0
  -2.7438828100000001    2.7438830300000001    5.4195303900000003
   2.7438828100000001   -2.7438830300000001    5.4195303900000003
   2.7438830300000001    2.7438828100000001   -5.4195303900000003
Zn Ga Se
1 2 4
direct
   0.0000000000000000    0.0000000000000000    0.0000000000000000 Zn
   0.5000000000000000    0.5000000000000000    0.0000000000000000 Ga
   0.2500000000000000    0.7500000000000000    0.5000000000000000 Ga
   0.4021950700000000    0.8996081600000000    0.0336177900000000 Se
   0.1003918400000000    0.1340096300000000    0.5025869100000000 Se
   0.6314227200000000    0.5978049300000000    0.4974130900000000 Se
   0.8659903700000000    0.3685772800000000    0.9663822100000000 Se
