Na4 Se4
1.0
   4.6357941599999997    0.0000000100000000    0.0000000000000000
  -2.3178975600000000    4.0147154900000004    0.0000000000000000
   0.0000000000000000    0.0000000000000000   10.4982202800000000
Na Se
4 4
direct
   0.0000000000000000    0.0000000000000000    0.5000000000000000 Na
   0.0000000000000000    0.0000000000000000    0.0000000000000000 Na
   0.6666670000000000    0.3333330000000000    0.7500000000000000 Na
   0.3333330000000000    0.6666670000000000    0.2500000000000000 Na
   0.6666670000000000    0.3333330000000000    0.1330596800000000 Se
   0.3333330000000000    0.6666670000000000    0.6330596800000000 Se
   0.3333330000000000    0.6666670000000000    0.8669403200000000 Se
   0.6666670000000000    0.3333330000000000    0.3669403200000000 Se
