Cs4 Cu4 Sb4 S10
1.0
   7.3234256599999998    0.0320595200000000    0.0207641900000000
  -1.8279690700000000    8.2087443600000007   -0.0019614000000000
  -0.2622216700000000   -0.3682846000000000    9.7880095499999999
Cs Cu Sb S
4 4 4 10
direct
   0.7312190400000000    0.8114837000000000    0.9020143400000000 Cs
   0.2687809600000000    0.1885163000000000    0.0979856600000000 Cs
   0.2644696000000000    0.0587152000000000    0.6102730700000000 Cs
   0.7355304000000000    0.9412848000000000    0.3897269300000000 Cs
   0.5994331500000000    0.4984816700000000    0.6135004500000000 Cu
   0.4005668500000000    0.5015183300000000    0.3864995500000000 Cu
   0.8779879600000000    0.3631398900000000    0.5651100400000000 Cu
   0.1220120400000000    0.6368601100000000    0.4348899600000000 Cu
   0.7975601000000000    0.3624316000000000    0.8813195400000000 Sb
   0.2024399000000000    0.6375684000000000    0.1186804600000000 Sb
   0.8155105100000000    0.4275764500000000    0.2590645900000000 Sb
   0.1844894900000000    0.5724235500000000    0.7409354100000000 Sb
   0.9166258800000000    0.6515520200000000    0.6159973399999999 S
   0.0833741200000000    0.3484479800000000    0.3840026600000000 S
   0.8564144299999999    0.1631570200000000    0.7175194499999999 S
   0.1435855700000000    0.8368429800000000    0.2824805500000000 S
   0.4849269000000000    0.3861761500000000    0.8136662300000000 S
   0.5150731000000000    0.6138238499999999    0.1863337700000000 S
   0.7484075200000000    0.1883811700000000    0.0880523500000000 S
   0.2515924800000000    0.8116188300000000    0.9119476500000000 S
   0.5827985800000000    0.3083988200000000    0.4255986900000000 S
   0.4172014200000000    0.6916011800000000    0.5744013100000001 S
