Ba3 Sr1 Ta2 O9
1.0
   5.9650283599999998   -0.0000000000000000    0.0000000000000000
  -2.9825141799999999    5.1658659000000000    0.0000000000000000
   0.0000000000000000    0.0000000000000000    7.5117042100000004
Ba Sr Ta O
3 1 2 9
direct
   0.3333330000000000    0.6666670000000000    0.6783125100000000 Ba
   0.0000000000000000    0.0000000000000000    0.0000000000000000 Ba
   0.6666670000000000    0.3333330000000000    0.3216874900000000 Ba
   0.0000000000000000    0.0000000000000000    0.5000000000000000 Sr
   0.3333330000000000    0.6666670000000000    0.1618673000000000 Ta
   0.6666670000000000    0.3333330000000000    0.8381327000000000 Ta
   0.5000000000000000    0.5000000000000000    0.0000000000000000 O
   0.0000000000000000    0.5000000000000000    0.0000000000000000 O
   0.5000000000000000    0.0000000000000000    0.0000000000000000 O
   0.8219213500000000    0.1780786500000000    0.6970607400000000 O
   0.8219213500000000    0.6438417000000000    0.6970607400000000 O
   0.3561583000000000    0.1780786500000000    0.6970607400000000 O
   0.1780786500000000    0.8219213500000000    0.3029392600000000 O
   0.1780786500000000    0.3561583000000000    0.3029392600000000 O
   0.6438417000000000    0.8219213500000000    0.3029392600000000 O
