Bi4 Te4 O16
1.0
   6.3995985099999997   -2.7955336499999999    0.0102664900000000
   6.3995985099999997    2.7955336499999999    0.0102664900000000
  -4.3941851900000000    0.0000000000000000    9.2946691000000001
Bi Te O
4 4 16
direct
   0.6806187900000000    0.7730470400000000    0.8443241300000000 Bi
   0.0452720800000000    0.9561696800000000    0.2557981200000000 Bi
   0.9561696800000000    0.0452720800000000    0.7557981200000000 Bi
   0.7730470400000000    0.6806187900000000    0.3443241300000000 Bi
   0.1902125200000000    0.3532403800000000    0.6195241800000000 Te
   0.4930378200000000    0.5079170000000000    0.4962796000000000 Te
   0.3532403800000000    0.1902125200000000    0.1195241800000000 Te
   0.5079170000000000    0.4930378200000000    0.9962796000000000 Te
   0.6513803200000000    0.1452029200000000    0.8780821000000000 O
   0.0867413500000000    0.2814640800000000    0.4097035000000000 O
   0.8007858200000000    0.3491455400000000    0.1562934100000000 O
   0.4802429500000000    0.7239815400000000    0.4146779500000000 O
   0.8434220000000000    0.3646501500000000    0.6191813900000001 O
   0.2814640800000000    0.0867413500000000    0.9097035000000000 O
   0.2994703500000000    0.4893141200000000    0.0845872800000000 O
   0.3491455400000000    0.8007858200000000    0.6562934100000000 O
   0.6438818300000000    0.2022477900000000    0.3433892300000000 O
   0.7239815400000000    0.4802429500000000    0.9146779500000000 O
   0.7151606100000000    0.9142313300000000    0.0965571100000000 O
   0.1452029200000000    0.6513803200000000    0.3780821000000000 O
   0.4893141200000000    0.2994703500000000    0.5845872800000000 O
   0.2022477900000000    0.6438818300000000    0.8433892300000000 O
   0.9142313300000000    0.7151606100000000    0.5965571100000000 O
   0.3646501500000000    0.8434220000000000    0.1191813900000000 O
