Rb4 Hg4 Sb4 Se12
1.0
   7.7531201500000000    0.0000000000000000    0.0013113900000000
   0.0000000000000000   11.1179629700000007    0.0000000000000000
  -2.4434944900000000    0.0000000000000000    8.3715671500000006
Rb Hg Sb Se
4 4 4 12
direct
   0.0136158300000000    0.2492949000000000    0.3783277200000000 Rb
   0.0136158300000000    0.2507051000000000    0.8783277200000000 Rb
   0.9863841700000000    0.7492949000000000    0.1216722800000000 Rb
   0.9863841700000000    0.7507051000000000    0.6216722800000000 Rb
   0.5970088200000000    0.2495969200000000    0.5237658800000000 Hg
   0.4029911800000000    0.7495969200000000    0.9762341200000000 Hg
   0.4029911800000000    0.7504030800000000    0.4762341200000000 Hg
   0.5970088200000000    0.2504030800000000    0.0237658800000000 Hg
   0.4583771400000000    0.4978470200000000    0.7385891900000000 Sb
   0.5416228600000000    0.5021529800000000    0.2614108100000000 Sb
   0.4583771400000000    0.0021529800000000    0.2385891900000000 Sb
   0.5416228600000000    0.9978470200000000    0.7614108100000000 Sb
   0.7659362400000000    0.4560184400000000    0.5465500200000000 Se
   0.2340637600000000    0.9560184400000000    0.9534499800000000 Se
   0.2340637600000000    0.5439815600000000    0.4534499800000000 Se
   0.7659362400000000    0.0439815600000000    0.0465500200000000 Se
   0.7663990500000000    0.0432111200000000    0.5868878300000000 Se
   0.2336009500000000    0.5432111200000000    0.9131121700000000 Se
   0.2336009500000000    0.9567888800000000    0.4131121700000000 Se
   0.3737923100000000    0.2362191400000000    0.2182397900000000 Se
   0.3737923100000000    0.2637808600000000    0.7182397900000000 Se
   0.6262076900000000    0.7637808600000000    0.7817602100000000 Se
   0.6262076900000000    0.7362191400000000    0.2817602100000000 Se
   0.7663990500000000    0.4567888800000000    0.0868878300000000 Se
