Li4 Sc4 Si4 O16
1.0
  10.3972041100000006    0.0000000000000000    0.0000000000000000
   0.0000000000000000    5.9388702000000002    0.0000000000000000
   0.0000000000000000    0.0000000000000000    4.8078589699999998
Li Sc Si O
4 4 4 16
direct
   0.0000000000000000    0.0000000000000000    0.0000000000000000 Li
   0.5000000000000000    0.0000000000000000    0.5000000000000000 Li
   0.0000000000000000    0.5000000000000000    0.0000000000000000 Li
   0.5000000000000000    0.5000000000000000    0.5000000000000000 Li
   0.7735319800000000    0.2500000000000000    0.5030459700000000 Sc
   0.2735319800000000    0.2500000000000000    0.9969540300000000 Sc
   0.2264680200000000    0.7500000000000000    0.4969540300000000 Sc
   0.7264680200000000    0.7500000000000000    0.0030459700000000 Sc
   0.9087917400000000    0.7500000000000000    0.5639555700000000 Si
   0.0912082600000000    0.2500000000000000    0.4360444300000000 Si
   0.4087917400000000    0.7500000000000000    0.9360444300000000 Si
   0.5912082600000000    0.2500000000000000    0.0639555700000000 Si
   0.3304221400000000    0.5379671600000000    0.7847031600000000 O
   0.6695778600000000    0.4620328400000000    0.2152968400000000 O
   0.8304221400000000    0.5379671600000000    0.7152968400000000 O
   0.3304221400000000    0.9620328400000000    0.7847031600000000 O
   0.1695778600000000    0.0379671600000000    0.2847031600000000 O
   0.0995557000000000    0.2500000000000000    0.7716341400000000 O
   0.1695778600000000    0.4620328400000000    0.2847031600000000 O
   0.6695778600000000    0.0379671600000000    0.2152968400000000 O
   0.9004443000000000    0.7500000000000000    0.2283658600000000 O
   0.5995557000000000    0.2500000000000000    0.7283658600000000 O
   0.5530351100000001    0.7500000000000000    0.8030190200000000 O
   0.4004443000000000    0.7500000000000000    0.2716341400000000 O
   0.0530351100000000    0.7500000000000000    0.6969809800000000 O
   0.9469648899999999    0.2500000000000000    0.3030190200000000 O
   0.4469648900000000    0.2500000000000000    0.1969809800000000 O
   0.8304221400000000    0.9620328400000000    0.7152968400000000 O
