As4 Pb6 O16
1.0
   7.4200152599999996    0.0000000000000000   -0.0066498000000000
   0.0000000000000000    6.2368826500000001    0.0000000000000000
  -3.8404204399999999    0.0000000000000000    8.4719293699999998
As Pb O
4 6 16
direct
   0.2043355300000000    0.0182281800000000    0.4026304900000000 As
   0.7956644700000000    0.5182281800000000    0.0973695100000000 As
   0.7956644700000000    0.9817718200000000    0.5973695100000000 As
   0.2043355300000000    0.4817718200000000    0.9026304900000000 As
   0.0000000000000000    0.0000000000000000    0.0000000000000000 Pb
   0.0000000000000000    0.5000000000000000    0.5000000000000000 Pb
   0.3846644800000000    0.9084484200000000    0.7911746000000000 Pb
   0.6153355200000000    0.4084484200000000    0.7088254000000000 Pb
   0.6153355200000000    0.0915515800000000    0.2088254000000000 Pb
   0.3846644800000000    0.5915515800000000    0.2911746000000000 Pb
   0.2808333500000000    0.2382696700000000    0.5220295200000000 O
   0.7191666500000000    0.7382696700000000    0.9779704800000000 O
   0.7191666500000000    0.7617303300000000    0.4779704800000000 O
   0.2808333500000000    0.2617303300000000    0.0220295200000000 O
   0.2583472000000000    0.7062464800000000    0.0234892400000000 O
   0.7416528000000000    0.2062464800000000    0.4765107600000000 O
   0.7416528000000000    0.2937535200000000    0.9765107600000000 O
   0.2583472000000000    0.7937535200000000    0.5234892400000000 O
   0.6737557400000000    0.0276676100000000    0.7183682200000000 O
   0.3262442600000000    0.5276676100000000    0.7816317800000000 O
   0.3262442600000000    0.9723323900000000    0.2816317800000000 O
   0.6737557400000000    0.4723323900000000    0.2183682200000000 O
   0.9619276200000000    0.0373626100000000    0.2743954600000000 O
   0.0380723800000000    0.5373626100000000    0.2256045400000000 O
   0.0380723800000000    0.9626373900000000    0.7256045400000000 O
   0.9619276200000000    0.4626373900000000    0.7743954600000000 O
