Cd4 P8 O24
1.0
   6.2597728300000002   -4.3295573999999997   -0.0098463500000000
   6.2597728300000002    4.3295573999999997   -0.0098463500000000
  -5.1988087099999998    0.0000000000000000    9.1274531700000008
Cd P O
4 8 24
direct
   0.0359417500000000    0.9640582500000000    0.7500000000000000 Cd
   0.9640582500000000    0.0359417500000000    0.2500000000000000 Cd
   0.0000000000000000    0.5000000000000000    0.5000000000000000 Cd
   0.5000000000000000    0.0000000000000000    0.0000000000000000 Cd
   0.7244880500000001    0.2615750700000000    0.5219766300000001 P
   0.7384249300000000    0.2755119500000000    0.9780233699999999 P
   0.2755119500000000    0.7384249300000000    0.4780233700000000 P
   0.2615750700000000    0.7244880500000001    0.0219766300000000 P
   0.6887968200000000    0.6904481500000000    0.6896616700000000 P
   0.3095518500000000    0.3112031800000000    0.8103383300000000 P
   0.3112031800000000    0.3095518500000000    0.3103383300000000 P
   0.6904481500000000    0.6887968200000000    0.1896616700000000 P
   0.8169888100000000    0.0874106600000000    0.5753003600000000 O
   0.9125893400000000    0.1830111900000000    0.9246996400000000 O
   0.1830111900000000    0.9125893400000000    0.4246996400000000 O
   0.0874106600000000    0.8169888100000000    0.0753003600000000 O
   0.8013264000000000    0.2829789100000000    0.4176174300000000 O
   0.7170210900000000    0.1986736000000000    0.0823825700000000 O
   0.1986736000000000    0.7170210900000000    0.5823825700000000 O
   0.2829789100000000    0.8013264000000000    0.9176174300000000 O
   0.5080691500000000    0.7292310100000000    0.5492557000000000 O
   0.2707689900000000    0.4919308500000000    0.9507443000000000 O
   0.4919308500000000    0.2707689900000000    0.4507443000000000 O
   0.7292310100000000    0.5080691500000000    0.0492557000000000 O
   0.7276897900000000    0.4575632300000000    0.6618745400000000 O
   0.5424367700000000    0.2723102100000000    0.8381254600000000 O
   0.2723102100000000    0.5424367700000000    0.3381254600000000 O
   0.4575632300000000    0.7276897900000000    0.1618745400000000 O
   0.6419904300000000    0.7984323400000000    0.8287598300000000 O
   0.2015676600000000    0.3580095700000000    0.6712401700000000 O
   0.3580095700000000    0.2015676600000000    0.1712401700000000 O
   0.7984323400000000    0.6419904300000000    0.3287598300000000 O
   0.8630323300000000    0.7245345399999999    0.6745927400000000 O
   0.2754654600000000    0.1369676700000000    0.8254072600000000 O
   0.1369676700000000    0.2754654600000000    0.3254072600000000 O
   0.7245345399999999    0.8630323300000000    0.1745927400000000 O
