Ba2 Mo2 O8
1.0
  -2.8030978000000002    2.8030977500000001    6.3758722199999998
   2.8030978000000002   -2.8030977500000001    6.3758722199999998
   2.8030977500000001    2.8030978000000002   -6.3758722199999998
Ba Mo O
2 2 8
direct
   0.7500000000000000    0.2500000000000000    0.5000000000000000 Ba
   0.0000000000000000    0.0000000000000000    0.0000000000000000 Ba
   0.2500000000000000    0.7500000000000000    0.5000000000000000 Mo
   0.5000000000000000    0.5000000000000000    0.0000000000000000 Mo
   0.2952696600000000    0.9061591200000000    0.8583050500000000 O
   0.0478540700000000    0.4369646100000000    0.1416949500000000 O
   0.1869646100000000    0.5452696600000000    0.8891105300000000 O
   0.6561591200000000    0.2978540700000000    0.1108894700000000 O
   0.4547303400000000    0.3438408800000000    0.6416949500000000 O
   0.7021459300000000    0.8130353900000000    0.3583050500000000 O
   0.5630353900000000    0.7047303400000000    0.6108894700000000 O
   0.0938408800000000    0.9521459300000000    0.3891105300000000 O
