Ba1 Zr1 P2 O8
1.0
   4.3077017700000004   -2.6692309500000002    0.0086661600000000
   4.3077017700000004    2.6692309500000002    0.0086661600000000
  -0.4349813000000000    0.0000000000000000    7.8943968000000000
Ba Zr P O
1 1 2 8
direct
   0.0000000000000000    0.0000000000000000    0.5000000000000000 Ba
   0.0000000000000000    0.0000000000000000    0.0000000000000000 Zr
   0.6378621200000000    0.6378621200000000    0.7763407900000000 P
   0.3621378800000000    0.3621378800000000    0.2236592100000000 P
   0.3111448300000000    0.3111448300000000    0.4045407700000000 O
   0.6888551700000000    0.6888551700000000    0.5954592300000000 O
   0.7730662100000000    0.3004601700000000    0.8074051000000000 O
   0.3004601700000000    0.7730662100000000    0.8074051000000000 O
   0.7723004700000000    0.7723004700000000    0.9127472000000000 O
   0.2269337900000000    0.6995398300000000    0.1925949000000000 O
   0.2276995300000000    0.2276995300000000    0.0872528000000000 O
   0.6995398300000000    0.2269337900000000    0.1925949000000000 O
