Cd2 C2 O6
1.0
   2.4799116799999998    1.4317774200000000    5.3934305399999998
  -2.4799116799999998    1.4317774200000000    5.3934305399999998
   0.0000000000000000   -2.8635548300000000    5.3934305399999998
Cd C O
2 2 6
direct
   0.0000000000000000    0.0000000000000000    0.0000000000000000 Cd
   0.5000000000000000    0.5000000000000000    0.5000000000000000 Cd
   0.7500000000000000    0.7500000000000000    0.7500000000000000 C
   0.2500000000000000    0.2500000000000000    0.2500000000000000 C
   0.7500000000000000    0.0109795500000000    0.4890204500000000 O
   0.4890204500000000    0.7500000000000000    0.0109795500000000 O
   0.9890204500000001    0.5109795499999999    0.2500000000000000 O
   0.2500000000000000    0.9890204500000001    0.5109795499999999 O
   0.5109795499999999    0.2500000000000000    0.9890204500000001 O
   0.0109795500000000    0.4890204500000000    0.7500000000000000 O
