Mo4 P4 O22
1.0
   7.5984887900000002    0.0000000000000000   -0.0004960400000000
   0.0000000000000000    6.3814037199999998    0.0000000000000000
  -2.3845282100000000    0.0000000000000000    8.7175809199999996
Mo P O
4 4 22
direct
   0.3928781400000000    0.2500000000000000    0.2883148200000000 Mo
   0.6071218600000000    0.7500000000000000    0.7116851800000000 Mo
   0.1760289300000000    0.2500000000000000    0.8538713900000000 Mo
   0.8239710700000000    0.7500000000000000    0.1461286100000000 Mo
   0.0655338600000000    0.7500000000000000    0.8817534200000000 P
   0.4919996900000000    0.7500000000000000    0.3305530600000000 P
   0.5080003100000000    0.2500000000000000    0.6694469400000000 P
   0.9344661399999999    0.2500000000000000    0.1182465800000000 P
   0.9798040500000000    0.2500000000000000    0.9598976100000000 O
   0.0315590000000000    0.2500000000000000    0.6770027800000000 O
   0.8988151700000000    0.7500000000000000    0.7476117100000000 O
   0.0201959500000000    0.7500000000000000    0.0401023900000000 O
   0.6347771500000000    0.0584890300000000    0.6985916300000000 O
   0.3751266100000000    0.7500000000000000    0.6540262200000000 O
   0.9684410000000000    0.7500000000000000    0.3229972200000000 O
   0.1011848300000000    0.2500000000000000    0.2523882900000000 O
   0.8106836800000000    0.0557451800000000    0.1176268800000000 O
   0.6347771500000000    0.4415109700000000    0.6985916300000000 O
   0.6303061300000000    0.7500000000000000    0.4861628500000000 O
   0.3499614000000000    0.2500000000000000    0.0848717000000000 O
   0.5980935800000000    0.7500000000000000    0.2025732000000000 O
   0.6500386000000000    0.7500000000000000    0.9151283000000000 O
   0.1893163200000000    0.5557451799999999    0.8823731200000000 O
   0.3652228500000000    0.9415109699999999    0.3014083700000000 O
   0.4019064200000000    0.2500000000000000    0.7974268000000000 O
   0.3652228500000000    0.5584890300000001    0.3014083700000000 O
   0.6248733900000000    0.2500000000000000    0.3459737800000000 O
   0.3696938700000000    0.2500000000000000    0.5138371500000000 O
   0.8106836800000000    0.4442548200000000    0.1176268800000000 O
   0.1893163200000000    0.9442548200000001    0.8823731200000000 O
