Na4 Zn2 B12 O22
1.0
   5.3418867600000004   -3.7031060099999999    0.0000825500000000
   5.3418867600000004    3.7031060099999999    0.0000825500000000
  -4.0397597699999999    0.0000000000000000   10.5798185500000006
Na Zn B O
4 2 12 22
direct
   0.4463120000000000    0.2634455200000000    0.4596182300000000 Na
   0.2634455200000000    0.4463120000000000    0.9596182300000000 Na
   0.5536880000000000    0.7365544800000000    0.5403817700000000 Na
   0.7365544800000000    0.5536880000000000    0.0403817700000000 Na
   0.8747526799999999    0.1252473200000000    0.2500000000000000 Zn
   0.1252473200000000    0.8747526799999999    0.7500000000000000 Zn
   0.7424507900000000    0.7823625700000000    0.3490567400000000 B
   0.7823625700000000    0.7424507900000000    0.8490567400000000 B
   0.2952780000000000    0.8919219600000000    0.0095868300000000 B
   0.8919219600000000    0.2952780000000000    0.5095868300000000 B
   0.3294095900000000    0.9086472900000000    0.2357840900000000 B
   0.9086472900000000    0.3294095900000000    0.7357840900000000 B
   0.0913527100000000    0.6705904100000000    0.2642159100000000 B
   0.6705904100000000    0.0913527100000000    0.7642159100000000 B
   0.7047220000000000    0.1080780400000000    0.9904131700000000 B
   0.1080780400000000    0.7047220000000000    0.4904131700000000 B
   0.2176374300000000    0.2575492100000000    0.1509432600000000 B
   0.2575492100000000    0.2176374300000000    0.6509432600000000 B
   0.8416703000000000    0.7388925100000000    0.2501802500000000 O
   0.7388925100000000    0.8416703000000000    0.7501802500000000 O
   0.3817991300000000    0.7891880400000000    0.1117163900000000 O
   0.7891880400000000    0.3817991300000000    0.6117163900000000 O
   0.5166229300000000    0.8512955400000000    0.3417893700000000 O
   0.8512955400000000    0.5166229300000000    0.8417893700000000 O
   0.2354013400000000    0.1274567900000000    0.0299127500000000 O
   0.1274567900000000    0.2354013400000000    0.5299127500000000 O
   0.8725432100000000    0.7645986600000000    0.4700872500000000 O
   0.7645986600000000    0.8725432100000000    0.9700872500000000 O
   0.1300497000000000    0.8699503000000000    0.2500000000000000 O
   0.8699503000000000    0.1300497000000000    0.7500000000000000 O
   0.7614854200000000    0.2727450200000000    0.3927549000000000 O
   0.2727450200000000    0.7614854200000000    0.8927549000000000 O
   0.2611074900000000    0.1583297000000000    0.2498197500000000 O
   0.1583297000000000    0.2611074900000000    0.7498197500000000 O
   0.1487044600000000    0.4833770700000000    0.1582106300000000 O
   0.4833770700000000    0.1487044600000000    0.6582106300000000 O
   0.7272549800000000    0.2385145800000000    0.1072451000000000 O
   0.2385145800000000    0.7272549800000000    0.6072451000000000 O
   0.2108119600000000    0.6182008700000000    0.3882836100000000 O
   0.6182008700000000    0.2108119600000000    0.8882836100000000 O
