Ga8 Bi4 S16
1.0
   7.4447403899999998    0.0000000000000000    0.0000000000000000
   0.0000000000000000    7.4447403899999998    0.0000000000000000
   0.0000000000000000    0.0000000000000000   12.0084444500000007
Ga Bi S
8 4 16
direct
   0.5000000000000000    0.0000000000000000    0.7500000000000000 Ga
   0.0000000000000000    0.5000000000000000    0.7500000000000000 Ga
   0.0000000000000000    0.5000000000000000    0.0000000000000000 Ga
   0.0000000000000000    0.5000000000000000    0.2500000000000000 Ga
   0.5000000000000000    0.0000000000000000    0.5000000000000000 Ga
   0.5000000000000000    0.0000000000000000    0.2500000000000000 Ga
   0.0000000000000000    0.5000000000000000    0.5000000000000000 Ga
   0.5000000000000000    0.0000000000000000    0.0000000000000000 Ga
   0.0000000000000000    0.0000000000000000    0.1310827900000000 Bi
   0.0000000000000000    0.0000000000000000    0.8689172100000000 Bi
   0.5000000000000000    0.5000000000000000    0.3689172100000000 Bi
   0.5000000000000000    0.5000000000000000    0.6310827900000000 Bi
   0.6605506200000000    0.8317051700000000    0.8752100900000001 S
   0.1605506200000000    0.3317051700000000    0.6247899099999999 S
   0.8394493800000000    0.6682948300000000    0.6247899099999999 S
   0.1605506200000000    0.6682948300000000    0.3752100900000000 S
   0.6682948300000000    0.1605506200000000    0.6247899099999999 S
   0.8317051700000000    0.3394493800000000    0.8752100900000001 S
   0.6682948300000000    0.8394493800000000    0.3752100900000000 S
   0.6605506200000000    0.1682948300000000    0.1247899100000000 S
   0.1682948300000000    0.3394493800000000    0.1247899100000000 S
   0.3317051700000000    0.8394493800000000    0.6247899099999999 S
   0.1682948300000000    0.6605506200000000    0.8752100900000001 S
   0.8394493800000000    0.3317051700000000    0.3752100900000000 S
   0.8317051700000000    0.6605506200000000    0.1247899100000000 S
   0.3394493800000000    0.1682948300000000    0.8752100900000001 S
   0.3317051700000000    0.1605506200000000    0.3752100900000000 S
   0.3394493800000000    0.8317051700000000    0.1247899100000000 S
