Na2 Li4 B2 P4 O16
1.0
   5.4058775700000004   -0.0081084900000000   -0.0218781300000000
   0.3329615100000000    7.4013409699999997   -0.0111700200000000
   2.6251059899999998    1.7219073499999999    7.3584458399999999
Na Li B P O
2 4 2 4 16
direct
   0.7470308600000000    0.1180502900000000    0.7405396700000000 Na
   0.2529691400000000    0.8819497100000000    0.2594603300000000 Na
   0.6900381300000000    0.4986545000000000    0.8567101100000000 Li
   0.3099618700000000    0.5013455000000000    0.1432898900000000 Li
   0.1455889700000000    0.5303253000000000    0.5964391600000000 Li
   0.8544110300000000    0.4696747000000000    0.4035608400000000 Li
   0.2519846900000000    0.9538708200000000    0.7663150600000000 B
   0.7480153100000000    0.0461291800000000    0.2336849400000000 B
   0.3767326900000000    0.2258377200000000    0.4543051500000000 P
   0.6232673100000000    0.7741622800000000    0.5456948500000000 P
   0.1446319100000000    0.2496693200000000    0.9449955300000000 P
   0.8553680900000000    0.7503306800000000    0.0550044700000000 P
   0.0336810700000000    0.8181012200000000    0.8518476100000000 O
   0.9663189300000000    0.1818987800000000    0.1481523900000000 O
   0.4940678900000000    0.1361017900000000    0.2844700700000000 O
   0.5059321100000000    0.8638982100000000    0.7155299300000000 O
   0.9837791800000000    0.3322917100000000    0.8226023099999999 O
   0.0162208200000000    0.6677082900000000    0.1773976900000000 O
   0.1988258700000000    0.3783994500000000    0.4038411500000000 O
   0.8011741300000000    0.6216005500000000    0.5961588500000000 O
   0.2799596800000000    0.0663453200000000    0.8914907100000000 O
   0.7200403200000000    0.9336546800000000    0.1085092900000000 O
   0.3537103400000000    0.3778880400000000    0.9452068100000000 O
   0.6462896600000000    0.6221119600000000    0.0547931900000000 O
   0.1937098600000000    0.0674633100000000    0.6074401500000000 O
   0.8062901400000000    0.9325366899999999    0.3925598500000000 O
   0.5882323000000000    0.2850915100000000    0.5173182100000000 O
   0.4117677000000000    0.7149084900000000    0.4826817900000000 O
