Cs2 Y2 Zn2 Se6
1.0
   2.0503753200000001   -7.8705963700000003    0.0000000000000000
   2.0503753200000001    7.8705963700000003    0.0000000000000000
   0.0000000000000000    0.0000000000000000   10.8014589399999998
Cs Y Zn Se
2 2 2 6
direct
   0.7428237800000000    0.2571762200000000    0.2500000000000000 Cs
   0.2571762200000000    0.7428237800000000    0.7500000000000000 Cs
   0.0000000000000000    0.0000000000000000    0.0000000000000000 Y
   0.0000000000000000    0.0000000000000000    0.5000000000000000 Y
   0.4620082800000000    0.5379917200000000    0.2500000000000000 Zn
   0.5379917200000000    0.4620082800000000    0.7500000000000000 Zn
   0.3816682200000000    0.6183317800000000    0.0602133000000000 Se
   0.9440034400000000    0.0559965600000000    0.7500000000000000 Se
   0.3816682200000000    0.6183317800000000    0.4397867000000000 Se
   0.0559965600000000    0.9440034400000000    0.2500000000000000 Se
   0.6183317800000000    0.3816682200000000    0.9397867000000000 Se
   0.6183317800000000    0.3816682200000000    0.5602133000000000 Se
