Li2 Ge1 Pb1 S4
1.0
  -3.2555570999999999    3.2555570999999999    3.8252155000000001
   3.2555570999999999   -3.2555570999999999    3.8252155000000001
   3.2555570999999999    3.2555570999999999   -3.8252155000000001
Li Ge Pb S
2 1 1 4
direct
   0.7500000000000000    0.2500000000000000    0.5000000000000000 Li
   0.2500000000000000    0.7500000000000000    0.5000000000000000 Li
   0.5000000000000000    0.5000000000000000    0.0000000000000000 Ge
   0.0000000000000000    0.0000000000000000    0.0000000000000000 Pb
   0.4672913300000000    0.8652653700000000    0.0000000000000000 S
   0.1347346300000000    0.1347346300000000    0.6020249600000001 S
   0.5327086700000000    0.5327086700000000    0.3979750400000000 S
   0.8652653700000000    0.4672913300000000    0.0000000000000000 S
