Si4 Ag8 O12
1.0
   4.4960159199999996    0.0000000000000000    0.0000000000000000
   0.0000000000000000    6.8937154899999999    0.0000000000000000
   0.0000000000000000    0.0000000000000000   10.0981244900000000
Si Ag O
4 8 12
direct
   0.9603266400000000    0.1388897200000000    0.4361266400000000 Si
   0.0396733600000000    0.6388897200000000    0.0638733600000000 Si
   0.4603266400000000    0.3611102800000000    0.5638733600000000 Si
   0.5396733600000000    0.8611102800000000    0.9361266400000000 Si
   0.4103899400000000    0.8649542000000000    0.6187974500000000 Ag
   0.0896100600000000    0.1350458000000000    0.1187974500000000 Ag
   0.5896100600000000    0.3649542000000000    0.8812025500000000 Ag
   0.9103899400000000    0.6350458000000000    0.3812025500000000 Ag
   0.9753348300000000    0.5941807000000000    0.7239569200000000 Ag
   0.4753348300000000    0.9058193000000000    0.2760430800000000 Ag
   0.0246651700000000    0.0941807000000000    0.7760430800000000 Ag
   0.5246651700000000    0.4058193000000000    0.2239569200000000 Ag
   0.2981948500000000    0.3478135900000000    0.7085173800000000 O
   0.7981948500000000    0.1521864100000000    0.2914826200000000 O
   0.7018051500000000    0.8478135900000000    0.7914826200000000 O
   0.2018051500000000    0.6521864100000000    0.2085173800000000 O
   0.8859112800000000    0.4304752100000000    0.0394992900000000 O
   0.3859112800000000    0.0695247900000000    0.9605007100000000 O
   0.1140887200000000    0.9304752100000000    0.4605007100000000 O
   0.2089758700000000    0.3172778700000000    0.4466099500000000 O
   0.2910241300000000    0.6827221300000000    0.9466099500000000 O
   0.7910241300000000    0.8172778700000000    0.0533900500000000 O
   0.7089758700000000    0.1827221300000000    0.5533900500000000 O
   0.6140887200000000    0.5695247900000000    0.5394992900000000 O
