Na6 Ca2 B10 O20
1.0
   7.3098229999999997    0.0000000000000000    0.0000000000000000
   3.6471979999999999    6.6095069999999998    0.0000000000000000
   1.5702560000000001    2.8999920000000001    9.0718800000000002
Na Ca B O
6 2 10 20
direct
   0.7938820000000000    0.2174620000000000    0.4493440000000000 Na
   0.4706580000000000    0.2739720000000000    0.7481970000000000 Na
   0.2061180000000000    0.7825380000000000    0.5506560000000000 Na
   0.0580060000000000    0.7867070000000000    0.1755190000000000 Na
   0.9419940000000000    0.2132930000000000    0.8244810000000000 Na
   0.5293420000000000    0.7260280000000000    0.2518030000000000 Na
   0.5362120000000000    0.2511200000000000    0.1168320000000000 Ca
   0.4637880000000000    0.7488800000000000    0.8831680000000000 Ca
   0.8456669999999999    0.7393180000000000    0.7075709999999999 B
   0.8078850000000000    0.8975460000000000    0.9106880000000001 B
   0.2829750000000000    0.4402920000000000    0.4041240000000000 B
   0.1921150000000000    0.1024540000000000    0.0893120000000000 B
   0.8528220000000000    0.3888230000000000    0.1265590000000000 B
   0.1471780000000000    0.6111770000000000    0.8734410000000000 B
   0.7170250000000000    0.5597080000000000    0.5958760000000000 B
   0.7667790000000000    0.8684460000000001    0.4344890000000000 B
   0.1543330000000000    0.2606820000000000    0.2924290000000000 B
   0.2332210000000000    0.1315540000000000    0.5655110000000000 B
   0.7085100000000000    0.0616610000000000    0.9630430000000000 O
   0.2914900000000000    0.9383390000000000    0.0369570000000000 O
   0.0660940000000000    0.6103560000000000    0.7542250000000000 O
   0.9339060000000000    0.3896440000000000    0.2457750000000000 O
   0.7635650000000000    0.0046730000000000    0.3014540000000000 O
   0.2804890000000000    0.1248680000000000    0.1961870000000000 O
   0.9867480000000000    0.2557560000000000    0.0423090000000000 O
   0.6983680000000000    0.3873460000000000    0.6149559999999999 O
   0.7522770000000000    0.6011069999999999    0.7187380000000000 O
   0.6475520000000000    0.5009410000000000    0.0958840000000000 O
   0.7195110000000000    0.8751320000000000    0.8038130000000000 O
   0.7029510000000000    0.7116520000000000    0.4562240000000000 O
   0.8389590000000000    0.8766770000000000    0.5564580000000000 O
   0.3016320000000000    0.6126540000000000    0.3850440000000000 O
   0.0132520000000000    0.7442440000000000    0.9576910000000000 O
   0.2364350000000000    0.9953270000000000    0.6985460000000000 O
   0.2477230000000000    0.3988930000000000    0.2812620000000000 O
   0.1610410000000000    0.1233230000000000    0.4435420000000000 O
   0.3524480000000000    0.4990590000000000    0.9041160000000000 O
   0.2970490000000000    0.2883480000000000    0.5437760000000000 O
