Ca4 V4 O14
1.0
   6.6537061700000004    0.0040034900000000   -0.0106028000000000
   0.8693988800000000    6.8695920800000003    0.0132874700000000
   3.0933853800000000    0.1287624300000000    6.2850754999999996
Ca V O
4 4 14
direct
   0.2570986400000000    0.6590813900000000    0.1684624500000000 Ca
   0.7429013600000000    0.3409186100000000    0.8315375500000000 Ca
   0.2637257500000000    0.0533283200000000    0.7622592900000000 Ca
   0.7362742500000000    0.9466716800000000    0.2377407100000000 Ca
   0.2734783000000000    0.5528417300000000    0.6528044900000000 V
   0.7265217000000000    0.4471582700000000    0.3471955100000000 V
   0.1980142800000000    0.1658366600000000    0.2670655000000000 V
   0.8019857200000000    0.8341633400000000    0.7329345000000000 V
   0.9494690600000000    0.2998951000000000    0.4401683300000000 O
   0.0505309400000000    0.7001049000000000    0.5598316700000000 O
   0.4642420500000000    0.5980394400000000    0.3669507000000000 O
   0.5357579500000000    0.4019605600000000    0.6330493000000000 O
   0.3468817200000000    0.0509082000000000    0.3975481600000000 O
   0.6531182800000001    0.9490918000000000    0.6024518400000000 O
   0.3605538200000000    0.3216748000000000    0.0782949700000000 O
   0.6394461800000000    0.6783252000000000    0.9217050300000000 O
   0.1362988900000000    0.9922972700000000    0.1375176400000000 O
   0.8637011100000000    0.0077027300000000    0.8624823600000000 O
   0.2463050200000000    0.7164597900000000    0.8293266300000000 O
   0.7536949800000000    0.2835402100000000    0.1706733700000000 O
   0.1086117000000000    0.3684381800000000    0.7627690400000000 O
   0.8913883000000000    0.6315618200000001    0.2372309600000000 O
