Cs4 S6
1.0
   3.7813139800000002   -5.4839315400000004    0.0000000000000000
   3.7813139800000002    5.4839315400000004    0.0000000000000000
   0.0000000000000000    0.0000000000000000    7.9748588500000004
Cs S
4 6
direct
   0.5761573900000000    0.4238426100000000    0.1821404100000000 Cs
   0.4238426100000000    0.5761573900000000    0.6821404100000000 Cs
   0.1022152600000000    0.8977847400000000    0.4551588800000000 Cs
   0.8977847400000000    0.1022152600000000    0.9551588800000000 Cs
   0.0590464400000000    0.3849789200000000    0.3391606900000000 S
   0.9409535600000000    0.6150210800000000    0.8391606900000000 S
   0.6150210800000000    0.9409535600000000    0.3391606900000000 S
   0.3849789200000000    0.0590464400000000    0.8391606900000000 S
   0.2036342800000000    0.7963657200000001    0.9833803300000000 S
   0.7963657200000001    0.2036342800000000    0.4833803300000000 S
