Pb4 C4 O12
1.0
   6.0183505200000003    0.0000000000000000    0.0000000000000000
   0.0000000000000000    5.1355582599999998    0.0000000000000000
   0.0000000000000000    0.0000000000000000    8.4532098900000001
Pb C O
4 4 12
direct
   0.7545200300000000    0.2500000000000000    0.9168198600000000 Pb
   0.2454799700000000    0.7500000000000000    0.0831801400000000 Pb
   0.2545200300000000    0.2500000000000000    0.5831801400000000 Pb
   0.7454799700000000    0.7500000000000000    0.4168198600000000 Pb
   0.9113309800000000    0.2500000000000000    0.2589341000000000 C
   0.0886690200000000    0.7500000000000000    0.7410659000000001 C
   0.4113309800000000    0.2500000000000000    0.2410659000000000 C
   0.5886690200000000    0.7500000000000000    0.7589340999999999 C
   0.4087071100000000    0.4685309600000000    0.3182007900000000 O
   0.5912928900000000    0.9685309600000001    0.6817992100000000 O
   0.9087071100000000    0.0314690400000000    0.1817992100000000 O
   0.0912928900000000    0.5314690399999999    0.8182007900000000 O
   0.5974794700000000    0.7500000000000000    0.9121405100000000 O
   0.4025205300000000    0.2500000000000000    0.0878594900000000 O
   0.0974794700000000    0.7500000000000000    0.5878594900000000 O
   0.9025205300000000    0.2500000000000000    0.4121405100000000 O
   0.5912928900000000    0.5314690399999999    0.6817992100000000 O
   0.4087071100000000    0.0314690400000000    0.3182007900000000 O
   0.0912928900000000    0.9685309600000001    0.8182007900000000 O
   0.9087071100000000    0.4685309600000000    0.1817992100000000 O
