Zr2 Ge2 O8
1.0
  -2.4583572400000002    2.4583572600000001    5.2958764399999998
   2.4583572400000002   -2.4583572600000001    5.2958764399999998
   2.4583572600000001    2.4583572400000002   -5.2958764399999998
Zr Ge O
2 2 8
direct
   0.2500000000000000    0.7500000000000000    0.5000000000000000 Zr
   0.5000000000000000    0.5000000000000000    0.0000000000000000 Zr
   0.7500000000000000    0.2500000000000000    0.5000000000000000 Ge
   0.0000000000000000    0.0000000000000000    0.0000000000000000 Ge
   0.5671883100000000    0.1604321400000000    0.0594434100000000 O
   0.2577439000000000    0.8171883100000000    0.9067561700000000 O
   0.9104321399999999    0.3509877300000000    0.0932438300000000 O
   0.1009877300000000    0.5077439000000000    0.9405565900000000 O
   0.6490122699999999    0.7422561000000000    0.5594434100000000 O
   0.8395678600000001    0.8990122699999999    0.4067561700000000 O
   0.4922561000000000    0.4328116900000000    0.5932438300000000 O
   0.1828116900000000    0.0895678600000000    0.4405565900000000 O
