Ca10 W2 N8 O4
1.0
   6.0422593700000000    0.0000000000000000   -0.0334112400000000
   0.0000000000000000    6.6880780099999999    0.0000000000000000
  -0.1624610800000000    0.0000000000000000    8.3840762699999996
Ca W N O
10 2 8 4
direct
   0.7333395600000000    0.4907506000000000    0.3348140000000000 Ca
   0.5017160600000000    0.7500000000000000    0.0163719600000000 Ca
   0.2666604400000000    0.5092494000000000    0.6651860000000001 Ca
   0.4982839400000000    0.2500000000000000    0.9836280400000000 Ca
   0.0000000000000000    0.5000000000000000    0.0000000000000000 Ca
   0.1947556900000000    0.7500000000000000    0.3288210200000000 Ca
   0.0000000000000000    0.0000000000000000    0.0000000000000000 Ca
   0.7333395600000000    0.0092494000000000    0.3348140000000000 Ca
   0.2666604400000000    0.9907506000000000    0.6651860000000001 Ca
   0.8052443100000000    0.2500000000000000    0.6711789800000000 Ca
   0.7185664700000000    0.7500000000000000    0.6775175600000000 W
   0.2814335300000000    0.2500000000000000    0.3224824400000000 W
   0.6639374500000000    0.9759195800000000    0.8098296800000000 N
   0.9709225500000001    0.7500000000000000    0.5517579300000000 N
   0.3360625500000000    0.4759195800000000    0.1901703200000000 N
   0.0290774500000000    0.2500000000000000    0.4482420700000000 N
   0.6639374500000000    0.5240804200000000    0.8098296800000000 N
   0.3360625500000000    0.0240804200000000    0.1901703200000000 N
   0.5071223900000000    0.2500000000000000    0.4756958100000000 N
   0.4928776100000000    0.7500000000000000    0.5243041899999999 N
   0.8484483200000000    0.7500000000000000    0.1704580600000000 O
   0.8095733700000000    0.2500000000000000    0.1289928600000000 O
   0.1904266300000000    0.7500000000000000    0.8710071400000000 O
   0.1515516800000000    0.2500000000000000    0.8295419400000000 O
