Ti2 S6
1.0
   4.9296333199999998    0.0000000000000000   -0.0407595300000000
   0.0000000000000000    3.4297266899999999    0.0000000000000000
  -1.0121978599999999    0.0000000000000000    8.8554578799999994
Ti S
2 6
direct
   0.2831200800000000    0.7500000000000000    0.6514174100000000 Ti
   0.7168799200000000    0.2500000000000000    0.3485825900000000 Ti
   0.8854314599999999    0.7500000000000000    0.1769547200000000 S
   0.1145685400000000    0.2500000000000000    0.8230452800000000 S
   0.2389570300000000    0.2500000000000000    0.4506818200000000 S
   0.7610429700000000    0.7500000000000000    0.5493181800000000 S
   0.5299001000000000    0.2500000000000000    0.8209868600000000 S
   0.4700999000000000    0.7500000000000000    0.1790131400000000 S
