Ba4 Se4 O16
1.0
   9.0400826799999994    0.0000000000000000    0.0000000000000000
   0.0000000000000000    5.6817155200000000    0.0000000000000000
   0.0000000000000000    0.0000000000000000    7.3702799299999997
Ba Se O
4 4 16
direct
   0.3180856100000000    0.7500000000000000    0.6575916500000000 Ba
   0.1819143900000000    0.2500000000000000    0.1575916500000000 Ba
   0.8180856100000000    0.7500000000000000    0.8424083500000000 Ba
   0.6819143900000000    0.2500000000000000    0.3424083500000000 Ba
   0.4352104900000000    0.7500000000000000    0.1845866900000000 Se
   0.0647895100000000    0.2500000000000000    0.6845866900000001 Se
   0.9352104900000000    0.7500000000000000    0.3154133100000000 Se
   0.5647895100000000    0.2500000000000000    0.8154133099999999 Se
   0.6008885000000000    0.7500000000000000    0.0894672900000000 O
   0.8991115000000000    0.2500000000000000    0.5894672900000000 O
   0.1008885000000000    0.7500000000000000    0.4105327100000000 O
   0.3991115000000000    0.2500000000000000    0.9105327100000000 O
   0.2964755600000000    0.7500000000000000    0.0365176400000000 O
   0.2035244400000000    0.2500000000000000    0.5365176400000000 O
   0.7964755600000000    0.7500000000000000    0.4634823600000000 O
   0.7035244400000000    0.2500000000000000    0.9634823600000000 O
   0.5813404400000000    0.4872132300000000    0.6824433900000000 O
   0.9186595600000000    0.5127867699999999    0.1824433900000000 O
   0.0813404400000000    0.0127867700000000    0.8175566100000000 O
   0.4186595600000000    0.9872132300000001    0.3175566100000000 O
   0.4186595600000000    0.5127867699999999    0.3175566100000000 O
   0.0813404400000000    0.4872132300000000    0.8175566100000000 O
   0.9186595600000000    0.9872132300000001    0.1824433900000000 O
   0.5813404400000000    0.0127867700000000    0.6824433900000000 O
