Cs12 B4 S12
1.0
  10.5496491599999995    0.0000000000000000    0.0307566300000000
   0.0000000000000000    6.5588476699999996    0.0000000000000000
  -2.9611111299999999    0.0000000000000000   13.2096567500000006
Cs B S
12 4 12
direct
   0.7497311100000000    0.1489510800000000    0.0089075800000000 Cs
   0.2502688900000000    0.6489510800000000    0.4910924200000000 Cs
   0.2502688900000000    0.8510489200000000    0.9910924200000000 Cs
   0.7497311100000000    0.3510489200000000    0.5089075800000000 Cs
   0.9643443200000000    0.7856064600000000    0.6425727300000000 Cs
   0.0356556800000000    0.2856064600000000    0.8574272700000000 Cs
   0.0356556800000000    0.2143935400000000    0.3574272700000000 Cs
   0.9643443200000000    0.7143935400000000    0.1425727300000000 Cs
   0.5970932600000000    0.9473668100000000    0.6988887000000000 Cs
   0.4029067400000000    0.4473668100000000    0.8011113000000000 Cs
   0.4029067400000000    0.0526331900000000    0.3011113000000000 Cs
   0.5970932600000000    0.5526331900000000    0.1988887000000000 Cs
   0.7660949100000000    0.6269889100000000    0.8735177500000000 B
   0.2339050900000000    0.1269889100000000    0.6264822500000000 B
   0.2339050900000000    0.3730110900000000    0.1264822500000000 B
   0.7660949100000000    0.8730110900000000    0.3735177500000000 B
   0.7223506500000000    0.4420510800000000    0.7696187000000000 S
   0.2776493500000000    0.9420510800000000    0.7303813000000000 S
   0.2776493500000000    0.5579489200000000    0.2303813000000000 S
   0.7223506500000000    0.0579489200000000    0.2696187000000000 S
   0.9095396600000000    0.7897453900000000    0.8831370300000000 S
   0.0904603400000000    0.2897453900000000    0.6168629700000000 S
   0.0904603400000000    0.2102546100000000    0.1168629700000000 S
   0.9095396600000000    0.7102546100000000    0.3831370300000000 S
   0.6629851800000000    0.8463194300000000    0.4653954800000000 S
   0.3370148200000000    0.3463194300000000    0.0346045200000000 S
   0.3370148200000000    0.1536805700000000    0.5346045200000000 S
   0.6629851800000000    0.6536805700000000    0.9653954800000000 S
