Li9 S3 N1
1.0
   5.4705432900000002    0.0000000000000000    0.0000000000000000
   0.0000000000000000    5.4705432900000002    0.0000000000000000
   0.0000000000000000    0.0000000000000000    5.4705432900000002
Li S N
9 3 1
direct
   0.7830716700000000    0.2169283300000000    0.7830716700000000 Li
   0.2169283300000000    0.2169283300000000    0.2169283300000000 Li
   0.7830716700000000    0.7830716700000000    0.7830716700000000 Li
   0.2169283300000000    0.7830716700000000    0.2169283300000000 Li
   0.7830716700000000    0.2169283300000000    0.2169283300000000 Li
   0.7830716700000000    0.7830716700000000    0.2169283300000000 Li
   0.5000000000000000    0.5000000000000000    0.5000000000000000 Li
   0.2169283300000000    0.7830716700000000    0.7830716700000000 Li
   0.2169283300000000    0.2169283300000000    0.7830716700000000 Li
   0.5000000000000000    0.5000000000000000    0.0000000000000000 S
   0.0000000000000000    0.5000000000000000    0.5000000000000000 S
   0.5000000000000000    0.0000000000000000    0.5000000000000000 S
   0.0000000000000000    0.0000000000000000    0.0000000000000000 N
