Na10 Au2 Se24
1.0
   7.0808402600000004    0.0000000000000000    0.0032042300000000
   0.0000000000000000   16.5333648000000011    0.0000000000000000
  -2.3155193500000002    0.0000000000000000    7.8360916800000000
Na Au Se
10 2 24
direct
   0.7839797100000000    0.3567636800000000    0.6498909500000000 Na
   0.2160202900000000    0.8567636800000000    0.3501090500000000 Na
   0.7792699300000000    0.9374609800000000    0.9863682600000000 Na
   0.2207300700000000    0.4374609800000000    0.0136317400000000 Na
   0.2908818100000000    0.0755050100000000    0.5707958900000000 Na
   0.7091181900000000    0.5755050100000000    0.4292041100000000 Na
   0.6643273800000000    0.7593013199999999    0.7165706100000000 Na
   0.3356726200000000    0.2593013200000000    0.2834293900000000 Na
   0.8734824000000000    0.1349453300000000    0.8965406299999999 Na
   0.1265176000000000    0.6349453300000000    0.1034593700000000 Na
   0.2102620900000000    0.8500667900000000    0.8411213000000000 Au
   0.7897379100000000    0.3500667900000000    0.1588787000000000 Au
   0.9962554900000000    0.7895127900000000    0.5708340600000000 Se
   0.9524131700000000    0.5465465000000000    0.7778492500000000 Se
   0.3792829800000000    0.7165567400000000    0.9096644100000000 Se
   0.6207170200000000    0.2165567400000000    0.0903355900000000 Se
   0.0459506500000000    0.9846730900000000    0.7577957600000000 Se
   0.9540493500000000    0.4846730900000000    0.2422042400000000 Se
   0.4288146500000000    0.9097402300000000    0.1104632000000000 Se
   0.0037445100000000    0.2895127900000000    0.4291659400000000 Se
   0.2219071900000000    0.4492201900000000    0.4877794600000000 Se
   0.5711853500000000    0.4097402300000000    0.8895368000000000 Se
   0.6254119900000000    0.7506166399999999    0.1726692600000000 Se
   0.3745880100000000    0.2506166400000000    0.8273307400000000 Se
   0.7780928100000000    0.9492201900000000    0.5122205399999999 Se
   0.6043490100000000    0.1889967700000000    0.5798129900000000 Se
   0.1524762600000000    0.6590281500000000    0.5644206500000000 Se
   0.8475237400000000    0.1590281500000000    0.4355793500000000 Se
   0.3089333500000000    0.0471790100000000    0.0937918000000000 Se
   0.6910666500000000    0.5471790100000000    0.9062082000000000 Se
   0.9022930500000000    0.7771432100000000    0.0697317300000000 Se
   0.0977069500000000    0.2771432100000000    0.9302682700000000 Se
   0.5206978100000000    0.9286205700000000    0.6406620000000000 Se
   0.4793021900000000    0.4286205700000000    0.3593380000000000 Se
   0.3956509900000000    0.6889967700000000    0.4201870100000000 Se
   0.0475868300000000    0.0465465000000000    0.2221507500000000 Se
