Ba8 Zn4 O12
1.0
   2.8969464199999999   -5.6597681900000003   -0.0010224100000000
   2.8969464199999999    5.6597681900000003   -0.0010224100000000
  -0.6769384800000000    0.0000000000000000   12.5057072900000001
Ba Zn O
8 4 12
direct
   0.5618416500000000    0.9706236800000000    0.6527965200000000 Ba
   0.9706236800000000    0.5618416500000000    0.1527965200000000 Ba
   0.4381583500000000    0.0293763200000000    0.3472034800000000 Ba
   0.0293763200000000    0.4381583500000000    0.8472034800000000 Ba
   0.1391401300000000    0.3465837700000000    0.4251376800000000 Ba
   0.6534162300000000    0.8608598700000000    0.0748623200000000 Ba
   0.8608598700000000    0.6534162300000000    0.5748623200000000 Ba
   0.3465837700000000    0.1391401300000000    0.9251376800000000 Ba
   0.2695558600000000    0.2671965900000000    0.1646818600000000 Zn
   0.7304441400000000    0.7328034100000000    0.8353181400000000 Zn
   0.7328034100000000    0.7304441400000000    0.3353181400000000 Zn
   0.2671965900000000    0.2695558600000000    0.6646818600000000 Zn
   0.6726744900000000    0.8678770000000000    0.4629186300000000 O
   0.1321230000000000    0.3273255100000000    0.0370813700000000 O
   0.3273255100000000    0.1321230000000000    0.5370813700000000 O
   0.8678770000000000    0.6726744900000000    0.9629186300000000 O
   0.0020766100000000    0.9979233900000000    0.2500000000000000 O
   0.9979233900000000    0.0020766100000000    0.7500000000000000 O
   0.4100083700000000    0.5899916300000000    0.2500000000000000 O
   0.5165926700000000    0.8535444500000000    0.8662026300000000 O
   0.8535444500000000    0.5165926700000000    0.3662026300000000 O
   0.4834073300000000    0.1464555500000000    0.1337973700000000 O
   0.1464555500000000    0.4834073300000000    0.6337973700000000 O
   0.5899916300000000    0.4100083700000000    0.7500000000000000 O
