Ba6 Sr2 Sb4 O18
1.0
   6.0751161199999997   -0.0117342000000000   -0.0116992900000000
  -2.9973841600000002    5.3187589700000002    0.0232336800000000
  -0.5286198800000000   -0.5802384600000000   15.1830282400000005
Ba Sr Sb O
6 2 4 18
direct
   0.3091039100000000    0.6424707800000000    0.4080043200000000 Ba
   0.6908960900000000    0.3575292200000000    0.5919956800000000 Ba
   0.6514730700000000    0.3300629900000000    0.9012374600000000 Ba
   0.9781639600000001    0.9975257800000000    0.2509603000000000 Ba
   0.0218360400000000    0.0024742200000000    0.7490397000000000 Ba
   0.3485269300000000    0.6699370100000001    0.0987625400000000 Ba
   0.0000000000000000    0.0000000000000000    0.0000000000000000 Sr
   0.0000000000000000    0.0000000000000000    0.5000000000000000 Sr
   0.3007573300000000    0.6407968100000000    0.8442752300000000 Sb
   0.6374642400000000    0.3087535200000000    0.3431274200000000 Sb
   0.3625357600000000    0.6912464800000000    0.6568725800000000 Sb
   0.6992426700000000    0.3592031900000000    0.1557247700000000 Sb
   0.1986979200000000    0.4103218100000000    0.5709763500000000 O
   0.8814713000000000    0.2072744700000000    0.1039313100000000 O
   0.2719216800000000    0.9129078400000000    0.5934672700000000 O
   0.8013020800000000    0.5896781900000000    0.4290236500000000 O
   0.5699542700000000    0.7480931900000000    0.9353644900000000 O
   0.4540119300000000    0.4962249800000000    0.7545115300000000 O
   0.9144416000000000    0.6921047299999999    0.1103193100000000 O
   0.4300457300000000    0.2519068100000000    0.0646355100000000 O
   0.0855584000000000    0.3078952700000000    0.8896806900000001 O
   0.6977946800000000    0.8224362500000000    0.6115171800000000 O
   0.1185287000000000    0.7927255300000000    0.8960686900000000 O
   0.0487362900000000    0.5450268600000000    0.7305125000000000 O
   0.5459880700000000    0.5037750200000000    0.2454884700000000 O
   0.9512637100000000    0.4549731400000000    0.2694875000000000 O
   0.7280783199999999    0.0870921600000000    0.4065327300000000 O
   0.3022053200000000    0.1775637500000000    0.3884828200000000 O
   0.5025111700000000    0.0531295800000000    0.2338192100000000 O
   0.4974888300000000    0.9468704200000000    0.7661807899999999 O
