Cd4 B6 O13
1.0
  -3.9081783099999998    3.9081783099999998    3.9081783099999998
   3.9081783099999998   -3.9081783099999998    3.9081783099999998
   3.9081783099999998    3.9081783099999998   -3.9081783099999998
Cd B O
4 6 13
direct
   0.6831432700000000    0.0000000000000000    0.0000000000000000 Cd
   0.3168567300000000    0.3168567300000000    0.3168567300000000 Cd
   0.0000000000000000    0.6831432700000000    0.0000000000000000 Cd
   0.0000000000000000    0.0000000000000000    0.6831432700000000 Cd
   0.7500000000000000    0.5000000000000000    0.2500000000000000 B
   0.7500000000000000    0.2500000000000000    0.5000000000000000 B
   0.5000000000000000    0.2500000000000000    0.7500000000000000 B
   0.5000000000000000    0.7500000000000000    0.2500000000000000 B
   0.2500000000000000    0.7500000000000000    0.5000000000000000 B
   0.2500000000000000    0.5000000000000000    0.7500000000000000 B
   0.7080489100000000    0.0000000000000000    0.4157514700000000 O
   0.7080489100000000    0.4157514700000000    0.0000000000000000 O
   0.7077025600000000    0.2919510900000000    0.2919510900000000 O
   0.0000000000000000    0.0000000000000000    0.0000000000000000 O
   0.4157514700000000    0.7080489100000000    0.0000000000000000 O
   0.4157514700000000    0.0000000000000000    0.7080489100000000 O
   0.5842485300000000    0.2922974400000000    0.5842485300000000 O
   0.5842485300000000    0.5842485300000000    0.2922974400000000 O
   0.2919510900000000    0.2919510900000000    0.7077025600000000 O
   0.2919510900000000    0.7077025600000000    0.2919510900000000 O
   0.2922974400000000    0.5842485300000000    0.5842485300000000 O
   0.0000000000000000    0.7080489100000000    0.4157514700000000 O
   0.0000000000000000    0.4157514700000000    0.7080489100000000 O
