Nb4 Hg4 O14
1.0
   0.0003165800000000    5.2824287099999996    5.2824291099999998
   5.2824291900000002    0.0003165800000000    5.2824291099999998
   5.2824287099999996    5.2824282199999999    0.0003170600000000
Nb Hg O
4 4 14
direct
   0.6250001500000000    0.6250000300000000    0.1250000300000000 Nb
   0.6249999899999999    0.1250000500000000    0.6250000100000001 Nb
   0.1250000400000000    0.6249999800000000    0.6250001400000000 Nb
   0.6250000300000000    0.6250001300000000    0.6249999700000000 Nb
   0.1250002200000000    0.1250000600000000    0.6250000000000000 Hg
   0.1249999300000000    0.6250000200000000    0.1250000000000000 Hg
   0.6250000000000000    0.1249999800000000    0.1250002000000000 Hg
   0.1249999600000000    0.1250002500000000    0.1249998700000000 Hg
   0.2499991700000000    0.2499991700000000    0.2499991300000000 O
   0.0000004300000000    0.0000004800000000    0.0000004200000000 O
   0.5579293900000000    0.9420768200000000    0.5579294100000000 O
   0.3079293800000000    0.6920707500000000    0.3079293800000000 O
   0.5579296700000000    0.5579296500000001    0.9420765900000000 O
   0.9420766400000000    0.5579295800000000    0.5579296200000000 O
   0.5579281500000000    0.9420710700000000    0.9420711300000000 O
   0.9420711000000001    0.9420710799999999    0.5579281200000000 O
   0.9420712500000000    0.5579279600000000    0.9420712700000000 O
   0.6920709300000000    0.3079292600000000    0.3079292000000000 O
   0.3079232500000000    0.6920705800000000    0.6920706599999999 O
   0.6920705500000000    0.3079233200000000    0.6920705700000001 O
   0.3079291300000000    0.3079291700000000    0.6920710400000000 O
   0.6920706400000000    0.6920706100000000    0.3079232400000000 O
