Sc2 Ag2 P4 S12
1.0
   6.0920169299999998   -0.0000000000000000    0.0000000000000000
  -3.0460079699999998    5.2758414599999996    0.0000000000000000
   0.0000000000000000    0.0000000000000000   13.0353348400000009
Sc Ag P S
2 2 4 12
direct
   0.0000000000000000    0.0000000000000000    0.2500000000000000 Sc
   0.0000000000000000    0.0000000000000000    0.7500000000000000 Sc
   0.3333330000000000    0.6666670000000000    0.7500000000000000 Ag
   0.6666670000000000    0.3333330000000000    0.2500000000000000 Ag
   0.6666670000000000    0.3333330000000000    0.6653718500000000 P
   0.6666670000000000    0.3333330000000000    0.8346281500000000 P
   0.3333330000000000    0.6666670000000000    0.3346281500000000 P
   0.3333330000000000    0.6666670000000000    0.1653718500000000 P
   0.6658321500000000    0.6922733400000000    0.1223206800000000 S
   0.0264411900000000    0.6922733400000000    0.3776793200000000 S
   0.0264411900000000    0.3341678500000000    0.1223206800000000 S
   0.3341678500000000    0.3077266600000000    0.8776793200000000 S
   0.6922733400000000    0.0264411900000000    0.8776793200000000 S
   0.3341678500000000    0.0264411900000000    0.6223206800000000 S
   0.6922733400000000    0.6658321500000000    0.6223206800000000 S
   0.9735588100000000    0.3077266600000000    0.6223206800000000 S
   0.3077266600000000    0.9735588100000000    0.1223206800000000 S
   0.6658321500000000    0.9735588100000000    0.3776793200000000 S
   0.9735588100000000    0.6658321500000000    0.8776793200000000 S
   0.3077266600000000    0.3341678500000000    0.3776793200000000 S
