Na2 Y2 Ti4 O12
1.0
   7.6053636500000001    0.0000000000000000    0.0000000000000000
   0.0000000000000000    5.5112285800000000    0.0000000000000000
   0.0000000000000000    0.0000000000000000    5.2969622200000002
Na Y Ti O
2 2 4 12
direct
   0.5000000000000000    0.7111359900000001    0.4921608900000000 Na
   0.0000000000000000    0.2888640100000000    0.9921608900000000 Na
   0.5000000000000000    0.1802999100000000    0.0168155100000000 Y
   0.0000000000000000    0.8197000900000000    0.5168155100000000 Y
   0.2494712700000000    0.2605418700000000    0.5033009300000000 Ti
   0.7494712700000000    0.7394581300000000    0.0033009300000000 Ti
   0.7505287300000000    0.2605418700000000    0.5033009300000000 Ti
   0.2505287300000000    0.7394581300000000    0.0033009300000000 Ti
   0.5000000000000000    0.7786568600000000    0.9168351200000000 O
   0.5000000000000000    0.2794782600000000    0.6079649400000000 O
   0.0000000000000000    0.7205217400000000    0.1079649400000000 O
   0.0000000000000000    0.2213431400000000    0.4168351200000000 O
   0.3051980900000000    0.4426118600000000    0.1907189400000000 O
   0.7054484800000000    0.9620497000000000    0.2890909100000000 O
   0.7945515200000000    0.0379503000000000    0.7890909100000000 O
   0.1948019100000000    0.5573881400000000    0.6907189400000000 O
   0.2054484800000000    0.0379503000000000    0.7890909100000000 O
   0.8051980900000000    0.5573881400000000    0.6907189400000000 O
   0.6948019100000000    0.4426118600000000    0.1907189400000000 O
   0.2945515200000000    0.9620497000000000    0.2890909100000000 O
