Ba6 Te4 O18
1.0
   5.8636604700000001    0.0000000000000000    0.0000000000000000
  -2.9318302300000001    5.0780789400000002    0.0000000000000000
   0.0000000000000000    0.0000000000000000   14.3409983299999997
Ba Te O
6 4 18
direct
   0.6666670000000000    0.3333330000000000    0.9389791199999999 Ba
   0.3333330000000000    0.6666670000000000    0.4389791200000000 Ba
   0.3333330000000000    0.6666670000000000    0.0610208800000000 Ba
   0.6666670000000000    0.3333330000000000    0.5610208800000001 Ba
   0.3333330000000000    0.6666670000000000    0.7500000000000000 Ba
   0.6666670000000000    0.3333330000000000    0.2500000000000000 Ba
   0.0000000000000000    0.0000000000000000    0.8509215100000000 Te
   0.0000000000000000    0.0000000000000000    0.3509215100000000 Te
   0.0000000000000000    0.0000000000000000    0.1490784900000000 Te
   0.0000000000000000    0.0000000000000000    0.6490784900000000 Te
   0.1654658700000000    0.3309317400000000    0.9094431400000000 O
   0.6690682600000000    0.8345341300000000    0.9094431400000000 O
   0.1654658700000000    0.8345341300000000    0.9094431400000000 O
   0.8345341300000000    0.1654658700000000    0.4094431400000000 O
   0.3309317400000000    0.1654658700000000    0.0905568600000000 O
   0.8345341300000000    0.6690682600000000    0.4094431400000000 O
   0.3309317400000000    0.1654658700000000    0.4094431400000000 O
   0.1654658700000000    0.3309317400000000    0.5905568600000000 O
   0.1654658700000000    0.8345341300000000    0.5905568600000000 O
   0.8345341300000000    0.1654658700000000    0.0905568600000000 O
   0.2884033500000000    0.1442016700000000    0.7500000000000000 O
   0.1442016700000000    0.2884033500000000    0.2500000000000000 O
   0.1442016700000000    0.8557983300000001    0.2500000000000000 O
   0.8557983300000001    0.1442016700000000    0.7500000000000000 O
   0.8557983300000001    0.7115966500000001    0.7500000000000000 O
   0.7115966500000001    0.8557983300000001    0.2500000000000000 O
   0.6690682600000000    0.8345341300000000    0.5905568600000000 O
   0.8345341300000000    0.6690682600000000    0.0905568600000000 O
