Ta4 Cd4 O14
1.0
   0.0000000000000000    5.2069101900000003    5.2069101900000003
   5.2069101900000003    0.0000000000000000    5.2069101900000003
   5.2069101900000003    5.2069101900000003    0.0000000000000000
Ta Cd O
4 4 14
direct
   0.6250000000000000    0.6250000000000000    0.6250000000000000 Ta
   0.1250000000000000    0.6250000000000000    0.6250000000000000 Ta
   0.6250000000000000    0.6250000000000000    0.1250000000000000 Ta
   0.6250000000000000    0.1250000000000000    0.6250000000000000 Ta
   0.1250000000000000    0.1250000000000000    0.1250000000000000 Cd
   0.6250000000000000    0.1250000000000000    0.1250000000000000 Cd
   0.1250000000000000    0.1250000000000000    0.6250000000000000 Cd
   0.1250000000000000    0.6250000000000000    0.1250000000000000 Cd
   0.5560865699999999    0.5560865699999999    0.9439134300000001 O
   0.3060865700000000    0.3060865700000000    0.6939134300000001 O
   0.9439134300000001    0.5560865699999999    0.9439134300000001 O
   0.9439134300000001    0.5560865699999999    0.5560865699999999 O
   0.5560865699999999    0.9439134300000001    0.9439134300000001 O
   0.5560865699999999    0.9439134300000001    0.5560865699999999 O
   0.3060865700000000    0.6939134300000001    0.3060865700000000 O
   0.6939134300000001    0.3060865700000000    0.6939134300000001 O
   0.2500000000000000    0.2500000000000000    0.2500000000000000 O
   0.0000000000000000    0.0000000000000000    0.0000000000000000 O
   0.9439134300000001    0.9439134300000001    0.5560865699999999 O
   0.6939134300000001    0.3060865700000000    0.3060865700000000 O
   0.3060865700000000    0.6939134300000001    0.6939134300000001 O
   0.6939134300000001    0.6939134300000001    0.3060865700000000 O
