Cs4 Te2 O6
1.0
   6.7553724099999997    0.0000000000000000    0.0000000000000000
  -3.3776861999999999    5.8503243800000000    0.0000000000000000
   0.0000000000000000    0.0000000000000000    7.8663439899999998
Cs Te O
4 2 6
direct
   0.0000000000000000    0.0000000000000000    0.0000000000000000 Cs
   0.6666670000000000    0.3333330000000000    0.6346179100000000 Cs
   0.3333330000000000    0.6666670000000000    0.3653820900000000 Cs
   0.0000000000000000    0.0000000000000000    0.5000000000000000 Cs
   0.6666670000000000    0.3333330000000000    0.1600876300000000 Te
   0.3333330000000000    0.6666670000000000    0.8399123700000000 Te
   0.1345234100000000    0.7454369199999999    0.7325634100000000 O
   0.3890864900000000    0.2545630800000000    0.2674365900000000 O
   0.7454369199999999    0.1345234100000000    0.2674365900000000 O
   0.8654765900000000    0.6109135100000000    0.2674365900000000 O
   0.2545630800000000    0.3890864900000000    0.7325634100000000 O
   0.6109135100000000    0.8654765900000000    0.7325634100000000 O
