Tl3 V1 S4
1.0
  -3.7158234399999999    3.7158234399999999    3.7158234399999999
   3.7158234399999999   -3.7158234399999999    3.7158234399999999
   3.7158234399999999    3.7158234399999999   -3.7158234399999999
Tl V S
3 1 4
direct
   0.0000000000000000    0.5000000000000000    0.5000000000000000 Tl
   0.5000000000000000    0.0000000000000000    0.5000000000000000 Tl
   0.5000000000000000    0.5000000000000000    0.0000000000000000 Tl
   0.0000000000000000    0.0000000000000000    0.0000000000000000 V
   0.3358551400000000    0.0000000000000000    0.0000000000000000 S
   0.0000000000000000    0.3358551400000000    0.0000000000000000 S
   0.0000000000000000    0.0000000000000000    0.3358551400000000 S
   0.6641448599999999    0.6641448599999999    0.6641448599999999 S
