Sc4 S2 O4
1.0
   3.4967033999999999    0.0000000000000000    0.0000000000000000
  -1.7483517000000000    3.0282345099999999    0.0000000000000000
   0.0000000000000000    0.0000000000000000   12.3841373499999996
Sc S O
4 2 4
direct
   0.6666670000000000    0.3333330000000000    0.1068508600000000 Sc
   0.3333330000000000    0.6666670000000000    0.6068508600000000 Sc
   0.3333330000000000    0.6666670000000000    0.8931491400000000 Sc
   0.6666670000000000    0.3333330000000000    0.3931491400000000 Sc
   0.0000000000000000    0.0000000000000000    0.7500000000000000 S
   0.0000000000000000    0.0000000000000000    0.2500000000000000 S
   0.3333330000000000    0.6666670000000000    0.0654551900000000 O
   0.6666670000000000    0.3333330000000000    0.5654551900000000 O
   0.6666670000000000    0.3333330000000000    0.9345448100000000 O
   0.3333330000000000    0.6666670000000000    0.4345448100000000 O
