Mg4 Te3 Se1
1.0
   4.4804944400000002    0.0000000000000000    0.0000000000000000
   0.0000000000000000    4.4804944400000002    0.0000000000000000
   0.0000000000000000    0.0000000000000000   12.5253470799999995
Mg Te Se
4 3 1
direct
   0.5000000000000000    0.0000000000000000    0.6073162200000000 Mg
   0.0000000000000000    0.5000000000000000    0.3926837800000000 Mg
   0.5000000000000000    0.0000000000000000    0.1313512000000000 Mg
   0.0000000000000000    0.5000000000000000    0.8686488000000000 Mg
   0.5000000000000000    0.5000000000000000    0.2622828100000000 Te
   0.0000000000000000    0.0000000000000000    0.0000000000000000 Te
   0.5000000000000000    0.5000000000000000    0.7377171900000000 Te
   0.0000000000000000    0.0000000000000000    0.5000000000000000 Se
