Ba2 Ca1 B2 O6
1.0
   4.8332716800000002   -2.7170339100000001    0.0066338800000000
   4.8332716800000002    2.7170339100000001    0.0066338800000000
  -3.2821732199999998    0.0000000000000000    5.7211752799999998
Ba Ca B O
2 1 2 6
direct
   0.2115607800000000    0.2115607800000000    0.6853732600000000 Ba
   0.7884392200000000    0.7884392200000000    0.3146267400000000 Ba
   0.0000000000000000    0.0000000000000000    0.0000000000000000 Ca
   0.5623984200000000    0.5623984200000000    0.7543460600000000 B
   0.4376015800000000    0.4376015800000000    0.2456539400000000 B
   0.7237834800000000    0.7237834800000000    0.8258732500000000 O
   0.2976501500000000    0.7396872000000000    0.2745347900000000 O
   0.2603128000000000    0.7023498500000001    0.7254652100000000 O
   0.2762165200000000    0.2762165200000000    0.1741267500000000 O
   0.7396872000000000    0.2976501500000000    0.2745347900000000 O
   0.7023498500000001    0.2603128000000000    0.7254652100000000 O
