Na4 Ti5 O12
1.0
   5.3401858200000003    0.0000006900000000    0.0000000000000000
  -2.6700935100000001    4.6247366100000002    0.0000000000000000
   0.0000000000000000    0.0000000000000000    9.6413754899999997
Na Ti O
4 5 12
direct
   0.6666670000000000    0.3333330000000000    0.9100250300000000 Na
   0.3333330000000000    0.6666670000000000    0.0899749700000000 Na
   0.0000000000000000    0.0000000000000000    0.3061931300000000 Na
   0.0000000000000000    0.0000000000000000    0.6938068700000000 Na
   0.3333330000000000    0.6666670000000000    0.4753076700000000 Ti
   0.0000000000000000    0.0000000000000000    0.0000000000000000 Ti
   0.3333330000000000    0.6666670000000000    0.7788040000000001 Ti
   0.6666670000000000    0.3333330000000000    0.5246923300000000 Ti
   0.6666670000000000    0.3333330000000000    0.2211960000000000 Ti
   0.4207275000000000    0.0207108600000000    0.3787258400000000 O
   0.5999843600000000    0.5792725000000000    0.3787258400000000 O
   0.9792891400000000    0.4000156400000000    0.3787258400000000 O
   0.7546556400000000    0.0858860300000000    0.1216333500000000 O
   0.9141139700000001    0.6687696100000000    0.1216333500000000 O
   0.0207108600000000    0.5999843600000000    0.6212741600000000 O
   0.6687696100000000    0.7546556400000000    0.8783666500000000 O
   0.0858860300000000    0.3312303900000000    0.8783666500000000 O
   0.5792725000000000    0.9792891400000000    0.6212741600000000 O
   0.3312303900000000    0.2453443600000000    0.1216333500000000 O
   0.4000156400000000    0.4207275000000000    0.6212741600000000 O
   0.2453443600000000    0.9141139700000001    0.8783666500000000 O
