Na4 Sc4 B8 O20
1.0
   7.1681062799999999    0.0000000000000000    0.0346449100000000
   0.0000000000000000    9.7531153400000008    0.0000000000000000
  -1.8470654700000000    0.0000000000000000    5.5601601499999997
Na Sc B O
4 4 8 20
direct
   0.7856870200000000    0.4129373800000000    0.3138177400000000 Na
   0.7856870200000000    0.0870626200000000    0.8138177400000000 Na
   0.2143129800000000    0.9129373800000000    0.1861822600000000 Na
   0.2143129800000000    0.5870626200000000    0.6861822600000000 Na
   0.2450223400000000    0.1736969200000000    0.7906199900000001 Sc
   0.7549776600000000    0.8263030800000000    0.2093800100000000 Sc
   0.2450223400000000    0.3263030800000000    0.2906199900000000 Sc
   0.7549776600000000    0.6736969200000000    0.7093800099999999 Sc
   0.9075215800000000    0.3812423700000000    0.8419466600000000 B
   0.0924784200000000    0.8812423700000001    0.6580533400000000 B
   0.0924784200000000    0.6187576299999999    0.1580533400000000 B
   0.5492183100000000    0.0896059300000000    0.2625190100000000 B
   0.5492183100000000    0.4103940700000000    0.7625190100000000 B
   0.9075215800000000    0.1187576300000000    0.3419466600000000 B
   0.4507816900000000    0.9103940700000001    0.7374809900000000 B
   0.4507816900000000    0.5896059299999999    0.2374809900000000 B
   0.2741463800000000    0.6642453800000000    0.1378713200000000 O
   0.0783612100000000    0.5013854700000000    0.2756873900000000 O
   0.0610938700000000    0.2916399200000000    0.9352504699999999 O
   0.7258536200000000    0.1642453800000000    0.3621286800000000 O
   0.6204252600000000    0.6643383899999999    0.3332182400000000 O
   0.4529499100000000    0.0487045400000000    0.7363404900000000 O
   0.6204252600000000    0.8356616100000001    0.8332182400000000 O
   0.0783612100000000    0.9986145300000000    0.7756873900000000 O
   0.7258536200000000    0.3357546200000000    0.8621286800000000 O
   0.0610938700000000    0.2083600800000000    0.4352504700000000 O
   0.3795747400000000    0.3356616100000000    0.6667817600000000 O
   0.5470500900000000    0.9512954600000000    0.2636595100000000 O
   0.4529499100000000    0.4512954600000000    0.2363404900000000 O
   0.9216387900000000    0.4986145300000000    0.7243126100000000 O
   0.5470500900000000    0.5487045400000000    0.7636595100000000 O
   0.9389061300000000    0.7916399200000001    0.5647495300000001 O
   0.9389061300000000    0.7083600799999999    0.0647495300000000 O
   0.9216387900000000    0.0013854700000000    0.2243126100000000 O
   0.2741463800000000    0.8357546200000000    0.6378713200000000 O
   0.3795747400000000    0.1643383900000000    0.1667817600000000 O
