Li4 Zr2 O6
1.0
   2.6944686099999999   -4.5353026700000001    0.0001254700000000
   2.6944686099999999    4.5353026700000001    0.0001254700000000
  -2.0358700700000001    0.0000000000000000    5.0306307099999996
Li Zr O
4 2 6
direct
   0.2589473600000000    0.7410526400000000    0.7500000000000000 Li
   0.7410526400000000    0.2589473600000000    0.2500000000000000 Li
   0.5751677800000000    0.4248322200000000    0.7500000000000000 Li
   0.4248322200000000    0.5751677800000000    0.2500000000000000 Li
   0.9089794600000000    0.0910205400000000    0.7500000000000000 Zr
   0.0910205400000000    0.9089794600000000    0.2500000000000000 Zr
   0.0000000000000000    0.5000000000000000    0.0000000000000000 O
   0.3079528900000000    0.1558620800000000    0.0123687900000000 O
   0.1558620800000000    0.3079528900000000    0.5123687900000000 O
   0.6920471100000000    0.8441379200000000    0.9876312100000000 O
   0.8441379200000000    0.6920471100000000    0.4876312100000000 O
   0.5000000000000000    0.0000000000000000    0.5000000000000000 O
