Ba4 Hf4 S12
1.0
   8.6137312399999999    0.0000000000000000    0.0000000000000000
   0.0000000000000000    3.8731320000000000    0.0000000000000000
   0.0000000000000000    0.0000000000000000   14.3696802300000002
Ba Hf S
4 4 12
direct
   0.0682081700000000    0.7500000000000000    0.1747860100000000 Ba
   0.9317918300000000    0.2500000000000000    0.8252139900000000 Ba
   0.5682081700000000    0.7500000000000000    0.3252139900000000 Ba
   0.4317918300000000    0.2500000000000000    0.6747860100000000 Ba
   0.1634943800000000    0.2500000000000000    0.4413986200000000 Hf
   0.8365056199999999    0.7500000000000000    0.5586013800000000 Hf
   0.6634943800000001    0.2500000000000000    0.0586013800000000 Hf
   0.3365056200000000    0.7500000000000000    0.9413986200000000 Hf
   0.3313652900000000    0.7500000000000000    0.5038742300000000 S
   0.6686347100000000    0.2500000000000000    0.4961257700000000 S
   0.8313652900000000    0.7500000000000000    0.9961257700000000 S
   0.1686347100000000    0.2500000000000000    0.0038742300000000 S
   0.0254970400000000    0.2500000000000000    0.6041221000000000 S
   0.9745029600000000    0.7500000000000000    0.3958779000000000 S
   0.5254970400000000    0.2500000000000000    0.8958779000000000 S
   0.4745029600000000    0.7500000000000000    0.1041221000000000 S
   0.2863987700000000    0.2500000000000000    0.2872988600000000 S
   0.7136012300000000    0.7500000000000000    0.7127011400000000 S
   0.7863987700000000    0.2500000000000000    0.2127011400000000 S
   0.2136012300000000    0.7500000000000000    0.7872988600000000 S
