Cs4 Ge2 P8 O26
1.0
   5.0110176500000003    0.0066209800000000   -0.0107560500000000
   1.2765575199999999    7.8353457600000000   -0.0279481700000000
   1.5641033900000001    1.2418876800000000   15.7363973700000006
Cs Ge P O
4 2 8 26
direct
   0.2729520400000000    0.3032797300000000    0.0284137200000000 Cs
   0.6758935300000000    0.7453354700000000    0.4886198700000000 Cs
   0.7270479600000000    0.6967202700000000    0.9715862800000000 Cs
   0.3241064700000000    0.2546645300000000    0.5113801300000000 Cs
   0.5482650600000000    0.9348607400000000    0.2415988100000000 Ge
   0.4517349400000000    0.0651392600000000    0.7584011899999999 Ge
   0.6655373400000000    0.4099554700000000    0.6942169400000000 P
   0.3172266700000000    0.6865842599999999    0.7873448100000000 P
   0.3344626600000000    0.5900445300000000    0.3057830600000000 P
   0.6827733300000000    0.3134157400000000    0.2126551900000000 P
   0.9824718000000000    0.0858798200000000    0.3362987200000000 P
   0.0175282000000000    0.9141201799999999    0.6637012799999999 P
   0.1109306200000000    0.7787009300000000    0.1521542800000000 P
   0.8890693800000000    0.2212990700000000    0.8478457200000000 P
   0.8084749300000000    0.4214620300000000    0.6083955300000000 O
   0.5517068899999999    0.7077341400000000    0.2913836300000000 O
   0.2057290100000000    0.6977825300000000    0.0713569700000000 O
   0.8807550800000000    0.1537399800000000    0.4196285900000000 O
   0.9485092899999999    0.2380285200000000    0.2595035400000000 O
   0.4492688500000000    0.8382028400000000    0.8080469600000000 O
   0.2693138400000000    0.9217322500000000    0.1714283500000000 O
   0.8302542900000000    0.9447124300000000    0.3115104600000000 O
   0.2917390700000000    0.0202875100000000    0.3309002000000000 O
   0.1369542800000000    0.6346282000000000    0.2317318300000000 O
   0.7396794300000000    0.4327495100000000    0.1388300300000000 O
   0.7082609300000000    0.9797124900000000    0.6690998000000000 O
   0.4860534500000000    0.4007719200000000    0.2881501500000000 O
   0.1953260500000000    0.1480432400000000    0.8463318100000000 O
   0.5139465500000000    0.5992280800000001    0.7118498500000000 O
   0.1192449200000000    0.8462600200000000    0.5803714100000000 O
   0.7306861600000000    0.0782677500000000    0.8285716500000000 O
   0.0514907100000000    0.7619714800000000    0.7404964600000000 O
   0.1915250700000000    0.5785379700000000    0.3916044700000000 O
   0.8046739500000000    0.8519567600000000    0.1536681900000000 O
   0.2603205700000000    0.5672504900000001    0.8611699700000000 O
   0.1697457100000000    0.0552875700000000    0.6884895400000000 O
   0.8630457200000000    0.3653718000000000    0.7682681700000000 O
   0.5507311499999999    0.1617971600000000    0.1919530400000000 O
   0.7942709900000000    0.3022174700000000    0.9286430300000000 O
   0.4482931100000000    0.2922658600000000    0.7086163700000000 O
