Mg1 Cd1 C2 O6
1.0
   2.4012089200000002    1.3863388400000001    5.1559865299999998
  -2.4012089599999999    1.3863387800000000    5.1559865299999998
   0.0000000400000000   -2.7726766399999998    5.1559865299999998
Mg Cd C O
1 1 2 6
direct
   0.5000000000000000    0.5000000000000000    0.5000000000000000 Mg
   0.0000000000000000    0.0000000000000000    0.0000000000000000 Cd
   0.2449421800000000    0.2449421800000000    0.2449421800000000 C
   0.7550578200000000    0.7550578200000000    0.7550578200000000 C
   0.4992437600000000    0.9629718500000000    0.2737713200000000 O
   0.9629718500000000    0.2737713200000000    0.4992437600000000 O
   0.2737713200000000    0.4992437600000000    0.9629718500000000 O
   0.5007562400000000    0.0370281500000000    0.7262286800000000 O
   0.0370281500000000    0.7262286800000000    0.5007562400000000 O
   0.7262286800000000    0.5007562400000000    0.0370281500000000 O
