Cs2 Y2 W4 O16
1.0
   5.3929956399999996   -5.2861953200000000   -0.0222317600000000
   5.3929956399999996    5.2861953200000000   -0.0222317600000000
  -4.7922932600000001    0.0000000000000000    5.7339333899999998
Cs Y W O
2 2 4 16
direct
   0.8024063800000000    0.1975936200000000    0.7500000000000000 Cs
   0.1975936200000000    0.8024063800000000    0.2500000000000000 Cs
   0.2252270400000000    0.7747729600000000    0.7500000000000000 Y
   0.7747729600000000    0.2252270400000000    0.2500000000000000 Y
   0.3022757900000000    0.3122298100000000    0.7805341099999999 W
   0.6977242100000000    0.6877701899999999    0.2194658900000000 W
   0.6877701899999999    0.6977242100000000    0.7194658900000001 W
   0.3122298100000000    0.3022757900000000    0.2805341100000000 W
   0.3790967400000000    0.2509243000000000    0.5645625600000000 O
   0.6209032600000000    0.7490757000000000    0.4354374400000000 O
   0.7490757000000000    0.6209032600000000    0.9354374400000000 O
   0.2509243000000000    0.3790967400000000    0.0645625600000000 O
   0.6299024100000000    0.9392527400000000    0.8753054400000000 O
   0.3700975900000000    0.0607472600000000    0.1246945600000000 O
   0.0607472600000000    0.3700975900000000    0.6246945600000000 O
   0.9392527400000000    0.6299024100000000    0.3753054400000000 O
   0.4090948500000000    0.6279006800000000    0.9641278500000000 O
   0.5909051500000000    0.3720993200000000    0.0358721500000000 O
   0.3720993200000000    0.5909051500000000    0.5358721500000000 O
   0.6279006800000000    0.4090948500000000    0.4641278500000000 O
   0.2223919000000000    0.0509048200000000    0.7030262000000000 O
   0.7776081000000000    0.9490951800000000    0.2969738000000000 O
   0.9490951800000000    0.7776081000000000    0.7969738000000000 O
   0.0509048200000000    0.2223919000000000    0.2030262000000000 O
