Cs2 Zn2 B2 P4 O16
1.0
   7.5469885899999998    0.0244536100000000    0.0393186400000000
  -1.9847372299999999    7.5786236999999996    0.0022140800000000
  -1.7933107699999999   -4.2972757100000001    6.4641289600000000
Cs Zn B P O
2 2 2 4 16
direct
   0.2634396900000000    0.6532820000000000    0.4078709000000000 Cs
   0.7365603100000000    0.3467180000000000    0.5921291000000000 Cs
   0.2016314100000000    0.2920288000000000    0.7412060700000001 Zn
   0.7983685900000000    0.7079712000000000    0.2587939300000000 Zn
   0.7028990700000000    0.9351713000000000    0.9317441400000001 B
   0.2971009300000000    0.0648287000000000    0.0682558600000000 B
   0.5540524300000000    0.2302114000000000    0.9331905800000000 P
   0.9624724900000000    0.9009878400000000    0.7263435300000000 P
   0.0375275100000000    0.0990121600000000    0.2736564700000000 P
   0.4459475700000000    0.7697886000000000    0.0668094200000000 P
   0.3969775200000000    0.9681764400000000    0.1543810100000000 O
   0.0977104500000000    0.2815807400000000    0.4945880900000000 O
   0.4527581500000000    0.2395741800000000    0.0873560500000000 O
   0.7433409000000000    0.4311071800000000    0.0476208200000000 O
   0.6030224800000000    0.0318235600000000    0.8456189900000000 O
   0.5903099900000000    0.8012124500000000    0.2583025000000000 O
   0.9899351700000000    0.1134611600000000    0.7560354500000001 O
   0.0100648300000000    0.8865388400000001    0.2439645500000000 O
   0.9022895500000000    0.7184192600000000    0.5054119100000000 O
   0.2016136900000000    0.1705916800000000    0.2009474900000000 O
   0.5472418500000000    0.7604258200000000    0.9126439500000000 O
   0.4096900100000000    0.1987875500000000    0.7416975000000000 O
   0.1583851100000000    0.9062149200000000    0.8533528100000000 O
   0.2566591000000000    0.5688928200000000    0.9523791800000000 O
   0.7983863100000000    0.8294083200000000    0.7990525100000000 O
   0.8416148900000000    0.0937850800000000    0.1466471900000000 O
