Ag2 Bi2 P4 S12
1.0
   6.3441658600000004    0.0005184400000000    0.0002236600000000
  -0.7521579400000000    7.0930746600000001   -0.0002658600000000
  -0.1289822500000000   -0.4862726500000000    9.5426533599999992
Ag Bi P S
2 2 4 12
direct
   0.0640888300000000    0.0067651600000000    0.3055575500000000 Ag
   0.9359111700000000    0.9932348400000000    0.6944424500000000 Ag
   0.5350938300000000    0.3787262200000000    0.7691745800000001 Bi
   0.4649061700000000    0.6212737800000000    0.2308254200000000 Bi
   0.9444096800000000    0.6098075600000000    0.0725783400000000 P
   0.4359275900000000    0.8817366100000000    0.5658093400000000 P
   0.5640724100000000    0.1182633900000000    0.4341906600000000 P
   0.0555903200000000    0.3901924400000000    0.9274216600000000 P
   0.1880418600000000    0.8211681700000000    0.0817065400000000 S
   0.6790822600000000    0.7246344900000000    0.5934524600000000 S
   0.1252802400000000    0.5140060500000000    0.7469396500000000 S
   0.3209177400000000    0.2753655100000000    0.4065475400000000 S
   0.6863287200000000    0.6991509900000000    0.9752773100000000 S
   0.6715077200000000    0.9910492800000000    0.2548239100000000 S
   0.8119581400000000    0.1788318300000000    0.9182934600000000 S
   0.3284922800000000    0.0089507200000000    0.7451760900000000 S
   0.8747197600000000    0.4859939500000000    0.2530603500000000 S
   0.3136712800000000    0.3008490100000000    0.0247226900000000 S
   0.8060805599999999    0.2622186700000000    0.5487439200000001 S
   0.1939194400000000    0.7377813300000000    0.4512560800000000 S
