Ba2 Sc1 Ta1 O6
1.0
   0.0000000000000000    4.1094803700000000    4.1094803700000000
   4.1094803700000000    0.0000000000000000    4.1094803700000000
   4.1094803700000000    4.1094803700000000    0.0000000000000000
Ba Sc Ta O
2 1 1 6
direct
   0.2500000000000000    0.2500000000000000    0.2500000000000000 Ba
   0.7500000000000000    0.7500000000000000    0.7500000000000000 Ba
   0.5000000000000000    0.5000000000000000    0.5000000000000000 Sc
   0.0000000000000000    0.0000000000000000    0.0000000000000000 Ta
   0.7558556000000000    0.2441444000000000    0.2441444000000000 O
   0.2441444000000000    0.7558556000000000    0.7558556000000000 O
   0.2441444000000000    0.7558556000000000    0.2441444000000000 O
   0.7558556000000000    0.2441444000000000    0.7558556000000000 O
   0.2441444000000000    0.2441444000000000    0.7558556000000000 O
   0.7558556000000000    0.7558556000000000    0.2441444000000000 O
