Ag2 Hg2 As2 S6
1.0
   3.3264416500000000   -5.5984881199999998   -0.0644929800000000
   3.3264416500000000    5.5984881199999998   -0.0644929800000000
  -3.2166988100000000    0.0000000000000000    6.9082891599999998
Ag Hg As S
2 2 2 6
direct
   0.9779358000000000    0.0278266400000000    0.7555969900000000 Ag
   0.0278266400000000    0.9779358000000000    0.2555969900000000 Ag
   0.3445783400000000    0.7147499899999999    0.7922407800000000 Hg
   0.7147499899999999    0.3445783400000000    0.2922407800000000 Hg
   0.6623856299999999    0.3658133600000000    0.7781861900000000 As
   0.3658133600000000    0.6623856299999999    0.2781861900000000 As
   0.0206132400000000    0.7653438299999999    0.9358438500000000 S
   0.7653438299999999    0.0206132400000000    0.4358438500000000 S
   0.1810304300000000    0.7628659300000000    0.4802267300000000 S
   0.4360711300000000    0.4219846900000000    0.4255064600000000 S
   0.4219846900000000    0.4360711300000000    0.9255064600000000 S
   0.7628659300000000    0.1810304300000000    0.9802267300000000 S
