Rb4 Al4 Si4 O16
1.0
   8.7447945399999991    0.0000000000000000    0.0000000000000000
   0.0000000000000000    9.2163505499999996    0.0000000000000000
   0.0000000000000000    0.0000000000000000    5.3301202600000002
Rb Al Si O
4 4 4 16
direct
   0.0011161200000000    0.2933359200000000    0.4892618100000000 Rb
   0.9988838799999999    0.7066640800000000    0.9892618100000000 Rb
   0.4988838800000000    0.7933359200000000    0.9892618100000000 Rb
   0.5011161200000001    0.2066640800000000    0.4892618100000000 Rb
   0.8116568300000000    0.0827436600000000    0.0113059600000000 Al
   0.1883431700000000    0.9172563400000000    0.5113059599999999 Al
   0.6883431700000000    0.5827436600000000    0.5113059599999999 Al
   0.3116568300000000    0.4172563400000000    0.0113059600000000 Al
   0.6946159000000000    0.4163862400000000    0.0118037600000000 Si
   0.3053841000000000    0.5836137600000000    0.5118037600000001 Si
   0.8053841000000000    0.9163862400000000    0.5118037600000001 Si
   0.1946159000000000    0.0836137600000000    0.0118037600000000 Si
   0.7528348100000000    0.2563415100000000    0.0991016200000000 O
   0.2471651900000000    0.7436584899999999    0.5991016200000000 O
   0.7471651900000000    0.7563415100000001    0.5991016200000000 O
   0.2528348100000000    0.2436584900000000    0.0991016200000000 O
   0.7598305500000000    0.5356728800000000    0.2141604600000000 O
   0.2401694500000000    0.4643271200000000    0.7141604600000000 O
   0.7401694500000000    0.0356728800000000    0.7141604600000000 O
   0.2598305500000000    0.9643271200000000    0.2141604600000000 O
   0.7603748000000000    0.4578168900000000    0.7328974700000001 O
   0.2396252000000000    0.5421831100000000    0.2328974700000000 O
   0.7396252000000000    0.9578168900000000    0.2328974700000000 O
   0.2603748000000000    0.0421831100000000    0.7328974700000001 O
   0.0096560000000000    0.0835773900000000    0.0091989300000000 O
   0.9903440000000000    0.9164226100000000    0.5091989300000000 O
   0.4903440000000000    0.5835773900000000    0.5091989300000000 O
   0.5096560000000000    0.4164226100000000    0.0091989300000000 O
