Ba3 B3 As3 O15
1.0
   7.3336270399999997    0.0000000000000000    0.0000000000000000
  -3.6668135199999998    6.3511074499999998    0.0000000000000000
   0.0000000000000000    0.0000000000000000    7.1270503300000003
Ba B As O
3 3 3 15
direct
   0.3894413400000000    0.3894413400000000    0.5000000000000000 Ba
   0.0000000000000000    0.6105586600000000    0.1666670000000000 Ba
   0.6105586600000000    0.0000000000000000    0.8333330000000000 Ba
   0.9025774200000000    0.9025774200000000    0.5000000000000000 B
   0.0000000000000000    0.0974225800000000    0.1666670000000000 B
   0.0974225800000000    0.0000000000000000    0.8333330000000000 B
   0.6034194200000000    0.0000000000000000    0.3333330000000000 As
   0.3965805800000000    0.3965805800000000    0.0000000000000000 As
   1.0000000000000000    0.6034194200000000    0.6666670000000000 As
   0.9726617100000000    0.9726617100000000    0.0000000000000000 O
   0.0273382900000000    0.0000000000000000    0.3333330000000000 O
   0.0000000000000000    0.0273382900000000    0.6666670000000000 O
   0.5643675100000000    0.1508366000000000    0.4858099400000000 O
   0.5864690900000000    0.4356324900000000    0.1524769400000000 O
   0.8491634000000000    0.4135309100000000    0.8191429400000000 O
   0.1459376800000000    0.8218063700000000    0.8124991100000000 O
   0.1781936300000000    0.3241313100000000    0.1458321100000000 O
   0.6758686900000000    0.8540623200000000    0.4791661100000000 O
   0.1508366000000000    0.5643675100000000    0.5141900600000000 O
   0.4356324900000000    0.5864690900000000    0.8475230600000000 O
   0.4135309100000000    0.8491634000000000    0.1808570600000000 O
   0.8540623200000000    0.6758686900000000    0.5208338900000000 O
   0.3241313100000000    0.1781936300000000    0.8541678900000000 O
   0.8218063700000000    0.1459376800000000    0.1875008900000000 O
