Li2 Y2 W4 O16
1.0
   4.9987001900000001    0.0000000000000000   -0.0163008600000000
   0.0000000000000000    5.8487596100000001    0.0000000000000000
  -4.4005658600000004    0.0000000000000000    9.9221657899999993
Li Y W O
2 2 4 16
direct
   0.5000000000000000    0.2614640800000000    0.2500000000000000 Li
   0.5000000000000000    0.7385359200000000    0.7500000000000000 Li
   0.0000000000000000    0.6797727600000000    0.2500000000000000 Y
   0.0000000000000000    0.3202272400000000    0.7500000000000000 Y
   0.7652069000000000    0.1739186900000000    0.0137447600000000 W
   0.2347931000000000    0.8260813100000000    0.9862552400000000 W
   0.2347931000000000    0.1739186900000000    0.4862552400000000 W
   0.7652069000000000    0.8260813100000000    0.5137447600000000 W
   0.2178600800000000    0.6286003900000000    0.1096894300000000 O
   0.7821399200000000    0.3713996100000000    0.8903105700000000 O
   0.7821399200000000    0.6286003900000000    0.3903105700000000 O
   0.2178600800000000    0.3713996100000000    0.6096894300000000 O
   0.7312002600000000    0.3648857200000000    0.1357795000000000 O
   0.2687997400000000    0.6351142800000000    0.8642204999999999 O
   0.2687997400000000    0.3648857200000000    0.3642205000000000 O
   0.7312002600000000    0.6351142800000000    0.6357795000000001 O
   0.1565163300000000    0.0874453000000000    0.1111946300000000 O
   0.8434836700000000    0.9125547000000001    0.8888053700000000 O
   0.8434836700000000    0.0874453000000000    0.3888053700000000 O
   0.1565163300000000    0.9125547000000001    0.6111946300000000 O
   0.6534221600000000    0.8897177300000000    0.0967568500000000 O
   0.3465778400000000    0.1102822700000000    0.9032431500000000 O
   0.3465778400000000    0.8897177300000000    0.4032431500000000 O
   0.6534221600000000    0.1102822700000000    0.5967568500000000 O
