Rb12 Sb4 O12
1.0
   8.7013129399999993    0.0000000000000000    0.0000000000000000
   0.0000000000000000    8.7013129399999993    0.0000000000000000
   0.0000000000000000    0.0000000000000000    8.7013129399999993
Rb Sb O
12 4 12
direct
   0.2844435600000000    0.2844435600000000    0.2844435600000000 Rb
   0.2155564400000000    0.7155564400000000    0.7844435600000000 Rb
   0.7844435600000000    0.2155564400000000    0.7155564400000000 Rb
   0.7155564400000000    0.7844435600000000    0.2155564400000000 Rb
   0.5210842300000000    0.5210842300000000    0.5210842300000000 Rb
   0.9789157700000000    0.4789157700000000    0.0210842300000000 Rb
   0.0210842300000000    0.9789157700000000    0.4789157700000000 Rb
   0.4789157700000000    0.0210842300000000    0.9789157700000000 Rb
   0.7801450300000000    0.7801450300000000    0.7801450300000000 Rb
   0.7198549700000000    0.2198549700000000    0.2801450300000000 Rb
   0.2801450300000000    0.7198549700000000    0.2198549700000000 Rb
   0.2198549700000000    0.2801450300000000    0.7198549700000000 Rb
   0.0096184500000000    0.0096184500000000    0.0096184500000000 Sb
   0.4903815500000000    0.9903815500000001    0.5096184499999999 Sb
   0.5096184499999999    0.4903815500000000    0.9903815500000001 Sb
   0.9903815500000001    0.5096184499999999    0.4903815500000000 Sb
   0.2112599400000000    0.5517863300000000    0.4943402400000000 O
   0.4943402400000000    0.2112599400000000    0.5517863300000000 O
   0.5517863300000000    0.4943402400000000    0.2112599400000000 O
   0.9482136700000000    0.5056597600000000    0.7112599400000000 O
   0.9943402400000000    0.2887400600000000    0.4482136700000000 O
   0.4482136700000000    0.9943402400000000    0.2887400600000000 O
   0.0056597600000000    0.7887400600000000    0.0517863300000000 O
   0.5056597600000000    0.7112599400000000    0.9482136700000000 O
   0.0517863300000000    0.0056597600000000    0.7887400600000000 O
   0.7112599400000000    0.9482136700000000    0.5056597600000000 O
   0.7887400600000000    0.0517863300000000    0.0056597600000000 O
   0.2887400600000000    0.4482136700000000    0.9943402400000000 O
