Rb1 Ta1 P2 O8
1.0
   4.3341294000000001   -2.6261885999999999    0.0069520400000000
   4.3341294000000001    2.6261885999999999    0.0069520400000000
  -0.4590287300000000    0.0000000000000000    8.4014335899999999
Rb Ta P O
1 1 2 8
direct
   0.0000000000000000    0.0000000000000000    0.0000000000000000 Rb
   0.0000000000000000    0.0000000000000000    0.5000000000000000 Ta
   0.6434744300000000    0.6434744300000000    0.2962417000000000 P
   0.3565255700000000    0.3565255700000000    0.7037582999999999 P
   0.3157367500000000    0.3157367500000000    0.8728432300000000 O
   0.7822058000000000    0.3079398500000000    0.3400660600000000 O
   0.2177942000000000    0.6920601500000000    0.6599339400000001 O
   0.3079398500000000    0.7822058000000000    0.3400660600000000 O
   0.6920601500000000    0.2177942000000000    0.6599339400000001 O
   0.6842632500000000    0.6842632500000000    0.1271567700000000 O
   0.2149603100000000    0.2149603100000000    0.5804464300000000 O
   0.7850396900000000    0.7850396900000000    0.4195535700000000 O
