Na4 Si2 Pb1 Se6
1.0
   3.5066813699999999   -6.0567689800000002    0.0015746800000000
   3.5066813699999999    6.0567689800000002    0.0015746800000000
  -2.3464849000000001    0.0000000000000000    7.5259910300000001
Na Si Pb Se
4 2 1 6
direct
   0.5029304700000000    0.4970695300000000    0.0000000000000000 Na
   0.1716052500000000    0.8283947500000000    0.0000000000000000 Na
   0.8255418800000000    0.1744581200000000    0.0000000000000000 Na
   0.3341932600000000    0.6658067400000000    0.5000000000000000 Na
   0.0500358400000000    0.0504750600000000    0.6548037000000000 Si
   0.9495249400000000    0.9499641599999999    0.3451963000000000 Si
   0.6654648500000000    0.3345351500000000    0.5000000000000000 Pb
   0.7695564600000000    0.7730671800000000    0.7477387599999999 Se
   0.2269328200000000    0.2304435400000000    0.2522612400000000 Se
   0.3911231500000000    0.0773306100000000    0.7462116400000000 Se
   0.0854026800000000    0.3949809800000000    0.7486079100000000 Se
   0.6050190200000000    0.9145973200000000    0.2513920900000000 Se
   0.9226693900000000    0.6088768500000000    0.2537883600000000 Se
