Sr4 Ta8 O24
1.0
  11.0923059700000000    0.0000000000000000    0.0000000000000000
   0.0000000000000000    7.6549672199999996    0.0000000000000000
   0.0000000000000000    0.0000000000000000    5.6137676699999997
Sr Ta O
4 8 24
direct
   0.5422805500000000    0.7500000000000000    0.9584772000000000 Sr
   0.9577194500000000    0.2500000000000000    0.4584772000000000 Sr
   0.4577194500000000    0.2500000000000000    0.0415228000000000 Sr
   0.0422805500000000    0.7500000000000000    0.5415228000000000 Sr
   0.6403723300000000    0.4973938800000000    0.4553510700000000 Ta
   0.8596276700000000    0.5026061200000000    0.9553510700000000 Ta
   0.3596276700000000    0.9973938800000000    0.5446489300000000 Ta
   0.1403723300000000    0.0026061200000000    0.0446489300000000 Ta
   0.3596276700000000    0.5026061200000000    0.5446489300000000 Ta
   0.1403723300000000    0.4973938800000000    0.0446489300000000 Ta
   0.6403723300000000    0.0026061200000000    0.4553510700000000 Ta
   0.8596276700000000    0.9973938800000000    0.9553510700000000 Ta
   0.1279732000000000    0.2500000000000000    0.1418917900000000 O
   0.3720268000000000    0.7500000000000000    0.6418917900000000 O
   0.8720268000000000    0.7500000000000000    0.8581082100000000 O
   0.6279732000000000    0.2500000000000000    0.3581082100000000 O
   0.1456697100000000    0.7500000000000000    0.9621261200000000 O
   0.3543302900000000    0.2500000000000000    0.4621261200000000 O
   0.8543302900000000    0.2500000000000000    0.0378738800000000 O
   0.6456697100000000    0.7500000000000000    0.5378738800000000 O
   0.4777185400000000    0.9644438000000000    0.2793490700000000 O
   0.0222814600000000    0.0355562000000000    0.7793490700000000 O
   0.5222814600000000    0.4644438000000000    0.7206509300000000 O
   0.9777185400000000    0.5355562000000000    0.2206509300000000 O
   0.7850439000000000    0.4483942900000000    0.6395014400000000 O
   0.7149561000000000    0.5516057100000000    0.1395014400000000 O
   0.2149561000000000    0.9483942900000000    0.3604985600000000 O
   0.2850439000000000    0.0516057100000000    0.8604985600000000 O
   0.2149561000000000    0.5516057100000000    0.3604985600000000 O
   0.2850439000000000    0.4483942900000000    0.8604985600000000 O
   0.7850439000000000    0.0516057100000000    0.6395014400000000 O
   0.7149561000000000    0.9483942900000000    0.1395014400000000 O
   0.0222814600000000    0.4644438000000000    0.7793490700000000 O
   0.4777185400000000    0.5355562000000000    0.2793490700000000 O
   0.9777185400000000    0.9644438000000000    0.2206509300000000 O
   0.5222814600000000    0.0355562000000000    0.7206509300000000 O
