Ca4 Se4 O12
1.0
   6.3540900499999999    0.0000000000000000    0.0138959600000000
   0.0000000000000000    6.7611960699999996    0.0000000000000000
  -4.8243166400000002    0.0000000000000000    6.4925509799999999
Ca Se O
4 4 12
direct
   0.8510512099999999    0.1264311600000000    0.1249408400000000 Ca
   0.8510512099999999    0.3735688400000000    0.6249408400000001 Ca
   0.1489487900000000    0.6264311600000000    0.3750591600000000 Ca
   0.1489487900000000    0.8735688400000000    0.8750591599999999 Ca
   0.6427797300000000    0.6632693400000000    0.9059998500000001 Se
   0.6427797300000000    0.8367306600000000    0.4059998500000000 Se
   0.3572202700000000    0.1632693400000000    0.5940001499999999 Se
   0.3572202700000000    0.3367306600000000    0.0940001500000000 Se
   0.5968789500000000    0.5800729800000000    0.6857171800000000 O
   0.4031210500000000    0.0800729800000000    0.8142828200000000 O
   0.0813245000000000    0.3128242100000000    0.4778054800000000 O
   0.5968789500000000    0.9199270200000000    0.1857171800000000 O
   0.2134432900000000    0.9700234700000000    0.4244610900000000 O
   0.4031210500000000    0.4199270200000000    0.3142828200000000 O
   0.7865567100000000    0.0299765300000000    0.5755389100000000 O
   0.0813245000000000    0.1871757900000000    0.9778054800000000 O
   0.2134432900000000    0.5299765300000000    0.9244610900000000 O
   0.9186755000000000    0.6871757900000000    0.5221945200000000 O
   0.9186755000000000    0.8128242100000000    0.0221945200000000 O
   0.7865567100000000    0.4700234700000000    0.0755389100000000 O
