Rb12 Bi4 O12
1.0
   8.7474218900000000    0.0000000000000000    0.0000000000000000
   0.0000000000000000    8.7474218900000000    0.0000000000000000
   0.0000000000000000    0.0000000000000000    8.7474218900000000
Rb Bi O
12 4 12
direct
   0.2906328100000000    0.2906328100000000    0.2906328100000000 Rb
   0.2093671900000000    0.7093671900000000    0.7906328100000000 Rb
   0.7906328100000000    0.2093671900000000    0.7093671900000000 Rb
   0.7093671900000000    0.7906328100000000    0.2093671900000000 Rb
   0.5234398099999999    0.5234398099999999    0.5234398099999999 Rb
   0.9765601900000001    0.4765601900000000    0.0234398100000000 Rb
   0.0234398100000000    0.9765601900000001    0.4765601900000000 Rb
   0.4765601900000000    0.0234398100000000    0.9765601900000001 Rb
   0.7860252700000000    0.7860252700000000    0.7860252700000000 Rb
   0.7139747300000000    0.2139747300000000    0.2860252700000000 Rb
   0.2860252700000000    0.7139747300000000    0.2139747300000000 Rb
   0.2139747300000000    0.2860252700000000    0.7139747300000000 Rb
   0.0164051800000000    0.0164051800000000    0.0164051800000000 Bi
   0.4835948200000000    0.9835948200000000    0.5164051800000000 Bi
   0.5164051800000000    0.4835948200000000    0.9835948200000000 Bi
   0.9835948200000000    0.5164051800000000    0.4835948200000000 Bi
   0.2168709500000000    0.5616689100000000    0.4954478000000000 O
   0.4954478000000000    0.2168709500000000    0.5616689100000000 O
   0.5616689100000000    0.4954478000000000    0.2168709500000000 O
   0.9383310900000000    0.5045522000000000    0.7168709500000000 O
   0.9954478000000000    0.2831290500000000    0.4383310900000000 O
   0.4383310900000000    0.9954478000000000    0.2831290500000000 O
   0.0045522000000000    0.7831290500000000    0.0616689100000000 O
   0.5045522000000000    0.7168709500000000    0.9383310900000000 O
   0.0616689100000000    0.0045522000000000    0.7831290500000000 O
   0.7168709500000000    0.9383310900000000    0.5045522000000000 O
   0.7831290500000000    0.0616689100000000    0.0045522000000000 O
   0.2831290500000000    0.4383310900000000    0.9954478000000000 O
