Rb8 Pb4 O8
1.0
   7.5575864199999998    0.0035183900000000    0.0183359700000000
   3.7491378900000001    6.7970074000000000    0.0459961600000000
   3.5306904399999999   -0.8482802600000000    9.7237326500000005
Rb Pb O
8 4 8
direct
   0.9274624700000000    0.0659612500000000    0.8221520600000000 Rb
   0.0725375300000000    0.9340387500000000    0.1778479400000000 Rb
   0.7595474400000000    0.7342096900000000    0.5048965200000000 Rb
   0.2404525600000000    0.2657903100000000    0.4951034800000000 Rb
   0.3959299200000000    0.5688098000000000    0.8609315600000000 Rb
   0.6040700800000000    0.4311902000000000    0.1390684400000000 Rb
   0.9340848899999999    0.5507191700000000    0.8289074400000001 Rb
   0.0659151100000000    0.4492808300000000    0.1710925600000000 Rb
   0.4019199600000000    0.0606197300000000    0.8721613000000000 Pb
   0.5980800400000000    0.9393802700000000    0.1278387000000000 Pb
   0.3042820500000000    0.7075147800000000    0.4710637100000000 Pb
   0.6957179500000000    0.2924852200000000    0.5289362900000000 Pb
   0.0638092200000000    0.2159165600000000    0.9809598899999999 O
   0.9361907800000000    0.7840834400000000    0.0190401100000000 O
   0.5043243700000000    0.1954678600000000    0.9936640799999999 O
   0.4956756300000000    0.8045321400000000    0.0063359200000000 O
   0.1943080900000000    0.5939681800000000    0.3521205400000000 O
   0.8056919100000000    0.4060318200000000    0.6478794600000000 O
   0.6608131800000000    0.5152979000000000    0.3718343000000000 O
   0.3391868200000000    0.4847021000000000    0.6281657000000000 O
