Tl12 P4 Se16
1.0
   8.9466196999999994    0.0000000000000000    0.0000000000000000
   0.0000000000000000   10.8070708999999994    0.0000000000000000
   0.0000000000000000    0.0000000000000000    9.2059500900000000
Tl P Se
12 4 16
direct
   0.9385748500000000    0.5474754300000000    0.1924005500000000 Tl
   0.4385748500000000    0.9525245700000000    0.3075994500000000 Tl
   0.5614251500000000    0.4525245700000000    0.6924005500000000 Tl
   0.0614251500000000    0.0474754300000000    0.8075994500000000 Tl
   0.0614251500000000    0.4525245700000000    0.8075994500000000 Tl
   0.5614251500000000    0.0474754300000000    0.6924005500000000 Tl
   0.4385748500000000    0.5474754300000000    0.3075994500000000 Tl
   0.9385748500000000    0.9525245700000000    0.1924005500000000 Tl
   0.3872851900000000    0.2500000000000000    0.1140971400000000 Tl
   0.8872851899999999    0.2500000000000000    0.3859028600000000 Tl
   0.1127148100000000    0.7500000000000000    0.6140971400000000 Tl
   0.6127148100000001    0.7500000000000000    0.8859028600000000 Tl
   0.2811829300000000    0.2500000000000000    0.5292883300000000 P
   0.7811829300000001    0.2500000000000000    0.9707116700000000 P
   0.2188170700000000    0.7500000000000000    0.0292883300000000 P
   0.7188170699999999    0.7500000000000000    0.4707116700000000 P
   0.8451484300000000    0.5818672499999999    0.5340360500000000 Se
   0.3451484300000000    0.9181327500000001    0.9659639500000000 Se
   0.6548515700000000    0.4181327500000000    0.0340360500000000 Se
   0.1548515700000000    0.0818672500000000    0.4659639500000000 Se
   0.1548515700000000    0.4181327500000000    0.4659639500000000 Se
   0.6548515700000000    0.0818672500000000    0.0340360500000000 Se
   0.3451484300000000    0.5818672499999999    0.9659639500000000 Se
   0.8451484300000000    0.9181327500000001    0.5340360500000000 Se
   0.6910202800000000    0.7500000000000000    0.2283199000000000 Se
   0.1910202800000000    0.7500000000000000    0.2716801000000000 Se
   0.8089797200000000    0.2500000000000000    0.7283199000000000 Se
   0.3089797200000000    0.2500000000000000    0.7716801000000000 Se
   0.9906657700000000    0.7500000000000000    0.9312820100000000 Se
   0.4906657700000000    0.7500000000000000    0.5687179900000000 Se
   0.5093342300000000    0.2500000000000000    0.4312820100000000 Se
   0.0093342300000000    0.2500000000000000    0.0687179900000000 Se
