Na8 Sn2 S8
1.0
   7.7672500700000002    0.0000000000000000    0.0000000000000000
   0.0000000000000000    7.7672500700000002    0.0000000000000000
   0.0000000000000000    0.0000000000000000    6.9068673799999996
Na Sn S
8 2 8
direct
   0.1971614200000000    0.4071798100000000    0.0298406800000000 Na
   0.5928201900000000    0.1971614200000000    0.9701593200000000 Na
   0.4071798100000000    0.8028385800000000    0.9701593200000000 Na
   0.8028385800000000    0.5928201900000000    0.0298406800000000 Na
   0.6971614200000000    0.0928201900000000    0.4701593200000000 Na
   0.3028385800000000    0.9071798100000000    0.4701593200000000 Na
   0.9071798100000000    0.6971614200000000    0.5298406800000000 Na
   0.0928201900000000    0.3028385800000000    0.5298406800000000 Na
   0.0000000000000000    0.0000000000000000    0.0000000000000000 Sn
   0.5000000000000000    0.5000000000000000    0.5000000000000000 Sn
   0.2575810000000000    0.5951367000000000    0.6906762200000000 S
   0.7424190000000001    0.4048633000000000    0.6906762200000000 S
   0.0951367000000000    0.7575809999999999    0.1906762200000000 S
   0.2424190000000000    0.0951367000000000    0.8093237800000000 S
   0.7575809999999999    0.9048633000000000    0.8093237800000000 S
   0.9048633000000000    0.2424190000000000    0.1906762200000000 S
   0.5951367000000000    0.7424190000000001    0.3093237800000000 S
   0.4048633000000000    0.2575810000000000    0.3093237800000000 S
