Sr2 Ta8 O22
1.0
   6.2741334400000000    0.0000000000000000    0.0000000000000000
  -3.1370672100000001    5.4335585499999999    0.0000000000000000
   0.0000000000000000    0.0000000000000000   12.4085207600000000
Sr Ta O
2 8 22
direct
   0.3333330000000000    0.6666670000000000    0.7500000000000000 Sr
   0.6666670000000000    0.3333330000000000    0.2500000000000000 Sr
   0.6666670000000000    0.3333330000000000    0.7500000000000000 Ta
   0.3333330000000000    0.6666670000000000    0.2500000000000000 Ta
   0.0000000000000000    0.6400405000000000    0.5000000000000000 Ta
   0.3599595000000000    1.0000000000000000    0.0000000000000000 Ta
   0.6400405000000000    0.6400405000000000    0.0000000000000000 Ta
   0.3599595000000000    0.3599595000000000    0.5000000000000000 Ta
   0.6400405000000000    0.0000000000000000    0.5000000000000000 Ta
   1.0000000000000000    0.3599595000000000    0.0000000000000000 Ta
   0.6666670000000000    0.3333330000000000    0.0359370300000000 O
   0.3333330000000000    0.6666670000000000    0.5359370300000000 O
   0.3333330000000000    0.6666670000000000    0.9640629700000000 O
   0.6666670000000000    0.3333330000000000    0.4640629700000000 O
   1.0000000000000000    0.2518761900000000    0.5000000000000000 O
   0.7481238099999999    0.0000000000000000    0.0000000000000000 O
   0.2518761900000000    0.2518761900000000    0.0000000000000000 O
   0.7481238099999999    0.7481238099999999    0.5000000000000000 O
   0.2518761900000000    1.0000000000000000    0.5000000000000000 O
   0.0000000000000000    0.7481238099999999    0.0000000000000000 O
   0.4281433600000000    0.0617235300000000    0.8446226900000000 O
   0.3664198300000000    0.4281433600000000    0.3446226900000000 O
   0.0617235300000000    0.6335801700000000    0.3446226900000000 O
   0.9382764700000000    0.3664198300000000    0.8446226900000000 O
   0.6335801700000000    0.5718566400000000    0.8446226900000000 O
   0.5718566400000000    0.6335801700000000    0.1553773100000000 O
   0.0617235300000000    0.4281433600000000    0.1553773100000000 O
   0.5718566400000000    0.9382764700000000    0.3446226900000000 O
   0.3664198300000000    0.9382764700000000    0.1553773100000000 O
   0.6335801700000000    0.0617235300000000    0.6553773100000000 O
   0.4281433600000000    0.3664198300000000    0.6553773100000000 O
   0.9382764700000000    0.5718566400000000    0.6553773100000000 O
