Zr4 P8 O28
1.0
   8.5112117200000004    0.0000000000000000    0.0000000000000000
   0.0000000000000000    8.5112117200000004    0.0000000000000000
   0.0000000000000000    0.0000000000000000    8.5112117200000004
Zr P O
4 8 28
direct
   0.0000000000000000    0.5000000000000000    0.5000000000000000 Zr
   0.5000000000000000    0.5000000000000000    0.0000000000000000 Zr
   0.5000000000000000    0.0000000000000000    0.5000000000000000 Zr
   0.0000000000000000    0.0000000000000000    0.0000000000000000 Zr
   0.3929907900000000    0.1070092100000000    0.8929907900000000 P
   0.1070092100000000    0.8929907900000000    0.3929907900000000 P
   0.8929907900000000    0.3929907900000000    0.1070092100000000 P
   0.6070092100000000    0.6070092100000000    0.6070092100000000 P
   0.6070092100000000    0.8929907900000000    0.1070092100000000 P
   0.8929907900000000    0.1070092100000000    0.6070092100000000 P
   0.1070092100000000    0.6070092100000000    0.8929907900000000 P
   0.3929907900000000    0.3929907900000000    0.3929907900000000 P
   0.5000000000000000    0.0000000000000000    0.0000000000000000 O
   0.0000000000000000    0.0000000000000000    0.5000000000000000 O
   0.0000000000000000    0.5000000000000000    0.0000000000000000 O
   0.5000000000000000    0.5000000000000000    0.5000000000000000 O
   0.9428084200000000    0.2244340600000000    0.0774093400000000 O
   0.4428084200000000    0.2755659400000000    0.9225906600000000 O
   0.0571915800000000    0.7244340600000000    0.4225906600000000 O
   0.2755659400000000    0.9225906600000000    0.4428084200000000 O
   0.4225906600000000    0.0571915800000000    0.7244340600000000 O
   0.9225906600000000    0.4428084200000000    0.2755659400000000 O
   0.2244340600000000    0.0774093400000000    0.9428084200000000 O
   0.0774093400000000    0.9428084200000000    0.2244340600000000 O
   0.4428084200000000    0.2244340600000000    0.4225906600000000 O
   0.4225906600000000    0.4428084200000000    0.2244340600000000 O
   0.2244340600000000    0.4225906600000000    0.4428084200000000 O
   0.2755659400000000    0.5774093400000000    0.9428084200000000 O
   0.9225906600000000    0.0571915800000000    0.7755659400000000 O
   0.7755659400000000    0.9225906600000000    0.0571915800000000 O
   0.0774093400000000    0.5571915800000000    0.7244340600000000 O
   0.5774093400000000    0.9428084200000000    0.2755659400000000 O
   0.7244340600000000    0.0774093400000000    0.5571915800000000 O
   0.9428084200000000    0.2755659400000000    0.5774093400000000 O
   0.5571915800000000    0.7244340600000000    0.0774093400000000 O
   0.0571915800000000    0.7755659400000000    0.9225906600000000 O
   0.5571915800000000    0.7755659400000000    0.5774093400000000 O
   0.5774093400000000    0.5571915800000000    0.7755659400000000 O
   0.7755659400000000    0.5774093400000000    0.5571915800000000 O
   0.7244340600000000    0.4225906600000000    0.0571915800000000 O
