Li4 B12 O20
1.0
   8.3728827300000006    0.0000000000000000    0.0000000000000000
   0.0000000000000000    7.3506883399999996    0.0000000000000000
   0.0000000000000000    0.0000000000000000    5.2372863900000004
Li B O
4 12 20
direct
   0.5816119900000000    0.4319089300000000    0.0110370800000000 Li
   0.4183880100000000    0.5680910700000000    0.5110370800000000 Li
   0.0816119900000000    0.0680910700000000    0.0110370800000000 Li
   0.9183880100000000    0.9319089300000000    0.5110370800000000 Li
   0.4912713200000000    0.1646695700000000    0.6444635200000000 B
   0.5087286800000000    0.8353304300000000    0.1444635200000000 B
   0.9912713200000000    0.3353304300000000    0.6444635200000000 B
   0.0087286800000000    0.6646695700000000    0.1444635200000000 B
   0.3054563500000000    0.9405909099999999    0.4495042500000000 B
   0.6945436500000000    0.0594090900000000    0.9495042500000000 B
   0.8054563500000000    0.5594090900000001    0.4495042500000000 B
   0.1945436500000000    0.4405909100000000    0.9495042500000000 B
   0.3425897100000000    0.2470562800000000    0.2681181200000000 B
   0.6574102900000000    0.7529437200000000    0.7681181200000000 B
   0.8425897100000000    0.2529437200000000    0.2681181200000000 B
   0.1574102900000000    0.7470562800000000    0.7681181200000000 B
   0.4165484700000000    0.0015661400000000    0.6474278300000000 O
   0.5834515300000001    0.9984338600000000    0.1474278300000000 O
   0.9165484699999999    0.4984338600000000    0.6474278300000000 O
   0.0834515300000000    0.5015661400000000    0.1474278300000000 O
   0.6162054300000001    0.2076406100000000    0.8025125400000001 O
   0.3837945700000000    0.7923593900000000    0.3025125400000000 O
   0.1162054300000000    0.2923593900000000    0.8025125400000001 O
   0.8837945699999999    0.7076406100000000    0.3025125400000000 O
   0.4417164700000000    0.2984699900000000    0.4705035500000000 O
   0.5582835300000000    0.7015300100000000    0.9705035500000000 O
   0.9417164700000000    0.2015300100000000    0.4705035500000000 O
   0.0582835300000000    0.7984699900000000    0.9705035500000000 O
   0.2587854200000000    0.0881937200000000    0.2698258200000000 O
   0.7412145800000000    0.9118062800000000    0.7698258200000000 O
   0.7587854200000000    0.4118062800000000    0.2698258200000000 O
   0.2412145800000000    0.5881937200000000    0.7698258200000000 O
   0.3394090700000000    0.3720790400000000    0.0736082700000000 O
   0.6605909300000000    0.6279209600000000    0.5736082700000000 O
   0.8394090700000000    0.1279209600000000    0.0736082700000000 O
   0.1605909300000000    0.8720790400000000    0.5736082700000000 O
