La4 Ge6 O18
1.0
   5.7642927000000004   -0.0018754400000000    0.0030745300000000
  -0.1879472700000000    7.7392152599999999    0.0065373700000000
  -2.7791058799999999   -2.7829086500000000    7.8855546700000003
La Ge O
4 6 18
direct
   0.8681817400000000    0.8009183500000000    0.7834764400000001 La
   0.1318182600000000    0.1990816500000000    0.2165235600000000 La
   0.1893302000000000    0.8162219600000000    0.4155618600000000 La
   0.8106698000000000    0.1837780400000000    0.5844381400000001 La
   0.7618782900000000    0.4861593600000000    0.9974976000000000 Ge
   0.2381217100000000    0.5138406400000000    0.0025024000000000 Ge
   0.5734351200000000    0.9278140000000000    0.1477494600000000 Ge
   0.4265648800000000    0.0721860000000000    0.8522505400000000 Ge
   0.6627869300000000    0.5124387700000000    0.3404059300000000 Ge
   0.3372130700000000    0.4875612300000000    0.6595940700000000 Ge
   0.7108145100000000    0.0084057500000000    0.0012218800000000 O
   0.2891854900000000    0.9915942500000000    0.9987781200000000 O
   0.0101299600000000    0.6784535300000000    0.0468763800000000 O
   0.9898700400000000    0.3215464700000000    0.9531236199999999 O
   0.5344001500000000    0.6718055000000001    0.0457610200000000 O
   0.4655998500000000    0.3281945000000000    0.9542389800000000 O
   0.8726021600000000    0.4793198200000000    0.2220341600000000 O
   0.1273978400000000    0.5206801800000000    0.7779658400000000 O
   0.5916737500000000    0.3131775600000000    0.3800598700000000 O
   0.4083262500000000    0.6868224400000000    0.6199401300000000 O
   0.8818856200000000    0.9901127300000000    0.3050007500000000 O
   0.1181143800000000    0.0098872700000000    0.6949992500000000 O
   0.3487888000000000    0.5383336900000000    0.2357752200000000 O
   0.6512112000000000    0.4616663100000000    0.7642247800000000 O
   0.5796257500000001    0.0298978000000000    0.6931215600000000 O
   0.4203742500000000    0.9701022000000000    0.3068784400000000 O
   0.8316923800000000    0.7125223300000000    0.5013047899999999 O
   0.1683076200000000    0.2874776700000000    0.4986952100000000 O
