Cs4 W2 O8
1.0
   6.7056041700000000   -3.2323388000000000    0.0024005900000000
   6.7056041700000000    3.2323388000000000    0.0024005900000000
  -3.6288410299999998    0.0000000000000000    7.3817540199999998
Cs W O
4 2 8
direct
   0.4850909100000000    0.4850909100000000    0.7580296600000000 Cs
   0.8433751600000000    0.8433751600000000    0.2558178300000000 Cs
   0.1566248400000000    0.1566248400000000    0.7441821700000000 Cs
   0.5149090900000000    0.5149090900000000    0.2419703400000000 Cs
   0.8265209300000000    0.8265209300000000    0.7801220600000000 W
   0.1734790700000000    0.1734790700000000    0.2198779400000000 W
   0.9057959400000000    0.9057959400000000    0.6522842800000000 O
   0.3201240700000000    0.3201240700000000    0.3651928800000000 O
   0.3685893800000000    0.9147013700000000    0.0808880900000000 O
   0.9147013700000000    0.3685893800000000    0.0808880900000000 O
   0.6314106200000000    0.0852986300000000    0.9191119100000000 O
   0.0852986300000000    0.6314106200000000    0.9191119100000000 O
   0.6798759300000000    0.6798759300000000    0.6348071199999999 O
   0.0942040600000000    0.0942040600000000    0.3477157200000000 O
