Mg8 Si4 Se16
1.0
  13.3151706500000007    0.0000000000000000    0.0000000000000000
   0.0000000000000000    7.7945129000000000    0.0000000000000000
   0.0000000000000000    0.0000000000000000    6.2260693399999996
Mg Si Se
8 4 16
direct
   0.0000000000000000    0.5000000000000000    0.0000000000000000 Mg
   0.5000000000000000    0.0000000000000000    0.5000000000000000 Mg
   0.0000000000000000    0.0000000000000000    0.0000000000000000 Mg
   0.5000000000000000    0.5000000000000000    0.5000000000000000 Mg
   0.7683390000000000    0.7500000000000000    0.4928500900000000 Mg
   0.2683390000000000    0.7500000000000000    0.0071499100000000 Mg
   0.2316610000000000    0.2500000000000000    0.5071499100000000 Mg
   0.7316610000000000    0.2500000000000000    0.9928500900000000 Mg
   0.5888926900000000    0.7500000000000000    0.9038309900000000 Si
   0.0888926900000000    0.7500000000000000    0.5961690100000000 Si
   0.4111073100000000    0.2500000000000000    0.0961690100000000 Si
   0.9111073100000000    0.2500000000000000    0.4038309900000000 Si
   0.5926640500000000    0.7500000000000000    0.2669960700000000 Se
   0.0926640500000000    0.7500000000000000    0.2330039300000000 Se
   0.4073359500000000    0.2500000000000000    0.7330039300000000 Se
   0.9073359500000000    0.2500000000000000    0.7669960700000000 Se
   0.4308719300000000    0.7500000000000000    0.7555171899999999 Se
   0.9308719300000000    0.7500000000000000    0.7444828100000001 Se
   0.5691280700000000    0.2500000000000000    0.2444828100000000 Se
   0.0691280700000000    0.2500000000000000    0.2555171900000000 Se
   0.6684810000000000    0.5200513100000000    0.7469320400000000 Se
   0.1684810000000000    0.9799486900000000    0.7530679600000000 Se
   0.3315190000000000    0.0200513100000000    0.2530679600000000 Se
   0.8315190000000000    0.4799486900000000    0.2469320400000000 Se
   0.3315190000000000    0.4799486900000000    0.2530679600000000 Se
   0.8315190000000000    0.0200513100000000    0.2469320400000000 Se
   0.6684810000000000    0.9799486900000000    0.7469320400000000 Se
   0.1684810000000000    0.5200513100000000    0.7530679600000000 Se
