Na4 P2 S6
1.0
   3.3387831900000000   -5.5444016999999999    0.0082315300000000
   3.3387831900000000    5.5444016999999999    0.0082315300000000
  -2.1577598400000002    0.0000000000000000    7.1566820599999996
Na P S
4 2 6
direct
   0.6621509200000000    0.3378490800000000    0.0000000000000000 Na
   0.3378490800000000    0.6621509200000000    0.0000000000000000 Na
   0.8164374900000000    0.1835625100000000    0.5000000000000000 Na
   0.1835625100000000    0.8164374900000000    0.5000000000000000 Na
   0.0539194100000000    0.0539194100000000    0.1583659400000000 P
   0.9460805900000000    0.9460805900000000    0.8416340600000000 P
   0.7913800000000000    0.7913800000000000    0.2445853900000000 S
   0.2086200000000000    0.2086200000000000    0.7554146100000000 S
   0.0709287800000000    0.3770846900000000    0.2308955200000000 S
   0.3770846900000000    0.0709287800000000    0.2308955200000000 S
   0.9290712200000000    0.6229153100000000    0.7691044800000000 S
   0.6229153100000000    0.9290712200000000    0.7691044800000000 S
