Cs2 Sb2 O4
1.0
   4.0410691099999996   -4.9085286000000004   -0.0136378500000000
   4.0410691099999996    4.9085286000000004   -0.0136378500000000
  -2.9647468899999998    0.0000000000000000    4.7330853599999996
Cs Sb O
2 2 4
direct
   0.3514748500000000    0.6485251500000000    0.7500000000000000 Cs
   0.6485251500000000    0.3514748500000000    0.2500000000000000 Cs
   0.0818063900000000    0.9181936100000000    0.2500000000000000 Sb
   0.9181936100000000    0.0818063900000000    0.7500000000000000 Sb
   0.8690963800000000    0.7826513600000000    0.7968281200000000 O
   0.1309036200000000    0.2173486400000000    0.2031718800000000 O
   0.2173486400000000    0.1309036200000000    0.7031718800000000 O
   0.7826513600000000    0.8690963800000000    0.2968281200000000 O
