Rb12 Ta4 S16
1.0
   9.5355434599999995    0.0000000000000000    0.0000000000000000
   0.0000000000000000   10.9739108600000002    0.0000000000000000
   0.0000000000000000    0.0000000000000000    9.6596201500000003
Rb Ta S
12 4 16
direct
   0.0538311800000000    0.4567688700000000    0.2897980000000000 Rb
   0.8595966900000001    0.2500000000000000    0.9202650100000000 Rb
   0.1404033100000000    0.7500000000000000    0.0797349900000000 Rb
   0.6404033099999999    0.7500000000000000    0.4202650100000000 Rb
   0.9461688200000000    0.5432311300000000    0.7102020000000000 Rb
   0.4461688200000000    0.9567688700000000    0.7897980000000000 Rb
   0.5538311800000000    0.4567688700000000    0.2102020000000000 Rb
   0.0538311800000000    0.0432311300000000    0.2897980000000000 Rb
   0.9461688200000000    0.9567688700000000    0.7102020000000000 Rb
   0.5538311800000000    0.0432311300000000    0.2102020000000000 Rb
   0.4461688200000000    0.5432311300000000    0.7897980000000000 Rb
   0.3595966900000000    0.2500000000000000    0.5797349900000000 Rb
   0.2811123200000000    0.2500000000000000    0.0136655900000000 Ta
   0.7811123200000000    0.2500000000000000    0.4863344100000000 Ta
   0.2188876800000000    0.7500000000000000    0.5136655900000000 Ta
   0.7188876800000000    0.7500000000000000    0.9863344100000000 Ta
   0.3024293400000000    0.2500000000000000    0.2499029900000000 S
   0.8024293400000000    0.2500000000000000    0.2500970100000000 S
   0.1975706600000000    0.7500000000000000    0.7499029900000000 S
   0.6975706600000000    0.7500000000000000    0.7500970100000000 S
   0.0013453800000000    0.2500000000000000    0.5825572000000000 S
   0.5013453800000000    0.2500000000000000    0.9174428000000000 S
   0.4986546200000000    0.7500000000000000    0.0825572000000000 S
   0.9986546200000000    0.7500000000000000    0.4174428000000000 S
   0.8362998900000000    0.9227415700000000    0.0506954300000000 S
   0.3362998900000000    0.5772584300000000    0.4493045700000000 S
   0.6637001100000000    0.0772584300000000    0.5506954300000000 S
   0.1637001100000000    0.4227415700000000    0.9493045700000000 S
   0.1637001100000000    0.0772584300000000    0.9493045700000000 S
   0.8362998900000000    0.5772584300000000    0.0506954300000000 S
   0.3362998900000000    0.9227415700000000    0.4493045700000000 S
   0.6637001100000000    0.4227415700000000    0.5506954300000000 S
