Ba4 N8 O24
1.0
   8.1257492599999992    0.0000000000000000    0.0000000000000000
   0.0000000000000000    8.1257492599999992    0.0000000000000000
   0.0000000000000000    0.0000000000000000    8.1257492599999992
Ba N O
4 8 24
direct
   0.0000000000000000    0.5000000000000000    0.5000000000000000 Ba
   0.5000000000000000    0.5000000000000000    0.0000000000000000 Ba
   0.5000000000000000    0.0000000000000000    0.5000000000000000 Ba
   0.0000000000000000    0.0000000000000000    0.0000000000000000 Ba
   0.3420196700000000    0.3420196700000000    0.3420196700000000 N
   0.3420196700000000    0.1579803300000000    0.8420196700000000 N
   0.1579803300000000    0.8420196700000000    0.3420196700000000 N
   0.8420196700000000    0.3420196700000000    0.1579803300000000 N
   0.6579803300000000    0.6579803300000000    0.6579803300000000 N
   0.1579803300000000    0.6579803300000000    0.8420196700000000 N
   0.8420196700000000    0.1579803300000000    0.6579803300000000 N
   0.6579803300000000    0.8420196700000000    0.1579803300000000 N
   0.7762798800000000    0.2809787600000000    0.0310828600000000 O
   0.2190212400000000    0.9689171400000000    0.2762798800000000 O
   0.2237201200000000    0.7809787600000000    0.4689171400000000 O
   0.2762798800000000    0.2190212400000000    0.9689171400000000 O
   0.2762798800000000    0.2809787600000000    0.4689171400000000 O
   0.4689171400000000    0.2762798800000000    0.2809787600000000 O
   0.2809787600000000    0.4689171400000000    0.2762798800000000 O
   0.2190212400000000    0.5310828600000000    0.7762798800000000 O
   0.9689171400000000    0.2237201200000000    0.7190212400000000 O
   0.7190212400000000    0.9689171400000000    0.2237201200000000 O
   0.0310828600000000    0.7237201200000000    0.7809787600000000 O
   0.5310828600000000    0.7762798800000000    0.2190212400000000 O
   0.7809787600000000    0.0310828600000000    0.7237201200000000 O
   0.7762798800000000    0.2190212400000000    0.5310828600000000 O
   0.7237201200000000    0.7809787600000000    0.0310828600000000 O
   0.2237201200000000    0.7190212400000000    0.9689171400000000 O
   0.7237201200000000    0.7190212400000000    0.5310828600000000 O
   0.5310828600000000    0.7237201200000000    0.7190212400000000 O
   0.7190212400000000    0.5310828600000000    0.7237201200000000 O
   0.7809787600000000    0.4689171400000000    0.2237201200000000 O
   0.0310828600000000    0.7762798800000000    0.2809787600000000 O
   0.2809787600000000    0.0310828600000000    0.7762798800000000 O
   0.9689171400000000    0.2762798800000000    0.2190212400000000 O
   0.4689171400000000    0.2237201200000000    0.7809787600000000 O
