Sr4 Pb2 O8
1.0
   6.1557780199999996    0.0000000000000000    0.0000000000000000
   0.0000000000000000   10.1314014199999995    0.0000000000000000
   0.0000000000000000    0.0000000000000000    3.4972436600000001
Sr Pb O
4 2 8
direct
   0.4258654200000000    0.8188364500000000    0.5000000000000000 Sr
   0.5741345799999999    0.1811635500000000    0.5000000000000000 Sr
   0.9258654200000001    0.6811635500000000    0.5000000000000000 Sr
   0.0741345800000000    0.3188364500000000    0.5000000000000000 Sr
   0.5000000000000000    0.5000000000000000    0.0000000000000000 Pb
   0.0000000000000000    0.0000000000000000    0.0000000000000000 Pb
   0.1350748200000000    0.8041599200000000    0.0000000000000000 O
   0.8649251800000000    0.1958400800000000    0.0000000000000000 O
   0.6350748200000000    0.6958400800000000    0.0000000000000000 O
   0.3649251800000000    0.3041599200000000    0.0000000000000000 O
   0.2743246200000000    0.5505633100000000    0.5000000000000000 O
   0.7256753800000000    0.4494366900000000    0.5000000000000000 O
   0.2256753800000000    0.0505633100000000    0.5000000000000000 O
   0.7743246200000000    0.9494366900000000    0.5000000000000000 O
