Na8 Ge4 Se12
1.0
   6.9903559199999998    0.0000000000000000    0.0074521600000000
   0.0000000000000000   16.1608328199999995    0.0000000000000000
  -2.4065724400000001    0.0000000000000000    5.5024870100000003
Na Ge Se
8 4 12
direct
   0.4274673200000000    0.6676146300000000    0.4690131100000000 Na
   0.5725326800000000    0.1676146300000000    0.0309868900000000 Na
   0.5725326800000000    0.3323853700000000    0.5309868900000000 Na
   0.4274673200000000    0.8323853700000000    0.9690131100000000 Na
   0.2168317000000000    0.0220058400000000    0.3315120600000000 Na
   0.2168317000000000    0.4779941600000000    0.8315120600000000 Na
   0.7831683000000000    0.5220058400000001    0.1684879400000000 Na
   0.7831683000000000    0.9779941599999999    0.6684879400000000 Na
   0.9751123400000000    0.3307712300000000    0.1570943900000000 Ge
   0.0248876600000000    0.8307712300000000    0.3429056100000000 Ge
   0.0248876600000000    0.6692287700000000    0.8429056100000000 Ge
   0.9751123400000000    0.1692287700000000    0.6570943900000000 Ge
   0.3811060900000000    0.8521085500000000    0.4469043400000000 Se
   0.6188939100000000    0.3521085500000000    0.0530956600000000 Se
   0.6188939100000000    0.1478914500000000    0.5530956600000000 Se
   0.3811060900000000    0.6478914500000000    0.9469043400000000 Se
   0.0649494100000000    0.1923160500000000    0.3133191400000000 Se
   0.9350505900000000    0.6923160500000000    0.1866808600000000 Se
   0.9350505900000000    0.8076839500000000    0.6866808599999999 Se
   0.0649494100000000    0.3076839500000000    0.8133191400000001 Se
   0.7966301500000000    0.9404442300000000    0.1633012400000000 Se
   0.2033698500000000    0.4404442300000000    0.3366987600000000 Se
   0.2033698500000000    0.0595557700000000    0.8366987600000000 Se
   0.7966301500000000    0.5595557700000000    0.6633012400000000 Se
