Sr2 Al4 S8
1.0
   2.9568873299999998   -5.1875531800000001    0.0000000000000000
   2.9568873299999998    5.1875531800000001    0.0000000000000000
   0.0000000000000000    0.0000000000000000   10.4215650600000007
Sr Al S
2 4 8
direct
   0.5000000000000000    0.5000000000000000    0.2500000000000000 Sr
   0.5000000000000000    0.5000000000000000    0.7500000000000000 Sr
   0.2398580900000000    0.7625228400000000    0.0000000000000000 Al
   0.7601419100000000    0.2374771600000000    0.0000000000000000 Al
   0.7625228400000000    0.2398580900000000    0.5000000000000000 Al
   0.2374771600000000    0.7601419100000000    0.5000000000000000 Al
   0.0000000000000000    0.5000000000000000    0.3349429700000000 S
   0.0000000000000000    0.5000000000000000    0.6650570300000000 S
   0.5000000000000000    0.0000000000000000    0.8349429700000000 S
   0.6475641600000001    0.8183216300000000    0.5000000000000000 S
   0.3524358400000000    0.1816783700000000    0.5000000000000000 S
   0.8183216300000000    0.6475641600000001    0.0000000000000000 S
   0.1816783700000000    0.3524358400000000    0.0000000000000000 S
   0.5000000000000000    0.0000000000000000    0.1650570300000000 S
