Nb4 Bi4 O16
1.0
   5.5525092300000001    0.0000474900000000   -0.0000097100000000
   0.4049720300000000    7.7095591900000002   -0.0001230200000000
   0.0123872500000000    1.5099377500000000    7.6458983800000002
Nb Bi O
4 4 16
direct
   0.2490578200000000    0.6731966600000000    0.1916862800000000 Nb
   0.7509421800000000    0.3268033500000000    0.8083137100000000 Nb
   0.7789095600000000    0.3424898400000000    0.3086486100000000 Nb
   0.2210904400000000    0.6575101600000000    0.6913513900000000 Nb
   0.7662632700000001    0.8783101000000000    0.3816024300000000 Bi
   0.2924598200000000    0.1682046500000000    0.1146287700000000 Bi
   0.7075401800000000    0.8317953500000000    0.8853712300000000 Bi
   0.2337367300000000    0.1216899000000000    0.6183975700000000 Bi
   0.9908838300000000    0.8942447700000000    0.6773903800000000 O
   0.9093500799999999    0.5583770800000000    0.7858930400000000 O
   0.6781611600000000    0.3307090000000000    0.0539705700000000 O
   0.4625916800000000    0.8443153900000000    0.6343191700000000 O
   0.5374083200000001    0.1556846100000000    0.3656808300000000 O
   0.0091161600000000    0.1057552400000000    0.3226096100000000 O
   0.4279075200000000    0.4467221200000000    0.7062519000000000 O
   0.4497624900000000    0.8920868100000000    0.1740627400000000 O
   0.5720924800000000    0.5532778800000000    0.2937481000000000 O
   0.9612105100000000    0.8283767600000000    0.1308111700000000 O
   0.0906499100000000    0.4416229200000000    0.2141069700000000 O
   0.8613104100000000    0.3215492400000000    0.5563702800000000 O
   0.5502375000000000    0.1079131800000000    0.8259372699999999 O
   0.0387894900000000    0.1716232400000000    0.8691888300000000 O
   0.1386896000000000    0.6784507600000000    0.4436297300000000 O
   0.3218388500000000    0.6692910000000000    0.9460294299999999 O
