Li4 Y4 Si4 O16
1.0
   5.3962556399999997    0.0000000000000000    0.0033263100000000
   0.0000000000000000    6.1701332100000004    0.0000000000000000
  -4.3321798200000003    0.0000000000000000    9.9023600900000002
Li Y Si O
4 4 4 16
direct
   0.0815705600000000    0.6340437100000000    0.9311662900000000 Li
   0.9184294400000000    0.1340437100000000    0.5688337100000000 Li
   0.9184294400000000    0.3659562900000000    0.0688337100000000 Li
   0.0815705600000000    0.8659562900000000    0.4311662900000000 Li
   0.5533139400000000    0.6171763100000000    0.3476657100000000 Y
   0.4466860600000000    0.3828236900000000    0.6523342900000000 Y
   0.4466860600000000    0.1171763100000000    0.1523342900000000 Y
   0.5533139400000000    0.8828236900000000    0.8476657100000000 Y
   0.0951420300000000    0.1511229000000000    0.8589713000000000 Si
   0.9048579700000000    0.8488771000000001    0.1410287000000000 Si
   0.9048579700000000    0.6511228999999999    0.6410287000000000 Si
   0.0951420300000000    0.3488771000000000    0.3589713000000000 Si
   0.7666228000000000    0.3598976700000000    0.2756558800000000 O
   0.7666228000000000    0.1401023300000000    0.7756558800000000 O
   0.8138711300000000    0.6630388000000000    0.0234326600000000 O
   0.2410832000000000    0.3385900600000000    0.2512156100000000 O
   0.2333772000000000    0.6401023300000001    0.7243441200000000 O
   0.7719941200000000    0.0728535600000000    0.0544261800000000 O
   0.2410832000000000    0.1614099400000000    0.7512156100000000 O
   0.2280058800000000    0.9271464400000000    0.9455738200000000 O
   0.2280058800000000    0.5728535600000000    0.4455738200000000 O
   0.1861288700000000    0.1630388000000000    0.4765673400000000 O
   0.7589167999999999    0.6614099400000000    0.7487843900000000 O
   0.7719941200000000    0.4271464400000000    0.5544261800000000 O
   0.8138711300000000    0.8369612000000000    0.5234326600000000 O
   0.7589167999999999    0.8385900600000000    0.2487843900000000 O
   0.2333772000000000    0.8598976699999999    0.2243441200000000 O
   0.1861288700000000    0.3369612000000000    0.9765673400000000 O
