Ga2 Hg1 S4
1.0
  -2.7527603599999999    2.7527604200000000    5.1126950100000004
   2.7527603599999999   -2.7527604200000000    5.1126950100000004
   2.7527604200000000    2.7527603599999999   -5.1126950100000004
Ga Hg S
2 1 4
direct
   0.5000000000000000    0.5000000000000000    0.0000000000000000 Ga
   0.2500000000000000    0.7500000000000000    0.5000000000000000 Ga
   0.0000000000000000    0.0000000000000000    0.0000000000000000 Hg
   0.8645832000000000    0.4049042500000000    0.9917517400000000 S
   0.4131535100000000    0.8728324700000000    0.0082482600000000 S
   0.1271675300000000    0.1354168000000000    0.5403210500000000 S
   0.5950957500000000    0.5868464900000000    0.4596789500000000 S
