Ta8 Ag4 O22
1.0
   3.1134132399999999    1.7975296300000001   12.3425981399999998
  -3.1134132399999999    1.7975296300000001   12.3425981399999998
   0.0000000000000000   -3.5950592600000002   12.3425981399999998
Ta Ag O
8 4 22
direct
   0.2500000000000000    0.8856605100000000    0.6143394900000000 Ta
   0.8856605100000000    0.6143394900000000    0.2500000000000000 Ta
   0.6143394900000000    0.2500000000000000    0.8856605100000000 Ta
   0.1143394900000000    0.3856605100000000    0.7500000000000000 Ta
   0.3856605100000000    0.7500000000000000    0.1143394900000000 Ta
   0.7500000000000000    0.1143394900000000    0.3856605100000000 Ta
   0.0000000000000000    0.0000000000000000    0.0000000000000000 Ta
   0.5000000000000000    0.5000000000000000    0.5000000000000000 Ta
   0.3306885700000000    0.3306885700000000    0.3306885700000000 Ag
   0.8306885700000000    0.8306885700000000    0.8306885700000000 Ag
   0.6693114300000000    0.6693114300000000    0.6693114300000000 Ag
   0.1693114300000000    0.1693114300000000    0.1693114300000000 Ag
   0.7800824900000000    0.5579644700000000    0.2537483600000000 O
   0.5579644700000000    0.2537483600000000    0.7800824900000000 O
   0.2537483600000000    0.7800824900000000    0.5579644700000000 O
   0.7537483600000000    0.0579644700000000    0.2800824900000000 O
   0.0579644700000000    0.2800824900000000    0.7537483600000000 O
   0.2800824900000000    0.7537483600000000    0.0579644700000000 O
   0.2199175100000000    0.4420355300000000    0.7462516400000000 O
   0.4420355300000000    0.7462516400000000    0.2199175100000000 O
   0.7462516400000000    0.2199175100000000    0.4420355300000000 O
   0.2462516400000000    0.9420355300000000    0.7199175100000000 O
   0.9420355300000000    0.7199175100000000    0.2462516400000000 O
   0.7199175100000000    0.2462516400000000    0.9420355300000000 O
   0.2500000000000000    0.5032525799999999    0.9967474200000001 O
   0.5032525799999999    0.9967474200000001    0.2500000000000000 O
   0.9967474200000001    0.2500000000000000    0.5032525799999999 O
   0.4967474200000000    0.0032525800000000    0.7500000000000000 O
   0.0032525800000000    0.7500000000000000    0.4967474200000000 O
   0.7500000000000000    0.4967474200000000    0.0032525800000000 O
   0.4061960900000000    0.4061960900000000    0.4061960900000000 O
   0.9061960900000000    0.9061960900000000    0.9061960900000000 O
   0.5938039100000000    0.5938039100000000    0.5938039100000000 O
   0.0938039100000000    0.0938039100000000    0.0938039100000000 O
