Cs4 Li4 Ti2 O8
1.0
   5.8246047000000001   -0.0087747400000000    0.0169717900000000
   0.4016546400000000    5.8897015499999998    0.0298039500000000
   2.5727013300000001    0.8897459599999999    8.8926055500000007
Cs Li Ti O
4 4 2 8
direct
   0.4659292700000000    0.8526902200000001    0.7188765499999999 Cs
   0.5340707300000000    0.1473097800000000    0.2811234500000000 Cs
   0.7818595600000000    0.7238600500000000    0.0151984200000000 Cs
   0.2181404400000000    0.2761399500000000    0.9848015800000000 Cs
   0.9276672200000000    0.1806996100000000    0.4406331000000000 Li
   0.0723327800000000    0.8193003900000000    0.5593669000000000 Li
   0.6921327500000000    0.5859926000000000    0.4239051700000000 Li
   0.3078672500000000    0.4140074000000000    0.5760948299999999 Li
   0.1404311700000000    0.6830180400000000    0.2851413600000000 Ti
   0.8595688300000000    0.3169819600000000    0.7148586400000000 Ti
   0.0279234700000000    0.5748852100000000    0.7134503400000000 O
   0.9720765300000000    0.4251147900000000    0.2865496600000000 O
   0.8973339700000000    0.8653001299999999    0.4032154300000000 O
   0.1026660300000000    0.1346998700000000    0.5967845700000000 O
   0.2639496300000000    0.7979013600000000    0.0886151600000000 O
   0.7360503700000000    0.2020986400000000    0.9113848400000000 O
   0.3722560800000000    0.6395972700000000    0.3940887000000000 O
   0.6277439200000000    0.3604027300000000    0.6059113000000000 O
