Ta2 Ti2 Ga2 O12
1.0
   4.6447733500000004    0.0000000000000000    0.0000000000000000
   0.0000000000000000    4.6447733500000004    0.0000000000000000
   0.0000000000000000    0.0000000000000000    9.0780038199999993
Ta Ti Ga O
2 2 2 12
direct
   0.5000000000000000    0.5000000000000000    0.8333516100000000 Ta
   0.0000000000000000    0.0000000000000000    0.3333516100000000 Ta
   0.5000000000000000    0.5000000000000000    0.4994654300000000 Ti
   0.0000000000000000    0.0000000000000000    0.9994654300000000 Ti
   0.5000000000000000    0.5000000000000000    0.1673723800000000 Ga
   0.0000000000000000    0.0000000000000000    0.6673723800000000 Ga
   0.1963744500000000    0.8036255500000000    0.1666134800000000 O
   0.1973616800000000    0.8026383200000000    0.4999352500000000 O
   0.1951118400000000    0.8048881600000000    0.8333565600000000 O
   0.8036255500000000    0.1963744500000000    0.1666134800000000 O
   0.8026383200000000    0.1973616800000000    0.4999352500000000 O
   0.8048881600000000    0.1951118400000000    0.8333565600000000 O
   0.3026383200000000    0.3026383200000000    0.9999352500000001 O
   0.3048881600000000    0.3048881600000000    0.3333565600000000 O
   0.3036255500000000    0.3036255500000000    0.6666134800000000 O
   0.6973616800000000    0.6973616800000000    0.9999352500000001 O
   0.6951118400000000    0.6951118400000000    0.3333565600000000 O
   0.6963744500000000    0.6963744500000000    0.6666134800000000 O
