Al2 Tl2 Se4
1.0
  -3.9840117899999998    3.9840117899999998    3.1613499799999998
   3.9840117899999998   -3.9840117899999998    3.1613499799999998
   3.9840117899999998    3.9840117899999998   -3.1613499799999998
Al Tl Se
2 2 4
direct
   0.7500000000000000    0.2500000000000000    0.5000000000000000 Al
   0.2500000000000000    0.7500000000000000    0.5000000000000000 Al
   0.7500000000000000    0.7500000000000000    0.0000000000000000 Tl
   0.2500000000000000    0.2500000000000000    0.0000000000000000 Tl
   0.3371554200000000    0.1628445800000000    0.5000000000000000 Se
   0.8371554200000000    0.3371554200000000    0.1743108400000000 Se
   0.6628445800000000    0.8371554200000000    0.5000000000000000 Se
   0.1628445800000000    0.6628445800000000    0.8256891600000000 Se
