Al8 Bi4 O18
1.0
   7.6745820100000000    0.0000000000000000    0.0000000000000000
   0.0000000000000000    8.1644986900000003    0.0000000000000000
   0.0000000000000000    0.0000000000000000    5.7093400200000000
Al Bi O
8 4 18
direct
   0.1475813500000000    0.8373335700000000    0.5000000000000000 Al
   0.8524186500000001    0.1626664300000000    0.5000000000000000 Al
   0.6475813499999999    0.6626664300000000    0.5000000000000000 Al
   0.3524186500000000    0.3373335700000000    0.5000000000000000 Al
   0.0000000000000000    0.5000000000000000    0.2599657600000000 Al
   0.5000000000000000    0.0000000000000000    0.7400342400000000 Al
   0.0000000000000000    0.5000000000000000    0.7400342400000000 Al
   0.5000000000000000    0.0000000000000000    0.2599657600000000 Al
   0.3345645300000000    0.6675607000000000    0.0000000000000000 Bi
   0.6654354700000000    0.3324393000000000    0.0000000000000000 Bi
   0.8345645300000000    0.8324393000000000    0.0000000000000000 Bi
   0.1654354700000000    0.1675607000000000    0.0000000000000000 Bi
   0.3540641100000000    0.9343125000000000    0.0000000000000000 O
   0.6459358900000000    0.0656875000000000    0.0000000000000000 O
   0.8540641100000000    0.5656875000000000    0.0000000000000000 O
   0.1459358900000000    0.4343125000000000    0.0000000000000000 O
   0.3624157500000000    0.9131277500000000    0.5000000000000000 O
   0.6375842500000000    0.0868722500000000    0.5000000000000000 O
   0.8624157500000000    0.5868722500000000    0.5000000000000000 O
   0.1375842500000000    0.4131277500000000    0.5000000000000000 O
   0.8757394500000000    0.2931586100000000    0.2494849500000000 O
   0.1242605500000000    0.7068413900000000    0.2494849500000000 O
   0.3757394500000000    0.2068413900000000    0.7505150500000000 O
   0.6242605500000000    0.7931586100000000    0.7505150500000000 O
   0.0000000000000000    0.0000000000000000    0.5000000000000000 O
   0.5000000000000000    0.5000000000000000    0.5000000000000000 O
   0.3757394500000000    0.2068413900000000    0.2494849500000000 O
   0.6242605500000000    0.7931586100000000    0.2494849500000000 O
   0.8757394500000000    0.2931586100000000    0.7505150500000000 O
   0.1242605500000000    0.7068413900000000    0.7505150500000000 O
