Cs2 Y2 Mo4 O16
1.0
   9.4973153999999997    0.0000000000000000   -0.0063416000000000
   0.0000000000000000    5.0543121099999997    0.0000000000000000
  -0.2914518400000000    0.0000000000000000    7.9183377400000001
Cs Y Mo O
2 2 4 16
direct
   0.5000000000000000    0.9567252900000000    0.2500000000000000 Cs
   0.5000000000000000    0.0432747100000000    0.7500000000000000 Cs
   0.0000000000000000    0.0011157200000000    0.2500000000000000 Y
   0.0000000000000000    0.9988842800000000    0.7500000000000000 Y
   0.8073632200000000    0.5230041700000000    0.4911189000000000 Mo
   0.1926367800000000    0.5230041700000000    0.0088811000000000 Mo
   0.1926367800000000    0.4769958300000000    0.5088811000000000 Mo
   0.8073632200000000    0.4769958300000000    0.9911189000000000 Mo
   0.6399098300000000    0.3831222300000000    0.4819239100000000 O
   0.3600901700000000    0.3831222300000000    0.0180760900000000 O
   0.3600901700000000    0.6168777700000000    0.5180760900000000 O
   0.6399098300000000    0.6168777700000000    0.9819239100000000 O
   0.8119286900000000    0.7436330100000000    0.3129780300000000 O
   0.1880713100000000    0.7436330100000000    0.1870219700000000 O
   0.1880713100000000    0.2563669900000000    0.6870219700000000 O
   0.8119286900000000    0.2563669900000000    0.8129780300000000 O
   0.8118415400000000    0.7399822700000001    0.6712639000000000 O
   0.1881584600000000    0.7399822700000001    0.8287361000000000 O
   0.1881584600000000    0.2600177300000000    0.3287361000000000 O
   0.8118415400000000    0.2600177300000000    0.1712639000000000 O
   0.9398614100000000    0.7503128100000001    0.9975184400000000 O
   0.0601385900000000    0.7503128100000001    0.5024815600000000 O
   0.0601385900000000    0.2496871900000000    0.0024815600000000 O
   0.9398614100000000    0.2496871900000000    0.4975184400000000 O
