Nb2 Al2 O8
1.0
   6.1232425199999998   -1.9119931200000000    0.0017074500000000
   6.1232425199999998    1.9119931200000000    0.0017074500000000
  -1.9788155300000001    0.0000000000000000    6.1865842100000004
Nb Al O
2 2 8
direct
   0.1059001100000000    0.1059001100000000    0.2331953600000000 Nb
   0.8940998900000000    0.8940998900000000    0.7668046400000000 Nb
   0.7981313200000000    0.7981313200000000    0.1765316600000000 Al
   0.2018686800000000    0.2018686800000000    0.8234683400000000 Al
   0.3557395400000000    0.3557395400000000    0.7964858500000001 O
   0.6442604600000000    0.6442604600000000    0.2035141500000000 O
   0.7365012900000000    0.7365012900000000    0.8587613300000000 O
   0.2634987100000000    0.2634987100000000    0.1412386700000000 O
   0.8591305700000000    0.8591305700000000    0.4713701900000000 O
   0.1408694300000000    0.1408694300000000    0.5286298100000000 O
   0.9410452100000000    0.9410452100000000    0.1336371800000000 O
   0.0589547900000000    0.0589547900000000    0.8663628200000000 O
