Rb12 Cd2 O8
1.0
   9.0431905700000002    0.0000000000000000    0.0000000000000000
  -4.5215952799999997    7.8316329199999997    0.0000000000000000
   0.0000000000000000    0.0000000000000000    6.8723045799999998
Rb Cd O
12 2 8
direct
   0.4619763300000000    0.9239526500000000    0.6158472600000000 Rb
   0.0760473500000000    0.5380236700000000    0.6158472600000000 Rb
   0.5380236700000000    0.0760473500000000    0.1158472600000000 Rb
   0.4619763300000000    0.5380236700000000    0.6158472600000000 Rb
   0.9239526500000000    0.4619763300000000    0.1158472600000000 Rb
   0.5380236700000000    0.4619763300000000    0.1158472600000000 Rb
   0.8562380900000000    0.7124771900000000    0.7810688500000000 Rb
   0.2875228100000000    0.1437619100000000    0.7810688500000000 Rb
   0.1437619100000000    0.2875228100000000    0.2810688500000000 Rb
   0.8562380900000000    0.1437619100000000    0.7810688500000000 Rb
   0.7124771900000000    0.8562380900000000    0.2810688500000000 Rb
   0.1437619100000000    0.8562380900000000    0.2810688500000000 Rb
   0.6666670000000000    0.3333330000000000    0.5075130200000000 Cd
   0.3333330000000000    0.6666670000000000    0.0075130200000000 Cd
   0.6666670000000000    0.3333330000000000    0.8297415000000000 O
   0.3333330000000000    0.6666670000000000    0.3297415000000000 O
   0.1962765600000000    0.3925531200000000    0.8986670600000000 O
   0.6074468800000000    0.8037234400000000    0.8986670600000000 O
   0.8037234400000000    0.6074468800000000    0.3986670600000000 O
   0.1962765600000000    0.8037234400000000    0.8986670600000000 O
   0.3925531200000000    0.1962765600000000    0.3986670600000000 O
   0.8037234400000000    0.1962765600000000    0.3986670600000000 O
