Rb2 Ag6 S4
1.0
   7.9059223200000002   -2.1006257300000000   -0.0133452600000000
   7.9059223200000002    2.1006257300000000   -0.0133452600000000
  -3.4753432700000002    0.0000000000000000    7.7870066199999997
Rb Ag S
2 6 4
direct
   0.8640983700000000    0.8640983700000000    0.9530567000000000 Rb
   0.1359016300000000    0.1359016300000000    0.0469433000000000 Rb
   0.3127559900000000    0.3127559900000000    0.5700984900000000 Ag
   0.9451234600000000    0.9451234600000000    0.6023516700000000 Ag
   0.6872440100000000    0.6872440100000000    0.4299015100000000 Ag
   0.4056745300000000    0.4056745300000000    0.3490284900000000 Ag
   0.5943254700000000    0.5943254700000000    0.6509715100000000 Ag
   0.0548765400000000    0.0548765400000000    0.3976483300000000 Ag
   0.4813147900000000    0.4813147900000000    0.7819178200000000 S
   0.1969667900000000    0.1969667900000000    0.6941406900000000 S
   0.8030332100000001    0.8030332100000001    0.3058593100000000 S
   0.5186852100000000    0.5186852100000000    0.2180821800000000 S
