Ca2 Te6 O16
1.0
   6.1801038999999998   -2.8367356099999999   -0.0021417500000000
   6.1801038999999998    2.8367356099999999   -0.0021417500000000
  -4.4755160700000003    0.0000000000000000    9.0717475299999997
Ca Te O
2 6 16
direct
   0.5642577300000000    0.4357422700000000    0.7500000000000000 Ca
   0.4357422700000000    0.5642577300000000    0.2500000000000000 Ca
   0.0000000000000000    0.0000000000000000    0.5000000000000000 Te
   0.0000000000000000    0.0000000000000000    0.0000000000000000 Te
   0.1342618500000000    0.3093268700000000    0.3596968200000000 Te
   0.6906731300000000    0.8657381500000000    0.1403031800000000 Te
   0.8657381500000000    0.6906731300000000    0.6403031800000000 Te
   0.3093268700000000    0.1342618500000000    0.8596968200000000 Te
   0.5759055000000000    0.7866728600000000    0.9099558500000000 O
   0.2133271400000000    0.4240945000000000    0.5900441500000000 O
   0.4240945000000000    0.2133271400000000    0.0900441500000000 O
   0.7866728600000000    0.5759055000000000    0.4099558500000000 O
   0.0074688200000000    0.1987716700000000    0.9064824200000000 O
   0.8012283300000000    0.9925311800000000    0.5935175800000000 O
   0.9925311800000000    0.8012283300000000    0.0935175800000000 O
   0.1987716700000000    0.0074688200000000    0.4064824200000000 O
   0.3085754300000000    0.8577234700000000    0.6590593800000000 O
   0.1422765300000000    0.6914245700000000    0.8409406200000000 O
   0.6914245700000000    0.1422765300000000    0.3409406200000000 O
   0.8577234700000000    0.3085754300000000    0.1590593800000000 O
   0.3481100600000000    0.8651258300000000    0.1238498000000000 O
   0.1348741700000000    0.6518899400000000    0.3761502000000000 O
   0.6518899400000000    0.1348741700000000    0.8761502000000000 O
   0.8651258300000000    0.3481100600000000    0.6238498000000000 O
