Li12 Ti4 O14
1.0
   5.0216884300000002   -2.8739820699999998    0.0212363100000000
   5.0216884300000002    2.8739820699999998    0.0212363100000000
  -1.8519037700000001    0.0000000000000000    9.5285563799999995
Li Ti O
12 4 14
direct
   0.3337872200000000    0.0762281300000000    0.8878298100000001 Li
   0.0762281300000000    0.3337872200000000    0.3878298100000000 Li
   0.7904438800000000    0.0783587000000000    0.9032160299999999 Li
   0.3319418000000000    0.5311251100000000    0.8904611300000000 Li
   0.0783587000000000    0.7904438800000000    0.4032160300000000 Li
   0.5311251100000000    0.3319418000000000    0.3904611300000000 Li
   0.4688748900000000    0.6680582000000000    0.6095388700000000 Li
   0.9216413000000000    0.2095561200000000    0.5967839700000001 Li
   0.6680582000000000    0.4688748900000000    0.1095388700000000 Li
   0.2095561200000000    0.9216413000000000    0.0967839700000000 Li
   0.9237718700000001    0.6662127799999999    0.6121701899999999 Li
   0.6662127799999999    0.9237718700000001    0.1121701900000000 Li
   0.4359579500000000    0.1959467200000000    0.6316643500000000 Ti
   0.1959467200000000    0.4359579500000000    0.1316643500000000 Ti
   0.8040532800000000    0.5640420500000000    0.8683356500000000 Ti
   0.5640420500000000    0.8040532800000000    0.3683356500000000 Ti
   0.1332864700000000    0.3615164600000000    0.7507628900000000 O
   0.9994584100000000    0.7306376900000000    0.9985051400000000 O
   0.3615164600000000    0.1332864700000000    0.2507628900000000 O
   0.7306376900000000    0.9994584100000000    0.4985051400000000 O
   0.2591019500000000    0.4964636900000000    0.5246397600000000 O
   0.6485671000000000    0.3514329000000000    0.7500000000000000 O
   0.4964636900000000    0.2591019500000000    0.0246397600000000 O
   0.5035363100000000    0.7408980500000000    0.9753602400000000 O
   0.3514329000000000    0.6485671000000000    0.2500000000000000 O
   0.7408980500000000    0.5035363100000000    0.4753602400000000 O
   0.2693623100000000    0.0005415900000000    0.5014948600000000 O
   0.6384835400000000    0.8667135300000000    0.7492371100000000 O
   0.0005415900000000    0.2693623100000000    0.0014948600000000 O
   0.8667135300000000    0.6384835400000000    0.2492371100000000 O
