Ba8 Ge4 O16
1.0
   6.0372320000000004    0.0000000000000000    0.0000000000000000
   0.0000000000000000    7.6189099999999996    0.0000000000000000
  -5.4678000000000004    0.0000000000000000   10.4195499999999992
Ba Ge O
8 4 16
direct
   0.4688030000000000    0.9994310000000000    0.6966720000000000 Ba
   0.1848730000000000    0.8445840000000000    0.9222680000000000 Ba
   0.1848730000000000    0.6554160000000000    0.4222680000000000 Ba
   0.4688030000000000    0.5005690000000000    0.1966720000000000 Ba
   0.5311970000000000    0.4994310000000000    0.8033280000000000 Ba
   0.8151270000000000    0.3445840000000000    0.5777320000000000 Ba
   0.8151270000000000    0.1554160000000000    0.0777320000000000 Ba
   0.5311970000000000    0.0005690000000000    0.3033280000000000 Ba
   0.8370460000000000    0.7797600000000000    0.5806620000000000 Ge
   0.8370460000000000    0.7202400000000000    0.0806620000000000 Ge
   0.1629540000000000    0.2797600000000000    0.9193380000000000 Ge
   0.1629540000000000    0.2202400000000000    0.4193380000000000 Ge
   0.2092890000000000    0.9891870000000000    0.4285890000000000 O
   0.6410420000000000    0.8242010000000000    0.1384190000000000 O
   0.7384990000000000    0.8197530000000000    0.9249670000000000 O
   0.1593770000000000    0.7723910000000000    0.1791930000000000 O
   0.1593770000000000    0.7276090000000000    0.6791930000000000 O
   0.7384990000000000    0.6802470000000000    0.4249670000000000 O
   0.6410420000000000    0.6757990000000000    0.6384190000000000 O
   0.2092890000000000    0.5108130000000000    0.9285890000000000 O
   0.7907110000000001    0.4891870000000000    0.0714110000000000 O
   0.3589580000000000    0.3242010000000000    0.3615810000000000 O
   0.2615010000000000    0.3197530000000000    0.5750330000000000 O
   0.8406230000000000    0.2723910000000000    0.3208070000000000 O
   0.8406230000000000    0.2276090000000000    0.8208070000000000 O
   0.2615010000000000    0.1802470000000000    0.0750330000000000 O
   0.3589580000000000    0.1757990000000000    0.8615810000000000 O
   0.7907110000000001    0.0108130000000000    0.5714110000000000 O
