Sr2 Nb1 Ga1 O6
1.0
  -2.7851835299999999    2.7851835999999999    3.9944287400000000
   2.7851835299999999   -2.7851835999999999    3.9944287400000000
   2.7851835999999999    2.7851835299999999   -3.9944287400000000
Sr Nb Ga O
2 1 1 6
direct
   0.7500000000000000    0.2500000000000000    0.5000000000000000 Sr
   0.2500000000000000    0.7500000000000000    0.5000000000000000 Sr
   0.5000000000000000    0.5000000000000000    0.0000000000000000 Nb
   0.0000000000000000    0.0000000000000000    0.0000000000000000 Ga
   0.2868492900000000    0.2097303000000000    0.4965795800000000 O
   0.7131507100000000    0.7902697000000000    0.5034204200000000 O
   0.2097303000000000    0.7131507100000000    0.9228800100000000 O
   0.7902697000000000    0.2868492900000000    0.0771199900000000 O
   0.2487150300000000    0.2487150300000000    0.0000000000000000 O
   0.7512849700000001    0.7512849700000001    0.0000000000000000 O
