Li2 Se1
1.0
   0.0000000000000000    2.9804533700000002    2.9804533700000002
   2.9804533700000002    0.0000000000000000    2.9804533700000002
   2.9804533700000002    2.9804533700000002    0.0000000000000000
Li Se
2 1
direct
   0.7500000000000000    0.7500000000000000    0.7500000000000000 Li
   0.2500000000000000    0.2500000000000000    0.2500000000000000 Li
   0.0000000000000000    0.0000000000000000    0.0000000000000000 Se
