Mg4 V4 O14
1.0
   4.9775055400000001   -0.0085340200000000    0.0120337700000000
  -0.8350323700000000    5.3381185499999999    0.0248725800000000
  -2.1521091499999998   -2.4360045800000001    9.9414663300000008
Mg V O
4 4 14
direct
   0.5210626500000000    0.7905097800000001    0.0865820500000000 Mg
   0.4789373500000000    0.2094902200000000    0.9134179500000000 Mg
   0.4254982200000000    0.2131566800000000    0.4181131300000000 Mg
   0.5745017800000000    0.7868433200000000    0.5818868699999999 Mg
   0.0325592700000000    0.3612215200000000    0.6454662900000000 V
   0.9674407300000000    0.6387784800000000    0.3545337100000000 V
   0.8445171400000000    0.8111267500000000    0.8694086400000000 V
   0.1554828600000000    0.1888732500000000    0.1305913600000000 V
   0.2938950900000000    0.4429310100000000    0.5657833700000000 O
   0.7061049100000000    0.5570689900000000    0.4342166300000000 O
   0.6013205200000000    0.9529473800000000    0.7804867000000000 O
   0.3986794800000000    0.0470526200000000    0.2195133000000000 O
   0.7595932800000000    0.1247165800000000    0.5439032700000000 O
   0.2404067200000000    0.8752834200000000    0.4560967300000000 O
   0.3176790800000000    0.4265168300000000    0.0723073800000000 O
   0.6823209200000000    0.5734831700000000    0.9276926200000000 O
   0.9073296500000000    0.6471749500000000    0.7123562400000000 O
   0.0926703500000000    0.3528250500000000    0.2876437600000000 O
   0.2081401300000000    0.9267266900000000    0.9669453900000000 O
   0.7918598700000000    0.0732733100000000    0.0330546100000000 O
   0.1584845100000000    0.2470212800000000    0.7763593800000000 O
   0.8415154900000000    0.7529787200000000    0.2236406200000000 O
