Ba2 Zr2 Si6 O18
1.0
   6.7941111599999999    0.0000000100000000    0.0000000000000000
  -3.3970560700000001    5.8838735399999997    0.0000000000000000
   0.0000000000000000    0.0000000000000000   10.1112149200000001
Ba Zr Si O
2 2 6 18
direct
   0.0000000000000000    0.0000000000000000    0.0000000000000000 Ba
   0.0000000000000000    0.0000000000000000    0.5000000000000000 Ba
   0.6666670000000000    0.3333330000000000    0.0000000000000000 Zr
   0.6666670000000000    0.3333330000000000    0.5000000000000000 Zr
   0.3881736500000000    0.4420197000000000    0.2500000000000000 Si
   0.5579803000000000    0.9461539600000000    0.2500000000000000 Si
   0.3881736500000000    0.9461539600000000    0.7500000000000000 Si
   0.0538460400000000    0.6118263500000000    0.2500000000000000 Si
   0.5579803000000000    0.6118263500000000    0.7500000000000000 Si
   0.0538460400000000    0.4420197000000000    0.7500000000000000 Si
   0.9142037900000000    0.5964884800000000    0.1167225600000000 O
   0.4035115200000000    0.3177163100000000    0.1167225600000000 O
   0.9142037900000000    0.5964884800000000    0.3832774400000000 O
   0.9142037900000000    0.3177163100000000    0.6167225600000000 O
   0.6822836900000000    0.0857962100000000    0.1167225600000000 O
   0.4035115200000000    0.3177163100000000    0.3832774400000000 O
   0.4035115200000000    0.0857962100000000    0.6167225600000000 O
   0.9142037900000000    0.3177163100000000    0.8832774400000000 O
   0.6822836900000000    0.0857962100000000    0.3832774400000000 O
   0.4035115200000000    0.0857962100000000    0.8832774400000000 O
   0.6822836900000000    0.5964884800000000    0.6167225600000000 O
   0.6822836900000000    0.5964884800000000    0.8832774400000000 O
   0.1349068400000000    0.4201822800000000    0.2500000000000000 O
   0.5798177200000000    0.7147245600000000    0.2500000000000000 O
   0.1349068400000000    0.7147245600000000    0.7500000000000000 O
   0.2852754400000000    0.8650931600000000    0.2500000000000000 O
   0.5798177200000000    0.8650931600000000    0.7500000000000000 O
   0.2852754400000000    0.4201822800000000    0.7500000000000000 O
