Cs2 Na4 B2 O6
1.0
   5.7494430000000003    0.0000000000000000    0.0000000000000000
   0.0000000000000000    6.1562705500000003    0.0000000000000000
   0.0000000000000000    0.0000000000000000    5.5521391199999997
Cs Na B O
2 4 2 6
direct
   0.5000000000000000    0.5000000000000000    0.8716854100000000 Cs
   0.0000000000000000    0.0000000000000000    0.1283145900000000 Cs
   0.5000000000000000    0.7683055400000000    0.3614632100000000 Na
   0.5000000000000000    0.2316944600000000    0.3614632100000000 Na
   0.0000000000000000    0.7316944600000000    0.6385367900000000 Na
   0.0000000000000000    0.2683055400000000    0.6385367900000000 Na
   0.5000000000000000    0.0000000000000000    0.7816129600000000 B
   0.0000000000000000    0.5000000000000000    0.2183870400000000 B
   0.2916704400000000    0.0000000000000000    0.6492559800000000 O
   0.2083295600000000    0.5000000000000000    0.3507440200000000 O
   0.5000000000000000    0.0000000000000000    0.0313687200000000 O
   0.0000000000000000    0.5000000000000000    0.9686312800000000 O
   0.7916704400000000    0.5000000000000000    0.3507440200000000 O
   0.7083295600000000    0.0000000000000000    0.6492559800000000 O
