Bi4 Se6 O20
1.0
   7.9277115599999997   -3.7523146900000000    0.0552916100000000
   7.9277115599999997    3.7523146900000000    0.0552916100000000
  -3.0651943799999999    0.0000000000000000    7.3687201199999999
Bi Se O
4 6 20
direct
   0.1714180100000000    0.4661599000000000    0.3527325700000000 Bi
   0.5338401000000000    0.8285819900000000    0.1472674300000000 Bi
   0.8285819900000000    0.5338401000000000    0.6472674300000000 Bi
   0.4661599000000000    0.1714180100000000    0.8527325700000000 Bi
   0.0525111600000000    0.1983178200000000    0.9714528600000000 Se
   0.8016821800000000    0.9474888400000000    0.5285471400000000 Se
   0.9474888400000000    0.8016821800000000    0.0285471400000000 Se
   0.1983178200000000    0.0525111600000000    0.4714528600000000 Se
   0.3845191500000000    0.6154808500000000    0.7500000000000000 Se
   0.6154808500000000    0.3845191500000000    0.2500000000000000 Se
   0.2446615700000000    0.7166894400000000    0.5635550100000000 O
   0.2833105600000000    0.7553384300000000    0.9364449900000000 O
   0.7553384300000000    0.2833105600000000    0.4364449900000000 O
   0.7166894400000000    0.2446615700000000    0.0635550100000000 O
   0.6023542000000000    0.5867844400000000    0.8092591000000000 O
   0.4132155600000000    0.3976458000000000    0.6907409000000000 O
   0.3976458000000000    0.4132155600000000    0.1907409000000000 O
   0.5867844400000000    0.6023542000000000    0.3092591000000000 O
   0.9574907100000000    0.4251777100000000    0.1152084100000000 O
   0.5748222900000000    0.0425092900000000    0.3847915900000000 O
   0.0425092900000000    0.5748222900000000    0.8847915900000000 O
   0.4251777100000000    0.9574907100000000    0.6152084100000000 O
   0.9997370600000000    0.2525936400000000    0.7628440399999999 O
   0.7474063600000000    0.0002629400000000    0.7371559600000001 O
   0.0002629400000000    0.7474063600000000    0.2371559600000000 O
   0.2525936400000000    0.9997370600000000    0.2628440400000000 O
   0.3080649600000000    0.1091317600000000    0.0202929800000000 O
   0.8908682400000000    0.6919350399999999    0.4797070200000000 O
   0.6919350399999999    0.8908682400000000    0.9797070200000000 O
   0.1091317600000000    0.3080649600000000    0.5202929800000000 O
