Sr4 Zn2 Si4 O14
1.0
   7.9493169999999997    0.0000000000000000    0.0000000000000000
   0.0000000000000000    7.9493169999999997    0.0000000000000000
   0.0000000000000000    0.0000000000000000    5.1585714800000000
Sr Zn Si O
4 2 4 14
direct
   0.3348121900000000    0.8348121900000000    0.5074168500000000 Sr
   0.1651878100000000    0.3348121900000000    0.4925831500000000 Sr
   0.6651878100000000    0.1651878100000000    0.5074168500000000 Sr
   0.8348121900000000    0.6651878100000000    0.4925831500000000 Sr
   0.5000000000000000    0.5000000000000000    0.0000000000000000 Zn
   0.0000000000000000    0.0000000000000000    0.0000000000000000 Zn
   0.1399201900000000    0.6399201900000000    0.9496474400000000 Si
   0.3600798100000000    0.1399201900000000    0.0503525600000000 Si
   0.8600798100000000    0.3600798100000000    0.9496474400000000 Si
   0.6399201900000000    0.8600798100000000    0.0503525600000000 Si
   0.5000000000000000    0.0000000000000000    0.1622820700000000 O
   0.0000000000000000    0.5000000000000000    0.8377179300000001 O
   0.1392726700000000    0.6392726700000000    0.2621634700000000 O
   0.3607273300000000    0.1392726700000000    0.7378365300000000 O
   0.8607273300000000    0.3607273300000000    0.2621634700000000 O
   0.6392726700000000    0.8607273300000000    0.7378365300000000 O
   0.3132401900000000    0.5804454300000000    0.8027635000000000 O
   0.1867598100000000    0.0804454300000000    0.1972365000000000 O
   0.6867598100000000    0.4195545700000000    0.8027635000000000 O
   0.8132401900000000    0.9195545700000000    0.1972365000000000 O
   0.5804454300000000    0.6867598100000000    0.1972365000000000 O
   0.9195545700000000    0.1867598100000000    0.8027635000000000 O
   0.4195545700000000    0.3132401900000000    0.1972365000000000 O
   0.0804454300000000    0.8132401900000000    0.8027635000000000 O
