Cs4 Ti2 O6
1.0
   5.5176472600000004   -3.7941362900000000    0.0000000000000000
   5.5176472600000004    3.7941362900000000    0.0000000000000000
   0.0000000000000000    0.0000000000000000    5.6094572400000002
Cs Ti O
4 2 6
direct
   0.0094997400000000    0.3149205100000000    0.2500000000000000 Cs
   0.9905002600000000    0.6850794900000000    0.7500000000000000 Cs
   0.3149205100000000    0.0094997400000000    0.7500000000000000 Cs
   0.6850794900000000    0.9905002600000000    0.2500000000000000 Cs
   0.5768893600000000    0.4231106400000000    0.7500000000000000 Ti
   0.4231106400000000    0.5768893600000000    0.2500000000000000 Ti
   0.6164494200000000    0.6164494200000000    0.5000000000000000 O
   0.3835505800000000    0.3835505800000000    0.0000000000000000 O
   0.8165174500000000    0.1834825500000000    0.7500000000000000 O
   0.1834825500000000    0.8165174500000000    0.2500000000000000 O
   0.6164494200000000    0.6164494200000000    0.0000000000000000 O
   0.3835505800000000    0.3835505800000000    0.5000000000000000 O
