Rb6 Ge2 P2 Se14
1.0
   7.2026862100000004    0.0094306600000000   -0.0142795300000000
   3.5598661699999998    9.0783954799999993   -0.0826869200000000
   0.0789424400000000    2.3732891399999998   11.6124791900000002
Rb Ge P Se
6 2 2 14
direct
   0.0606735800000000    0.4832027200000000    0.7911022400000000 Rb
   0.9393264200000000    0.5167972800000000    0.2088977600000000 Rb
   0.6837766199999999    0.1296428400000000    0.3945070300000000 Rb
   0.3162233800000000    0.8703571600000000    0.6054929700000000 Rb
   0.6157629200000000    0.1866456900000000    0.0118478000000000 Rb
   0.3842370800000000    0.8133543100000000    0.9881522000000000 Rb
   0.3951251900000000    0.5627469800000000    0.3708670600000000 Ge
   0.6048748100000000    0.4372530200000000    0.6291329400000000 Ge
   0.2350352900000000    0.0658176500000000    0.2241281700000000 P
   0.7649647100000000    0.9341823500000001    0.7758718300000000 P
   0.1132541700000000    0.2135266900000000    0.0558981800000000 Se
   0.8867458300000000    0.7864733100000000    0.9441018200000000 Se
   0.0387468900000000    0.9337596000000000    0.1953287200000000 Se
   0.9612531100000000    0.0662404000000000    0.8046712800000000 Se
   0.0703530500000000    0.7605884800000000    0.3691579600000000 Se
   0.9296469500000000    0.2394115200000000    0.6308420400000000 Se
   0.3478834200000000    0.3879740700000000    0.5326100300000000 Se
   0.6521165799999999    0.6120259300000001    0.4673899700000000 Se
   0.4640151200000000    0.4847780400000000    0.1988381500000000 Se
   0.5359848800000000    0.5152219600000000    0.8011618500000000 Se
   0.4524861800000000    0.0817389100000000    0.7688924200000000 Se
   0.5475138200000000    0.9182610900000000    0.2311075800000000 Se
   0.1571613300000000    0.1688502600000000    0.3743843300000000 Se
   0.8428386700000000    0.8311497400000000    0.6256156700000000 Se
