Zn6 P4 O16
1.0
   4.0679659499999996   -2.7861096000000001   -0.0150503500000000
   4.0679659499999996    2.7861096000000001   -0.0150503500000000
  -3.9170384999999999    0.0000000000000000   14.5256015900000008
Zn P O
6 4 16
direct
   0.1699178700000000    0.2827738100000000    0.4340952100000000 Zn
   0.2361809800000000    0.7638190200000000    0.2500000000000000 Zn
   0.2827738100000000    0.1699178700000000    0.9340952100000000 Zn
   0.7172261900000000    0.8300821300000000    0.0659047900000000 Zn
   0.7638190200000000    0.2361809800000000    0.7500000000000000 Zn
   0.8300821300000000    0.7172261900000000    0.5659047900000000 Zn
   0.0875958500000000    0.2387786300000000    0.1280065100000000 P
   0.9124041500000000    0.7612213700000000    0.8719934900000000 P
   0.7612213700000000    0.9124041500000000    0.3719934900000000 P
   0.2387786300000000    0.0875958500000000    0.6280065100000000 P
   0.9733628200000000    0.0138446600000000    0.6469362800000000 O
   0.3833815000000000    0.2146243700000000    0.7195934300000000 O
   0.4383170900000000    0.8095824600000000    0.5766446100000000 O
   0.0138446600000000    0.9733628200000000    0.1469362800000000 O
   0.0266371800000000    0.9861553400000000    0.3530637200000000 O
   0.2146243700000000    0.3833815000000000    0.2195934300000000 O
   0.9861553400000000    0.0266371800000000    0.8530637200000000 O
   0.5616829100000000    0.1904175400000000    0.4233553900000000 O
   0.7853756300000000    0.6166185000000000    0.7804065700000000 O
   0.3238638500000000    0.1053493300000000    0.0613294900000000 O
   0.1904175400000000    0.5616829100000000    0.9233553900000000 O
   0.6761361500000000    0.8946506700000000    0.9386705100000000 O
   0.1053493300000000    0.3238638500000000    0.5613294900000000 O
   0.8095824600000000    0.4383170900000000    0.0766446100000000 O
   0.8946506700000000    0.6761361500000000    0.4386705100000000 O
   0.6166185000000000    0.7853756300000000    0.2804065700000000 O
