Li6 V2 O8
1.0
   6.3106247900000003    0.0000000000000000    0.0000000000000000
   0.0000000000000000    5.4397693299999998    0.0000000000000000
   0.0000000000000000    0.0000000000000000    4.9374401600000004
Li V O
6 2 8
direct
   0.0000000000000000    0.1666114200000000    0.4895040000000000 Li
   0.7525595500000000    0.3318082300000000    0.9899904100000000 Li
   0.7474404500000000    0.6681917700000000    0.4899904100000000 Li
   0.5000000000000000    0.8333885800000000    0.9895040000000001 Li
   0.2525595500000000    0.6681917700000000    0.4899904100000000 Li
   0.2474404500000000    0.3318082300000000    0.9899904100000000 Li
   0.0000000000000000    0.8302428500000000    0.9985543000000000 V
   0.5000000000000000    0.1697571500000000    0.4985543000000000 V
   0.0000000000000000    0.1326961600000000    0.8903470000000000 O
   0.0000000000000000    0.8275559600000000    0.3480507900000000 O
   0.7739797500000000    0.6793296200000000    0.8891475400000000 O
   0.7260202500000000    0.3206703800000000    0.3891475400000000 O
   0.5000000000000000    0.1724440400000000    0.8480507900000001 O
   0.5000000000000000    0.8673038400000000    0.3903470000000000 O
   0.2739797500000000    0.3206703800000000    0.3891475400000000 O
   0.2260202500000000    0.6793296200000000    0.8891475400000000 O
