Al4 Hg2 Se8
1.0
   0.0000000000000000    5.4213771199999998    5.4213771199999998
   5.4213771199999998    0.0000000000000000    5.4213771199999998
   5.4213771199999998    5.4213771199999998    0.0000000000000000
Al Hg Se
4 2 8
direct
   0.6250000000000000    0.1250000000000000    0.1250000000000000 Al
   0.1250000000000000    0.6250000000000000    0.1250000000000000 Al
   0.1250000000000000    0.1250000000000000    0.6250000000000000 Al
   0.1250000000000000    0.1250000000000000    0.1250000000000000 Al
   0.7500000000000000    0.7500000000000000    0.7500000000000000 Hg
   0.5000000000000000    0.5000000000000000    0.5000000000000000 Hg
   0.3326321700000000    0.8891226100000000    0.8891226100000000 Se
   0.8891226100000000    0.3326321700000000    0.8891226100000000 Se
   0.8891226100000000    0.8891226100000000    0.3326321700000000 Se
   0.8891226100000000    0.8891226100000000    0.8891226100000000 Se
   0.9173678300000000    0.3608773900000000    0.3608773900000000 Se
   0.3608773900000000    0.9173678300000000    0.3608773900000000 Se
   0.3608773900000000    0.3608773900000000    0.9173678300000000 Se
   0.3608773900000000    0.3608773900000000    0.3608773900000000 Se
