Cs4 Li2 Nb2 S8
1.0
   6.9210073200000002    0.0134501900000000   -0.0105405300000000
  -0.1560487800000000    7.2263298400000000    0.0179501700000000
  -0.4578454800000000   -1.1670911200000000    9.7018657000000008
Cs Li Nb S
4 2 2 8
direct
   0.3016165000000000    0.7552831200000000    0.0087014800000000 Cs
   0.1301586400000000    0.2006851900000000    0.6543331999999999 Cs
   0.8698413600000000    0.7993148100000000    0.3456668000000000 Cs
   0.6983835000000000    0.2447168800000000    0.9912985200000000 Cs
   0.4037540800000000    0.6783371800000000    0.5709312400000000 Li
   0.5962459200000000    0.3216628200000000    0.4290687600000000 Li
   0.7841919500000000    0.7078491000000000    0.7516674400000000 Nb
   0.2158080500000000    0.2921509000000000    0.2483325600000000 Nb
   0.3803133700000000    0.0554208600000000    0.3331868700000000 S
   0.3971991100000000    0.5602152800000000    0.3241227300000000 S
   0.8011908500000000    0.7488936800000000    0.9870189400000000 S
   0.9102449000000000    0.2999464500000000    0.3299446700000000 S
   0.0897551000000000    0.7000535500000000    0.6700553299999999 S
   0.6028008900000000    0.4397847200000000    0.6758772700000000 S
   0.6196866300000000    0.9445791400000000    0.6668131300000000 S
   0.1988091500000000    0.2511063200000000    0.0129810600000000 S
