Li8 Te4 O16
1.0
   6.0572347400000002    0.0000000000000000    0.0000000000000000
   0.0000000000000000    6.0572347400000002    0.0000000000000000
   0.0000000000000000    0.0000000000000000    8.3428883299999992
Li Te O
8 4 16
direct
   0.7456063900000000    0.7456063900000000    0.8750000000000000 Li
   0.2543936100000000    0.7456063900000000    0.1250000000000000 Li
   0.7456063900000000    0.2543936100000000    0.6250000000000000 Li
   0.2543936100000000    0.2543936100000000    0.3750000000000000 Li
   0.7095244300000000    0.5000000000000000    0.2500000000000000 Li
   0.5000000000000000    0.2904755700000000    0.0000000000000000 Li
   0.5000000000000000    0.7095244300000000    0.5000000000000000 Li
   0.2904755700000000    0.5000000000000000    0.7500000000000000 Li
   0.0000000000000000    0.7301031000000000    0.5000000000000000 Te
   0.2698969000000000    0.0000000000000000    0.7500000000000000 Te
   0.7301031000000000    0.0000000000000000    0.2500000000000000 Te
   0.0000000000000000    0.2698969000000000    0.0000000000000000 Te
   0.2254245000000000    0.9810578400000000    0.5151119199999999 O
   0.7745755000000000    0.9810578400000000    0.4848880800000000 O
   0.0189421600000000    0.2254245000000000    0.7651119199999999 O
   0.7745755000000000    0.0189421600000000    0.0151119200000000 O
   0.2329330200000000    0.4696978600000000    0.0052916800000000 O
   0.5303021400000000    0.2329330200000000    0.2552916800000000 O
   0.4696978600000000    0.7670669800000000    0.7552916800000000 O
   0.2329330200000000    0.5303021400000000    0.4947083200000000 O
   0.7670669800000000    0.4696978600000000    0.9947083200000000 O
   0.7670669800000000    0.5303021400000000    0.5052916800000000 O
   0.4696978600000000    0.2329330200000000    0.7447083200000000 O
   0.5303021400000000    0.7670669800000000    0.2447083200000000 O
   0.9810578400000000    0.2254245000000000    0.2348880800000000 O
   0.2254245000000000    0.0189421600000000    0.9848880800000001 O
   0.9810578400000000    0.7745755000000000    0.2651119200000000 O
   0.0189421600000000    0.7745755000000000    0.7348880800000001 O
