Cs2 Hf1 W3 O12
1.0
   6.3681305699999999   -3.6839418199999998   -0.0043600700000000
   6.3681305699999999    3.6839418199999998   -0.0043600700000000
  -4.2442515900000002    0.0000000000000000    6.0826885199999996
Cs Hf W O
2 1 3 12
direct
   0.8571607400000000    0.8876891700000000    0.1204907200000000 Cs
   0.1123108300000000    0.1428392600000000    0.8795092799999999 Cs
   0.5053124100000000    0.4946875900000000    0.0000000000000000 Hf
   0.9816088500000000    0.5144037100000000    0.5074493700000000 W
   0.4855962900000000    0.0183911500000000    0.4925506300000000 W
   0.4809238600000000    0.5190761400000000    0.5000000000000000 W
   0.1899603500000000    0.1942042600000000    0.4460941400000000 O
   0.5703899500000000    0.5607263700000000    0.7993081900000000 O
   0.1736136800000000    0.5608888100000000    0.7995875000000000 O
   0.5574701800000000    0.1956186900000000    0.4442119300000000 O
   0.5693988700000000    0.1633820300000000    0.7986285000000000 O
   0.1894416400000000    0.5663634900000000    0.4491537200000000 O
   0.8057957400000000    0.8100396500000000    0.5539058600000000 O
   0.4392736300000000    0.4296100500000000    0.2006918100000000 O
   0.8366179700000000    0.4306011300000000    0.2013715000000000 O
   0.4336365100000000    0.8105583600000000    0.5508462800000000 O
   0.4391111900000000    0.8263863200000000    0.2004125000000000 O
   0.8043813100000000    0.4425298200000000    0.5557880700000000 O
