Zn4 Ag4 P4 O16
1.0
   5.1277606599999999    0.0000000000000000    0.0209394200000000
   0.0000000000000000   10.2454751500000008    0.0000000000000000
  -5.0529105500000000    0.0000000000000000    7.2231854100000001
Zn Ag P O
4 4 4 16
direct
   0.6625311900000000    0.3383918500000000    0.9779596000000000 Zn
   0.6625311900000000    0.1616081500000000    0.4779596000000000 Zn
   0.3374688100000000    0.6616081500000000    0.0220404000000000 Zn
   0.3374688100000000    0.8383918500000000    0.5220404000000000 Zn
   0.1667776000000000    0.3901850000000000    0.4797515000000000 Ag
   0.1667776000000000    0.1098150000000000    0.9797515000000000 Ag
   0.8332224000000000    0.6098150000000000    0.5202485000000000 Ag
   0.8332224000000000    0.8901850000000000    0.0202485000000000 Ag
   0.3927326200000000    0.3974735900000000    0.2096778300000000 P
   0.3927326200000000    0.1025264100000000    0.7096778300000000 P
   0.6072673800000000    0.6025264100000000    0.7903221700000000 P
   0.6072673800000000    0.8974735900000000    0.2903221700000000 P
   0.0730520200000000    0.3800958200000000    0.1884464400000000 O
   0.0730520200000000    0.1199041800000000    0.6884464400000000 O
   0.9269479800000000    0.6199041800000000    0.8115535600000000 O
   0.9269479800000000    0.8800958200000000    0.3115535600000000 O
   0.4806134200000000    0.5439736200000000    0.2222595400000000 O
   0.4806134200000000    0.9560263800000000    0.7222595400000000 O
   0.5193865800000000    0.4560263800000000    0.7777404600000000 O
   0.5193865800000000    0.0439736200000000    0.2777404600000000 O
   0.3685060300000000    0.3325637500000000    0.0442147300000000 O
   0.3685060300000000    0.1674362500000000    0.5442147300000000 O
   0.6314939700000000    0.6674362500000000    0.9557852700000000 O
   0.6314939700000000    0.8325637500000000    0.4557852700000000 O
   0.6584582300000000    0.3353762100000000    0.3970989900000000 O
   0.6584582300000000    0.1646237900000000    0.8970989900000000 O
   0.3415417700000000    0.6646237900000000    0.6029010100000000 O
   0.3415417700000000    0.8353762100000000    0.1029010100000000 O
