Zr2 Mo4 O16
1.0
   5.8002466699999999   -3.9489466800000002    0.0418547500000000
   5.8002466699999999    3.9489466800000002    0.0418547500000000
  -4.0208015300000000    0.0000000000000000    6.3225615499999996
Zr Mo O
2 4 16
direct
   0.0207030100000000    0.9792969900000000    0.7500000000000000 Zr
   0.9792969900000000    0.0207030100000000    0.2500000000000000 Zr
   0.5039737700000000    0.0579836400000000    0.7404249100000000 Mo
   0.9420163600000000    0.4960262300000000    0.7595750900000000 Mo
   0.4960262300000000    0.9420163600000000    0.2595750900000000 Mo
   0.0579836400000000    0.5039737700000000    0.2404249100000000 Mo
   0.3286999600000000    0.3983123600000000    0.3358958300000000 O
   0.3529023900000000    0.9381108600000000    0.7890194300000000 O
   0.2047741100000000    0.9788196200000000    0.0795466800000000 O
   0.9381108600000000    0.3529023900000000    0.2890194300000000 O
   0.6812518600000000    0.0107572200000000    0.5611279600000000 O
   0.9788196200000000    0.2047741100000000    0.5795466800000000 O
   0.6016876400000000    0.6713000400000000    0.1641041700000000 O
   0.9892427800000000    0.3187481400000000    0.9388720400000000 O
   0.0211803800000000    0.7952258900000000    0.4204533200000000 O
   0.0107572200000000    0.6812518600000000    0.0611279600000000 O
   0.6470976100000000    0.0618891400000000    0.2109805700000000 O
   0.7952258900000000    0.0211803800000000    0.9204533200000000 O
   0.0618891400000000    0.6470976100000000    0.7109805700000000 O
   0.3983123600000000    0.3286999600000000    0.8358958300000000 O
   0.3187481400000000    0.9892427800000000    0.4388720400000000 O
   0.6713000400000000    0.6016876400000000    0.6641041700000000 O
