Se8 O16
1.0
   8.3070654099999999    0.0000000000000000    0.0000000000000000
   0.0000000000000000    8.3070654099999999    0.0000000000000000
   0.0000000000000000    0.0000000000000000    5.0798942399999998
Se O
8 16
direct
   0.2924701100000000    0.3662761300000000    0.0000000000000000 Se
   0.2075298900000000    0.8662761300000000    0.0000000000000000 Se
   0.3662761300000000    0.7075298900000000    0.5000000000000000 Se
   0.1337238700000000    0.2075298900000000    0.5000000000000000 Se
   0.6337238700000000    0.2924701100000000    0.5000000000000000 Se
   0.7924701100000000    0.1337238700000000    0.0000000000000000 Se
   0.7075298900000000    0.6337238700000000    0.0000000000000000 Se
   0.8662761300000000    0.7924701100000000    0.5000000000000000 Se
   0.5626440700000001    0.6737706000000000    0.5000000000000000 O
   0.1737706000000000    0.0626440700000000    0.0000000000000000 O
   0.3642211000000000    0.8642211000000000    0.2500000000000000 O
   0.3642211000000000    0.8642211000000000    0.7500000000000000 O
   0.9373559299999999    0.1737706000000000    0.5000000000000000 O
   0.8642211000000000    0.6357789000000000    0.7500000000000000 O
   0.8642211000000000    0.6357789000000000    0.2500000000000000 O
   0.8262294000000000    0.9373559299999999    0.0000000000000000 O
   0.0626440700000000    0.8262294000000000    0.5000000000000000 O
   0.4373559300000000    0.3262294000000000    0.5000000000000000 O
   0.6357789000000000    0.1357789000000000    0.7500000000000000 O
   0.1357789000000000    0.3642211000000000    0.2500000000000000 O
   0.6737706000000000    0.4373559300000000    0.0000000000000000 O
   0.6357789000000000    0.1357789000000000    0.2500000000000000 O
   0.1357789000000000    0.3642211000000000    0.7500000000000000 O
   0.3262294000000000    0.5626440700000001    0.0000000000000000 O
