Sr3 Nb1 Ga3 Si2 O14
1.0
   8.2992003899999993   -0.0000000100000000    0.0000000000000000
  -4.1495997100000004    7.1873178199999996    0.0000000000000000
   0.0000000000000000    0.0000000000000000    5.0925670900000002
Sr Nb Ga Si O
3 1 3 2 14
direct
   0.4286895500000000    1.0000000000000000    0.0000000000000000 Sr
   0.5713104500000000    0.5713104500000000    0.0000000000000000 Sr
   0.0000000000000000    0.4286895500000000    0.0000000000000000 Sr
   0.0000000000000000    0.0000000000000000    0.0000000000000000 Nb
   0.7458180000000000    0.0000000000000000    0.5000000000000000 Ga
   0.2541820000000000    0.2541820000000000    0.5000000000000000 Ga
   1.0000000000000000    0.7458180000000000    0.5000000000000000 Ga
   0.6666670000000000    0.3333330000000000    0.5368086000000000 Si
   0.3333330000000000    0.6666670000000000    0.4631914000000000 Si
   0.6666670000000000    0.3333330000000000    0.2210060200000000 O
   0.3333330000000000    0.6666670000000000    0.7789939800000000 O
   0.1652430500000000    0.6911192400000000    0.3268896600000000 O
   0.5258761900000000    0.8347569500000001    0.3268896600000000 O
   0.3088807600000000    0.4741238100000000    0.3268896600000000 O
   0.8347569500000001    0.5258761900000000    0.6731103400000000 O
   0.6911192400000000    0.1652430500000000    0.6731103400000000 O
   0.4741238100000000    0.3088807600000000    0.6731103400000000 O
   0.1316340800000000    0.9071488700000000    0.7657796100000001 O
   0.7755147900000000    0.8683659200000000    0.7657796100000001 O
   0.0928511300000000    0.2244852100000000    0.7657796100000001 O
   0.8683659200000000    0.7755147900000000    0.2342203900000000 O
   0.9071488700000000    0.1316340800000000    0.2342203900000000 O
   0.2244852100000000    0.0928511300000000    0.2342203900000000 O
