Cs4 Cd4 B4 O12
1.0
   7.4924891400000000    0.0000000000000000    0.0000000000000000
   0.0000000000000000    7.4924891400000000    0.0000000000000000
   0.0000000000000000    0.0000000000000000    7.4924891400000000
Cs Cd B O
4 4 4 12
direct
   0.6368468000000000    0.1368468000000000    0.3631532000000000 Cs
   0.1368468000000000    0.3631532000000000    0.6368468000000000 Cs
   0.3631532000000000    0.6368468000000000    0.1368468000000000 Cs
   0.8631532000000000    0.8631532000000000    0.8631532000000000 Cs
   0.6466548500000000    0.3533451500000000    0.8533451500000000 Cd
   0.1466548500000000    0.1466548500000000    0.1466548500000000 Cd
   0.8533451500000000    0.6466548500000000    0.3533451500000000 Cd
   0.3533451500000000    0.8533451500000000    0.6466548500000000 Cd
   0.5955492000000000    0.5955492000000000    0.5955492000000000 B
   0.4044508000000000    0.0955492000000000    0.9044508000000000 B
   0.0955492000000000    0.9044508000000000    0.4044508000000000 B
   0.9044508000000000    0.4044508000000000    0.0955492000000000 B
   0.5278461400000000    0.0843512600000000    0.7663976000000000 O
   0.2336024000000000    0.0278461400000000    0.4156487400000000 O
   0.5843512600000000    0.7336024000000000    0.4721538600000000 O
   0.0278461400000000    0.4156487400000000    0.2336024000000000 O
   0.7336024000000000    0.4721538600000000    0.5843512600000000 O
   0.0843512600000000    0.7663976000000000    0.5278461400000000 O
   0.4721538600000000    0.5843512600000000    0.7336024000000000 O
   0.7663976000000000    0.5278461400000000    0.0843512600000000 O
   0.4156487400000000    0.2336024000000000    0.0278461400000000 O
   0.9721538600000000    0.9156487400000000    0.2663976000000000 O
   0.2663976000000000    0.9721538600000000    0.9156487400000000 O
   0.9156487400000000    0.2663976000000000    0.9721538600000000 O
