Sc2 Si2 O7
1.0
   3.2275945600000000   -4.2356141100000002    0.0059551100000000
   3.2275945600000000    4.2356141100000002    0.0059551100000000
  -1.0300642600000001    0.0000000000000000    4.5830902299999998
Sc Si O
2 2 7
direct
   0.6903294700000000    0.3096705300000000    0.0000000000000000 Sc
   0.3096705300000000    0.6903294700000000    0.0000000000000000 Sc
   0.7729676800000000    0.7729676800000000    0.5928105900000000 Si
   0.2270323200000000    0.2270323200000000    0.4071894100000000 Si
   0.0775650900000000    0.3966485400000000    0.2115921100000000 O
   0.6033514600000000    0.9224349100000000    0.7884078900000000 O
   0.9224349100000000    0.6033514600000000    0.7884078900000000 O
   0.3966485400000000    0.0775650900000000    0.2115921100000000 O
   0.0000000000000000    0.0000000000000000    0.5000000000000000 O
   0.3982439500000000    0.3982439500000000    0.7219039200000000 O
   0.6017560500000000    0.6017560500000000    0.2780960800000000 O
