Sr6 P8 O26
1.0
   7.2678012399999998    0.0001052100000000   -0.0092031600000000
  -0.5906469700000000    7.7162717199999999   -0.0008976000000000
  -2.3283053800000002   -2.3965111200000000    9.5926654399999993
Sr P O
6 8 26
direct
   0.7867329800000000    0.7712148800000000    0.3752894100000000 Sr
   0.2132670200000000    0.2287851200000000    0.6247105900000000 Sr
   0.7070473500000000    0.2174589800000000    0.1378580300000000 Sr
   0.2929526500000000    0.7825410200000000    0.8621419700000000 Sr
   0.7525753100000000    0.0212297900000000    0.7588840400000000 Sr
   0.2474246900000000    0.9787702100000000    0.2411159600000000 Sr
   0.1388967600000000    0.4612390100000000    0.3471124400000000 P
   0.8611032400000000    0.5387609900000000    0.6528875600000000 P
   0.8254644700000000    0.8135151200000000    0.0235748800000000 P
   0.1745355300000000    0.1864848800000000    0.9764251200000000 P
   0.6689547100000000    0.1894764100000000    0.4885825400000000 P
   0.3310452900000000    0.8105235900000000    0.5114174600000000 P
   0.6367288500000000    0.4614213800000000    0.8608160900000000 P
   0.3632711500000000    0.5385786200000000    0.1391839100000000 P
   0.4523747200000000    0.5114140900000000    0.7873478699999999 O
   0.5476252800000000    0.4885859100000000    0.2126521300000000 O
   0.7934234100000001    0.4694458700000000    0.7739428200000000 O
   0.2065765900000000    0.5305541300000000    0.2260571800000000 O
   0.1844294000000000    0.2789047600000000    0.3617200700000000 O
   0.8155706000000000    0.7210952400000000    0.6382799300000001 O
   0.9949012100000000    0.8094628300000000    0.9601896400000000 O
   0.0050987900000000    0.1905371700000000    0.0398103600000000 O
   0.7386078700000001    0.4031391300000000    0.5140215800000000 O
   0.2613921300000000    0.5968608700000000    0.4859784200000000 O
   0.9315313800000000    0.4862786000000000    0.3191418700000000 O
   0.0684686200000000    0.5137214000000000    0.6808581300000000 O
   0.5263569400000000    0.1793678600000000    0.5758527700000000 O
   0.4736430600000000    0.8206321400000000    0.4241472300000000 O
   0.3383779300000000    0.0974755300000000    0.0479687300000000 O
   0.6616220700000000    0.9025244700000000    0.9520312700000000 O
   0.1530230000000000    0.8959569300000000    0.4565569500000000 O
   0.8469770000000000    0.1040430700000000    0.5434430500000000 O
   0.1205423100000000    0.1116718700000000    0.8180430700000000 O
   0.8794576900000000    0.8883281300000000    0.1819569300000000 O
   0.2645638200000000    0.3949243500000000    0.9966240400000000 O
   0.7354361800000000    0.6050756500000000    0.0033759600000000 O
   0.4067404600000000    0.8733880300000000    0.6687280000000000 O
   0.5932595400000000    0.1266119700000000    0.3312720000000000 O
   0.3701172600000000    0.7179837100000001    0.1044140900000000 O
   0.6298827400000000    0.2820162900000000    0.8955859100000000 O
