Ba4 Zn2 Ge4 O14
1.0
   8.3353788099999999    0.0000000000000000    0.0000000000000000
   0.0000000000000000    8.3353788099999999    0.0000000000000000
   0.0000000000000000    0.0000000000000000    5.5957630800000002
Ba Zn Ge O
4 2 4 14
direct
   0.3350277200000000    0.8350277200000000    0.5081792600000000 Ba
   0.1649722800000000    0.3350277200000000    0.4918207400000000 Ba
   0.6649722800000000    0.1649722800000000    0.5081792600000000 Ba
   0.8350277200000000    0.6649722800000000    0.4918207400000000 Ba
   0.5000000000000000    0.5000000000000000    0.0000000000000000 Zn
   0.0000000000000000    0.0000000000000000    0.0000000000000000 Zn
   0.1428201400000000    0.6428201400000000    0.9634350800000000 Ge
   0.3571798600000000    0.1428201400000000    0.0365649200000000 Ge
   0.8571798600000000    0.3571798600000000    0.9634350800000000 Ge
   0.6428201400000000    0.8571798600000000    0.0365649200000000 Ge
   0.5000000000000000    0.0000000000000000    0.1642405600000000 O
   0.0000000000000000    0.5000000000000000    0.8357594400000000 O
   0.1376253500000000    0.6376253500000000    0.2769786200000000 O
   0.3623746500000000    0.1376253500000000    0.7230213800000000 O
   0.8623746500000000    0.3623746500000000    0.2769786200000000 O
   0.6376253500000000    0.8623746500000000    0.7230213800000000 O
   0.3220787300000000    0.5799494600000000    0.8132075300000000 O
   0.1779212700000000    0.0799494600000000    0.1867924700000000 O
   0.6779212700000000    0.4200505400000000    0.8132075300000000 O
   0.8220787300000000    0.9200505400000000    0.1867924700000000 O
   0.5799494600000000    0.6779212700000000    0.1867924700000000 O
   0.9200505400000000    0.1779212700000000    0.8132075300000000 O
   0.4200505400000000    0.3220787300000000    0.1867924700000000 O
   0.0799494600000000    0.8220787300000000    0.8132075300000000 O
