Cs4 Zr2 Se6
1.0
   6.5511210200000001   -4.7172866800000000    0.0000000000000000
   6.5511210200000001    4.7172866800000000    0.0000000000000000
   0.0000000000000000    0.0000000000000000    7.1369019600000003
Cs Zr Se
4 2 6
direct
   0.1817826400000000    0.5076272700000000    0.2500000000000000 Cs
   0.8182173600000000    0.4923727300000000    0.7500000000000000 Cs
   0.5076272700000000    0.1817826400000000    0.7500000000000000 Cs
   0.4923727300000000    0.8182173600000000    0.2500000000000000 Cs
   0.9175233500000000    0.0824766500000000    0.2500000000000000 Zr
   0.0824766500000000    0.9175233500000000    0.7500000000000000 Zr
   0.3478274000000000    0.6521726000000000    0.7500000000000000 Se
   0.6521726000000000    0.3478274000000000    0.2500000000000000 Se
   0.8609742400000000    0.8609742400000000    0.5000000000000000 Se
   0.8609742400000000    0.8609742400000000    0.0000000000000000 Se
   0.1390257600000000    0.1390257600000000    0.5000000000000000 Se
   0.1390257600000000    0.1390257600000000    0.0000000000000000 Se
