Ba2 Si6 Sn2 O18
1.0
   6.7589459400000003    0.0000000000000000    0.0000000000000000
  -3.3794729700000001    5.8534193800000001    0.0000000000000000
   0.0000000000000000    0.0000000000000000    9.9334529099999997
Ba Si Sn O
2 6 2 18
direct
   0.0000000000000000    0.0000000000000000    0.5000000000000000 Ba
   0.0000000000000000    0.0000000000000000    0.0000000000000000 Ba
   0.3973427700000000    0.4470146300000000    0.7500000000000000 Si
   0.5529853700000000    0.9503281500000000    0.7500000000000000 Si
   0.0496718500000000    0.6026572300000000    0.7500000000000000 Si
   0.0496718500000000    0.4470146300000000    0.2500000000000000 Si
   0.5529853700000000    0.6026572300000000    0.2500000000000000 Si
   0.3973427700000000    0.9503281500000000    0.2500000000000000 Si
   0.6666670000000000    0.3333330000000000    0.5000000000000000 Sn
   0.6666670000000000    0.3333330000000000    0.0000000000000000 Sn
   0.9126722800000000    0.5926781200000000    0.6138599100000000 O
   0.4073218800000000    0.0873277200000000    0.3861400900000000 O
   0.4073218800000000    0.3199941600000000    0.6138599100000000 O
   0.6800058400000000    0.0873277200000000    0.6138599100000000 O
   0.4073218800000000    0.3199941600000000    0.8861400900000000 O
   0.6800058400000000    0.0873277200000000    0.8861400900000000 O
   0.9126722800000000    0.5926781200000000    0.8861400900000000 O
   0.6800058400000000    0.5926781200000000    0.1138599100000000 O
   0.9126722800000000    0.3199941600000000    0.1138599100000000 O
   0.9126722800000000    0.3199941600000000    0.3861400900000000 O
   0.5841907200000001    0.8617234800000000    0.2500000000000000 O
   0.2775327700000000    0.4158092800000000    0.2500000000000000 O
   0.1382765200000000    0.7224672300000000    0.2500000000000000 O
   0.1382765200000000    0.4158092800000000    0.7500000000000000 O
   0.2775327700000000    0.8617234800000000    0.7500000000000000 O
   0.5841907200000001    0.7224672300000000    0.7500000000000000 O
   0.4073218800000000    0.0873277200000000    0.1138599100000000 O
   0.6800058400000000    0.5926781200000000    0.3861400900000000 O
