Cs2 Ga2 O4
1.0
   0.0000000000000000    4.2006838599999998    4.2006838599999998
   4.2006838599999998    0.0000000000000000    4.2006838599999998
   4.2006838599999998    4.2006838599999998    0.0000000000000000
Cs Ga O
2 2 4
direct
   0.0000000000000000    0.0000000000000000    0.0000000000000000 Cs
   0.2500000000000000    0.2500000000000000    0.2500000000000000 Cs
   0.5000000000000000    0.5000000000000000    0.5000000000000000 Ga
   0.7500000000000000    0.7500000000000000    0.7500000000000000 Ga
   0.1250000000000000    0.6250000000000000    0.6250000000000000 O
   0.6250000000000000    0.6250000000000000    0.6250000000000000 O
   0.6250000000000000    0.1250000000000000    0.6250000000000000 O
   0.6250000000000000    0.6250000000000000    0.1250000000000000 O
