Sb2 Pb1 O6
1.0
   5.3309212099999996    0.0000000000000000    0.0000000000000000
  -2.6654610999999999    4.6167137299999998    0.0000000000000000
   0.0000000000000000    0.0000000000000000    5.3347704100000000
Sb Pb O
2 1 6
direct
   0.6666670000000000    0.3333330000000000    0.5000000000000000 Sb
   0.3333330000000000    0.6666670000000000    0.5000000000000000 Sb
   0.0000000000000000    0.0000000000000000    0.0000000000000000 Pb
   0.3775703200000000    0.3775703200000000    0.7091288800000000 O
   0.6224296800000000    1.0000000000000000    0.7091288800000000 O
   0.0000000000000000    0.6224296800000000    0.7091288800000000 O
   0.3775703200000000    0.0000000000000000    0.2908711200000000 O
   1.0000000000000000    0.3775703200000000    0.2908711200000000 O
   0.6224296800000000    0.6224296800000000    0.2908711200000000 O
