Na6 B6 S12
1.0
   7.4961079499999999    4.3278797600000001    2.4379760600000000
  -7.4961079499999999    4.3278797600000001    2.4379760600000000
   0.0000000000000000   -8.6557604599999998    2.4379759900000000
Na B S
6 6 12
direct
   0.2500000000000000    0.7130528000000000    0.7869472000000000 Na
   0.7869472000000000    0.2500000000000000    0.7130528000000000 Na
   0.2869472000000000    0.2130528000000000    0.7500000000000000 Na
   0.7500000000000000    0.2869472000000000    0.2130528000000000 Na
   0.7130528000000000    0.7869472000000000    0.2500000000000000 Na
   0.2130528000000000    0.7500000000000000    0.2869472000000000 Na
   0.3685782200000000    0.1314217800000000    0.2500000000000000 B
   0.7500000000000000    0.6314217800000000    0.8685782200000000 B
   0.6314217800000000    0.8685782200000000    0.7500000000000000 B
   0.1314217800000000    0.2500000000000000    0.3685782200000000 B
   0.2500000000000000    0.3685782200000000    0.1314217800000000 B
   0.8685782200000000    0.7500000000000000    0.6314217800000000 B
   0.1257290400000000    0.3742709600000000    0.2500000000000000 S
   0.7500000000000000    0.5133281300000000    0.9866718700000000 S
   0.5133281300000000    0.9866718700000000    0.7500000000000000 S
   0.0133281300000000    0.2500000000000000    0.4866718700000000 S
   0.2500000000000000    0.4866718700000000    0.0133281300000000 S
   0.4866718700000000    0.0133281300000000    0.2500000000000000 S
   0.2500000000000000    0.1257290400000000    0.3742709600000000 S
   0.3742709600000000    0.2500000000000000    0.1257290400000000 S
   0.8742709600000000    0.6257290400000000    0.7500000000000000 S
   0.7500000000000000    0.8742709600000000    0.6257290400000000 S
   0.6257290400000000    0.7500000000000000    0.8742709600000000 S
   0.9866718700000000    0.7500000000000000    0.5133281300000000 S
