Rb8 Au12 S10
1.0
   9.8771259100000002    0.0000000000000000    0.0000000000000000
  -4.9385629499999997    8.5538422199999999    0.0000000000000000
   0.0000000000000000    0.0000000000000000    9.8307707799999999
Rb Au S
8 12 10
direct
   0.4198359400000000    0.0709295800000000    0.2500000000000000 Rb
   0.9290704200000000    0.3489063600000000    0.2500000000000000 Rb
   0.6510936400000000    0.5801640600000000    0.2500000000000000 Rb
   0.5801640600000000    0.6510936400000000    0.7500000000000000 Rb
   0.3489063600000000    0.9290704200000000    0.7500000000000000 Rb
   0.0000000000000000    0.0000000000000000    0.0000000000000000 Rb
   0.0000000000000000    0.0000000000000000    0.5000000000000000 Rb
   0.0709295800000000    0.4198359400000000    0.7500000000000000 Rb
   0.8330635500000000    0.5465714900000000    0.5905140000000000 Au
   0.7135069400000000    0.1669364500000000    0.5905140000000000 Au
   0.4534285100000000    0.2864930600000000    0.5905140000000000 Au
   0.2864930600000000    0.4534285100000000    0.4094860000000000 Au
   0.7135069400000000    0.1669364500000000    0.9094860000000000 Au
   0.8330635500000000    0.5465714900000000    0.9094860000000000 Au
   0.1669364500000000    0.7135069400000000    0.0905140000000000 Au
   0.5465714900000000    0.8330635500000000    0.0905140000000000 Au
   0.5465714900000000    0.8330635500000000    0.4094860000000000 Au
   0.1669364500000000    0.7135069400000000    0.4094860000000000 Au
   0.2864930600000000    0.4534285100000000    0.0905140000000000 Au
   0.4534285100000000    0.2864930600000000    0.9094860000000000 Au
   0.7377198700000001    0.9668926000000000    0.2500000000000000 S
   0.3333330000000000    0.6666670000000000    0.5411095800000000 S
   0.3333330000000000    0.6666670000000000    0.9588904200000000 S
   0.6666670000000000    0.3333330000000000    0.0411095800000000 S
   0.6666670000000000    0.3333330000000000    0.4588904200000000 S
   0.9668926000000000    0.7377198700000001    0.7500000000000000 S
   0.7708272700000000    0.0331074000000000    0.7500000000000000 S
   0.2622801300000000    0.2291727300000000    0.7500000000000000 S
   0.0331074000000000    0.7708272700000000    0.2500000000000000 S
   0.2291727300000000    0.2622801300000000    0.2500000000000000 S
