Sc4 Te10 O26
1.0
   6.5359643900000002   -0.0468292100000000   -0.0245083800000000
   2.3129585499999998    8.1392173099999994   -0.0251786800000000
   0.6257676500000000    0.4202187300000000   10.2857581699999994
Sc Te O
4 10 26
direct
   0.9844383700000000    0.2455354100000000    0.7540516200000000 Sc
   0.0155616300000000    0.7544645900000000    0.2459483800000000 Sc
   0.4441606200000000    0.4510678000000000    0.8067678600000000 Sc
   0.5558393800000000    0.5489322000000000    0.1932321400000000 Sc
   0.4661686200000000    0.9149094400000000    0.3022953200000000 Te
   0.8343262500000000    0.2062796900000000    0.3636775700000000 Te
   0.7390768800000000    0.5993375800000000    0.5286310200000000 Te
   0.7099803400000000    0.1150623900000000    0.0288740200000000 Te
   0.8466353700000000    0.6410570400000000    0.9075480900000000 Te
   0.1656737500000000    0.7937203100000000    0.6363224300000000 Te
   0.2900196600000000    0.8849376100000000    0.9711259800000001 Te
   0.5338313800000000    0.0850905600000000    0.6977046800000000 Te
   0.1533646300000000    0.3589429600000000    0.0924519100000000 Te
   0.2609231200000000    0.4006624200000000    0.4713689800000000 Te
   0.4433955800000000    0.1828447100000000    0.5147792200000000 O
   0.4901536100000000    0.6796020100000000    0.0145042600000000 O
   0.5098463900000000    0.3203979900000000    0.9854957400000000 O
   0.2995971200000000    0.2382971200000000    0.7768266300000000 O
   0.8582844500000000    0.5013180500000000    0.0876149600000000 O
   0.0762975600000000    0.2715921200000000    0.2876849800000000 O
   0.3209815800000000    0.7486556500000000    0.2934490300000000 O
   0.7004028799999999    0.7617028800000000    0.2231733700000000 O
   0.6621252100000000    0.4897623200000000    0.3869362200000000 O
   0.9237024400000000    0.7284078800000000    0.7123150200000000 O
   0.6423298700000000    0.0012004800000000    0.8826344800000000 O
   0.0177057000000000    0.3570544000000000    0.5659373900000000 O
   0.3495612300000000    0.7146462200000000    0.7770776800000000 O
   0.9529851800000000    0.1726768100000000    0.9496623500000000 O
   0.0470148200000000    0.8273231900000000    0.0503376500000000 O
   0.9101280100000000    0.9869314500000000    0.3023806500000000 O
   0.0898719900000000    0.0130685500000000    0.6976193500000000 O
   0.6504387700000001    0.2853537800000000    0.2229223200000000 O
   0.3378747900000000    0.5102376800000000    0.6130637799999999 O
   0.2380036500000000    0.5195527599999999    0.1840169700000000 O
   0.3576701300000000    0.9987995200000001    0.1173655200000000 O
   0.5566044200000000    0.8171552900000000    0.4852207800000000 O
   0.9822943000000000    0.6429456000000000    0.4340626100000000 O
   0.6790184200000000    0.2513443500000000    0.7065509700000000 O
   0.7619963500000000    0.4804472400000000    0.8159830300000001 O
   0.1417155500000000    0.4986819500000000    0.9123850400000000 O
