Na4 Ti2 Si2 O10
1.0
   6.5106084099999997    0.0000000000000000    0.0000000000000000
   0.0000000000000000    6.5106084099999997    0.0000000000000000
   0.0000000000000000    0.0000000000000000    5.0362468199999997
Na Ti Si O
4 2 2 10
direct
   0.2500000000000000    0.2500000000000000    0.5000000000000000 Na
   0.7500000000000000    0.2500000000000000    0.5000000000000000 Na
   0.2500000000000000    0.7500000000000000    0.5000000000000000 Na
   0.7500000000000000    0.7500000000000000    0.5000000000000000 Na
   0.0000000000000000    0.5000000000000000    0.0677321700000000 Ti
   0.5000000000000000    0.0000000000000000    0.9322678300000000 Ti
   0.0000000000000000    0.0000000000000000    0.0000000000000000 Si
   0.5000000000000000    0.5000000000000000    0.0000000000000000 Si
   0.0000000000000000    0.5000000000000000    0.7172514300000000 O
   0.5000000000000000    0.0000000000000000    0.2827485700000000 O
   0.2939576800000000    0.5000000000000000    0.1879597800000000 O
   0.7060423200000000    0.5000000000000000    0.1879597800000000 O
   0.0000000000000000    0.7939576800000000    0.1879597800000000 O
   0.0000000000000000    0.2060423200000000    0.1879597800000000 O
   0.5000000000000000    0.2939576800000000    0.8120402200000000 O
   0.7939576800000000    0.0000000000000000    0.8120402200000000 O
   0.5000000000000000    0.7060423200000000    0.8120402200000000 O
   0.2060423200000000    0.0000000000000000    0.8120402200000000 O
