Li2 N2 O6
1.0
   2.3474156599999998    1.3552805999999999    4.9672811299999999
  -2.3474156599999998    1.3552805999999999    4.9672811299999999
   0.0000000000000000   -2.7105621499999999    4.9672811200000000
Li N O
2 2 6
direct
   0.0000000000000000    0.0000000000000000    0.0000000000000000 Li
   0.5000000000000000    0.5000000000000000    0.5000000000000000 Li
   0.2500000000000000    0.2500000000000000    0.2500000000000000 N
   0.7500000000000000    0.7500000000000000    0.7500000000000000 N
   0.5184688000000000    0.2500000000000000    0.9815312000000000 O
   0.2500000000000000    0.9815312000000000    0.5184688000000000 O
   0.9815312000000000    0.5184688000000000    0.2500000000000000 O
   0.4815312000000000    0.7500000000000000    0.0184688000000000 O
   0.7500000000000000    0.0184688000000000    0.4815312000000000 O
   0.0184688000000000    0.4815312000000000    0.7500000000000000 O
