Na6 Mo2 N2 O6
1.0
   7.2305622800000000    0.0000000000000000    0.0000000000000000
   0.0000000000000000    6.1844372900000000    0.0000000000000000
   0.0000000000000000    0.0000000000000000    5.5370340000000002
Na Mo N O
6 2 2 6
direct
   0.0000000000000000    0.8314558300000000    0.5140202800000000 Na
   0.2565564100000000    0.3293767400000000    0.5120091900000000 Na
   0.7434435900000000    0.3293767400000000    0.5120091900000000 Na
   0.7565564100000000    0.6706232600000001    0.0120091900000000 Na
   0.5000000000000000    0.1685441700000000    0.0140202800000000 Na
   0.2434435900000000    0.6706232600000001    0.0120091900000000 Na
   0.5000000000000000    0.8283996600000000    0.5033255900000000 Mo
   0.0000000000000000    0.1716003400000000    0.0033255900000000 Mo
   0.0000000000000000    0.1745961700000000    0.6888200100000000 N
   0.5000000000000000    0.8254038299999999    0.1888200100000000 N
   0.7118978200000000    0.6853217300000000    0.6034532700000000 O
   0.7881021800000000    0.3146782700000000    0.1034532700000000 O
   0.2118978200000000    0.3146782700000000    0.1034532700000000 O
   0.2881021800000000    0.6853217300000000    0.6034532700000000 O
   0.0000000000000000    0.8855996200000000    0.1020092100000000 O
   0.5000000000000000    0.1144003800000000    0.6020092100000000 O
