Na8 Ge4 S12
1.0
   6.7875942699999996    0.0000000000000000    0.0053926600000000
   0.0000000000000000   15.3166809599999993    0.0000000000000000
  -2.2701270000000000    0.0000000000000000    5.2771186400000003
Na Ge S
8 4 12
direct
   0.4512046200000000    0.6680757700000000    0.4852934400000000 Na
   0.5487953800000001    0.1680757700000000    0.0147065600000000 Na
   0.5487953800000001    0.3319242300000000    0.5147065600000000 Na
   0.4512046200000000    0.8319242300000000    0.9852934400000000 Na
   0.2207216500000000    0.0287394100000000    0.3334235700000000 Na
   0.2207216500000000    0.4712605900000000    0.8334235700000000 Na
   0.7792783500000000    0.5287394100000000    0.1665764300000000 Na
   0.7792783500000000    0.9712605900000000    0.6665764300000000 Na
   0.9516343900000001    0.3296532600000000    0.1425815900000000 Ge
   0.0483656100000000    0.8296532599999999    0.3574184100000000 Ge
   0.0483656100000000    0.6703467400000001    0.8574184100000000 Ge
   0.9516343900000001    0.1703467400000000    0.6425815900000000 Ge
   0.3900694700000000    0.8557165500000000    0.4544371000000000 S
   0.6099305300000000    0.3557165500000000    0.0455629000000000 S
   0.6099305300000000    0.1442834500000000    0.5455629000000000 S
   0.3900694700000000    0.6442834500000000    0.9544371000000000 S
   0.0230666300000000    0.1909682200000000    0.2898684500000000 S
   0.9769333700000000    0.6909682200000000    0.2101315500000000 S
   0.9769333700000000    0.8090317800000000    0.7101315499999999 S
   0.0230666300000000    0.3090317800000000    0.7898684500000001 S
   0.8218094200000000    0.9347273100000000    0.1742515800000000 S
   0.1781905800000000    0.4347273100000000    0.3257484200000000 S
   0.1781905800000000    0.0652726900000000    0.8257484200000000 S
   0.8218094200000000    0.5652726900000000    0.6742515800000000 S
