Cd2 P2 S6
1.0
   3.0873589099999998   -5.3482127300000002    0.0007090400000000
   3.0873589099999998    5.3482127300000002    0.0007090400000000
  -1.9959831500000000    0.0000000000000000    6.6448015099999997
Cd P S
2 2 6
direct
   0.6673133600000000    0.3326866400000000    0.0000000000000000 Cd
   0.3326866400000000    0.6673133600000000    0.0000000000000000 Cd
   0.0543577400000000    0.0543577400000000    0.1686288800000000 P
   0.9456422600000000    0.9456422600000000    0.8313711200000000 P
   0.0819875300000000    0.3977135000000000    0.2551494800000000 S
   0.6022864999999999    0.9180124700000000    0.7448505200000000 S
   0.2345936100000000    0.2345936100000000    0.7466813500000000 S
   0.7654063900000000    0.7654063900000000    0.2533186500000000 S
   0.9180124700000000    0.6022864999999999    0.7448505200000000 S
   0.3977135000000000    0.0819875300000000    0.2551494800000000 S
