Al4 Tl4 Si4 O16
1.0
   8.1833567100000000    0.0000000000000000    0.0000000000000000
   0.0000000000000000    5.4207755400000002    0.0000000000000000
   0.0000000000000000    0.0000000000000000    9.5202120600000004
Al Tl Si O
4 4 4 16
direct
   0.6900962700000000    0.7500000000000000    0.4070974000000000 Al
   0.3099037300000000    0.2500000000000000    0.5929025999999999 Al
   0.8099037300000000    0.2500000000000000    0.9070974000000001 Al
   0.1900962700000000    0.7500000000000000    0.0929026000000000 Al
   0.4831514600000000    0.7500000000000000    0.8197691700000000 Tl
   0.5168485400000000    0.2500000000000000    0.1802308300000000 Tl
   0.0168485400000000    0.2500000000000000    0.3197691700000000 Tl
   0.9831514600000000    0.7500000000000000    0.6802308300000000 Tl
   0.7878500400000000    0.7500000000000000    0.0674527500000000 Si
   0.2121499600000000    0.2500000000000000    0.9325472500000000 Si
   0.7121499600000000    0.2500000000000000    0.5674527500000000 Si
   0.2878500400000000    0.7500000000000000    0.4325472500000000 Si
   0.4833508000000000    0.7500000000000000    0.4395580000000000 O
   0.5166492000000000    0.2500000000000000    0.5604420000000000 O
   0.0166492000000000    0.2500000000000000    0.9395580000000000 O
   0.9833508000000000    0.7500000000000000    0.0604420000000000 O
   0.7199371500000000    0.7500000000000000    0.2269576000000000 O
   0.2800628500000000    0.2500000000000000    0.7730424000000000 O
   0.7800628500000000    0.2500000000000000    0.7269576000000000 O
   0.2199371500000000    0.7500000000000000    0.2730424000000000 O
   0.7877997900000000    0.0070034700000000    0.4855862900000000 O
   0.2122002100000000    0.5070034700000000    0.5144137100000000 O
   0.7122002100000000    0.5070034700000000    0.9855862900000000 O
   0.2877997900000000    0.0070034700000000    0.0144137100000000 O
   0.7877997900000000    0.4929965300000000    0.4855862900000000 O
   0.2122002100000000    0.9929965300000000    0.5144137100000000 O
   0.7122002100000000    0.9929965300000000    0.9855862900000000 O
   0.2877997900000000    0.4929965300000000    0.0144137100000000 O
