Na4 Si2 O6
1.0
   5.2342692800000004   -3.0187567400000002    0.0000000000000000
   5.2342692800000004    3.0187567400000002    0.0000000000000000
   0.0000000000000000    0.0000000000000000    4.7834371400000002
Na Si O
4 2 6
direct
   0.1724046100000000    0.4966283500000000    0.5017797800000000 Na
   0.5033716499999999    0.8275953900000000    0.5017797800000000 Na
   0.8275953900000000    0.5033716499999999    0.0017797800000000 Na
   0.4966283500000000    0.1724046100000000    0.0017797800000000 Na
   0.8402191900000000    0.1597808100000000    0.5389177200000000 Si
   0.1597808100000000    0.8402191900000000    0.0389177200000000 Si
   0.0893673500000000    0.9106326500000000    0.3815477100000000 O
   0.9106326500000000    0.0893673500000000    0.8815477100000000 O
   0.8406310000000000    0.4223051500000000    0.4812885000000000 O
   0.1593690000000000    0.5776948500000000    0.9812885000000000 O
   0.5776948500000000    0.1593690000000000    0.4812885000000000 O
   0.4223051500000000    0.8406310000000000    0.9812885000000000 O
