Ba2 Ti12 O26
1.0
   7.5474380400000003   -0.0156242000000000   -0.0067540100000000
   3.6441813900000000    6.6429964000000004   -0.0061623200000000
   2.6255389600000001    1.9131708100000000    9.3795308700000000
Ba Ti O
2 12 26
direct
   0.6770206400000000    0.0295346600000000    0.1269702300000000 Ba
   0.3229793600000000    0.9704653400000000    0.8730297700000000 Ba
   0.2124426800000000    0.4439412100000000    0.0213446500000000 Ti
   0.1323506500000000    0.2776338500000000    0.5023485800000000 Ti
   0.9302724000000000    0.9243109000000000    0.7594866800000000 Ti
   0.3228385600000000    0.6284106000000000    0.2485971900000000 Ti
   0.7875573200000000    0.5560587900000000    0.9786553500000000 Ti
   0.2387401800000000    0.5015998699999999    0.7248237300000000 Ti
   0.4152921200000000    0.8432505600000000    0.4971250100000000 Ti
   0.6771614400000000    0.3715894000000000    0.7514028100000000 Ti
   0.7612598200000000    0.4984001300000000    0.2751762700000000 Ti
   0.0697276000000000    0.0756891000000000    0.2405133200000000 Ti
   0.8676493500000000    0.7223661500000000    0.4976514200000000 Ti
   0.5847078800000000    0.1567494400000000    0.5028749900000000 Ti
   0.1676399700000000    0.0067187300000000    0.6169990800000000 O
   0.5609566600000000    0.6822357700000000    0.1382425200000000 O
   0.9826331300000000    0.2731993600000000    0.3701367500000000 O
   0.1166332700000000    0.5516274900000000    0.3895309100000000 O
   0.3756304200000000    0.4508856300000000    0.1286000700000000 O
   0.1602041200000000    0.7026223900000000    0.8563370700000000 O
   0.8323600300000000    0.9932812700000000    0.3830009200000000 O
   0.1232847500000000    0.8673439300000000    0.1440170400000000 O
   0.2605688100000000    0.1639104400000000    0.1127316700000000 O
   0.0173668700000000    0.7268006400000000    0.6298632500000000 O
   0.7260787600000000    0.1558721400000000    0.6392477100000000 O
   0.6243695800000000    0.5491143700000000    0.8713999300000000 O
   0.6899482900000000    0.7135027700000000    0.3771227900000000 O
   0.9412967900000000    0.5891051300000000    0.1154904500000000 O
   0.2739212400000000    0.8441278600000000    0.3607522900000000 O
   0.5993428400000000    0.8760293600000000    0.6009124100000000 O
   0.7394311900000000    0.8360895600000000    0.8872683300000000 O
   0.3100517100000000    0.2864972300000000    0.6228772100000000 O
   0.4576165300000000    0.5814353799999999    0.6253027600000000 O
   0.4006571600000000    0.1239706400000000    0.3990875900000000 O
   0.8833667300000000    0.4483725100000000    0.6104690900000000 O
   0.8767152499999999    0.1326560700000000    0.8559829600000000 O
   0.8397958800000001    0.2973776100000000    0.1436629300000000 O
   0.0587032100000000    0.4108948700000000    0.8845095500000000 O
   0.5423834700000000    0.4185646200000000    0.3746972400000000 O
   0.4390433400000000    0.3177642300000000    0.8617574800000000 O
