Li2 Hf1 O3
1.0
   2.0990597200000001   -4.7804846300000001    0.0000000000000000
   2.0990597200000001    4.7804846300000001    0.0000000000000000
   0.0000000000000000    0.0000000000000000    3.2186520000000001
Li Hf O
2 1 3
direct
   0.3426694900000000    0.6573305100000000    0.5000000000000000 Li
   0.6573305100000000    0.3426694900000000    0.5000000000000000 Li
   0.0000000000000000    0.0000000000000000    0.0000000000000000 Hf
   0.1420165700000000    0.8579834300000000    0.5000000000000000 O
   0.5000000000000000    0.5000000000000000    0.0000000000000000 O
   0.8579834300000000    0.1420165700000000    0.5000000000000000 O
