Cu4 Pb2 O4
1.0
   4.0741397299999997   -4.0582349600000001    0.0188970800000000
   4.0741397299999997    4.0582349600000001    0.0188970800000000
  -4.0518890799999996    0.0000000000000000    4.3620766299999998
Cu Pb O
4 2 4
direct
   0.5000000000000000    0.5000000000000000    0.5000000000000000 Cu
   0.5000000000000000    0.5000000000000000    0.0000000000000000 Cu
   0.0000000000000000    0.5000000000000000    0.0000000000000000 Cu
   0.5000000000000000    0.0000000000000000    0.5000000000000000 Cu
   0.1318913900000000    0.8681086099999999    0.7500000000000000 Pb
   0.8681086099999999    0.1318913900000000    0.2500000000000000 Pb
   0.1458465100000000    0.2819012500000000    0.7882547400000000 O
   0.7180987500000000    0.8541534900000000    0.7117452600000000 O
   0.8541534900000000    0.7180987500000000    0.2117452600000000 O
   0.2819012500000000    0.1458465100000000    0.2882547400000000 O
