Te8 O16
1.0
   5.3307630300000000    0.0000000000000000    0.0000000000000000
   0.0000000000000000    5.6985849799999997    0.0000000000000000
   0.0000000000000000    0.0000000000000000   11.8466052899999994
Te O
8 16
direct
   0.5180601100000000    0.1259082700000000    0.3795832500000000 Te
   0.0180601100000000    0.3740917300000000    0.6204167500000000 Te
   0.4819398900000000    0.6259082700000000    0.1204167500000000 Te
   0.9819398900000000    0.8740917300000000    0.8795832500000000 Te
   0.4819398900000000    0.8740917300000000    0.6204167500000000 Te
   0.9819398900000000    0.6259082700000000    0.3795832500000000 Te
   0.5180601100000000    0.3740917300000000    0.8795832500000000 Te
   0.0180601100000000    0.1259082700000000    0.1204167500000000 Te
   0.7178426100000000    0.4173649600000000    0.3269748100000000 O
   0.2178426100000000    0.0826350400000000    0.6730251900000001 O
   0.2821573900000000    0.9173649600000000    0.1730251900000000 O
   0.7821573900000000    0.5826350400000000    0.8269748099999999 O
   0.2821573900000000    0.5826350400000000    0.6730251900000001 O
   0.7821573900000000    0.9173649600000000    0.3269748100000000 O
   0.7178426100000000    0.0826350400000000    0.8269748099999999 O
   0.2178426100000000    0.4173649600000000    0.1730251900000000 O
   0.3489086800000000    0.6613906300000000    0.9699098700000000 O
   0.8489086800000000    0.8386093700000000    0.0300901300000000 O
   0.6510913200000000    0.1613906300000000    0.5300901300000000 O
   0.1510913200000000    0.3386093700000000    0.4699098700000000 O
   0.6510913200000000    0.3386093700000000    0.0300901300000000 O
   0.1510913200000000    0.1613906300000000    0.9699098700000000 O
   0.3489086800000000    0.8386093700000000    0.4699098700000000 O
   0.8489086800000000    0.6613906300000000    0.5300901300000000 O
