Zr2 P4 S12
1.0
   6.7443168299999998    0.0000000900000000    0.0000000000000000
  -0.0000000900000000    6.7443168299999998    0.0000000000000000
   0.0000000000000000    0.0000000000000000    9.4135749000000004
Zr P S
2 4 12
direct
   0.0000000000000000    0.0000000000000000    0.7500000000000000 Zr
   0.0000000000000000    0.0000000000000000    0.2500000000000000 Zr
   0.6562756700000000    0.0589694700000000    0.0000000000000000 P
   0.3437243300000000    0.9410305300000000    0.0000000000000000 P
   0.0589694700000000    0.3437243300000000    0.5000000000000000 P
   0.9410305300000000    0.6562756700000000    0.5000000000000000 P
   0.2118468000000000    0.3097189900000000    0.6821989100000000 S
   0.6902810100000000    0.2118468000000000    0.1821989100000000 S
   0.1582036100000000    0.1805305600000000    0.0000000000000000 S
   0.8194694400000000    0.1582036100000000    0.5000000000000000 S
   0.1805305600000000    0.8417963899999999    0.5000000000000000 S
   0.8417963899999999    0.8194694400000000    0.0000000000000000 S
   0.2118468000000000    0.3097189900000000    0.3178010900000000 S
   0.6902810100000000    0.2118468000000000    0.8178010900000000 S
   0.3097189900000000    0.7881532000000000    0.8178010900000000 S
   0.7881532000000000    0.6902810100000000    0.3178010900000000 S
   0.7881532000000000    0.6902810100000000    0.6821989100000000 S
   0.3097189900000000    0.7881532000000000    0.1821989100000000 S
