La4 As4 O16
1.0
   6.7534022199999999    0.0000000000000000   -0.0059371700000000
   0.0000000000000000    7.2051611199999996    0.0000000000000000
  -4.9427659200000003    0.0000000000000000    6.7812586899999996
La As O
4 4 16
direct
   0.1834276700000000    0.6538123400000000    0.2826873900000000 La
   0.8165723300000000    0.1538123400000000    0.2173126100000000 La
   0.8165723300000000    0.3461876600000000    0.7173126100000000 La
   0.1834276700000000    0.8461876600000000    0.7826873900000000 La
   0.6910661100000000    0.6634946500000000    0.3043147100000000 As
   0.3089338900000000    0.1634946500000000    0.1956852900000000 As
   0.3089338900000000    0.3365053500000000    0.6956852900000000 As
   0.6910661100000000    0.8365053500000000    0.8043147100000000 As
   0.6547937600000000    0.6095613400000000    0.4847934200000000 O
   0.3452062400000000    0.1095613400000000    0.0152065800000000 O
   0.3452062400000000    0.3904386600000000    0.5152065800000000 O
   0.6547937600000000    0.8904386600000000    0.9847934200000000 O
   0.8980917500000000    0.8425234300000000    0.3921416600000000 O
   0.1019082500000000    0.3425234300000000    0.1078583400000000 O
   0.1019082500000000    0.1574765700000000    0.6078583400000001 O
   0.8980917500000000    0.6574765700000000    0.8921416599999999 O
   0.3940138000000000    0.7855759700000000    0.6175512399999999 O
   0.6059862000000000    0.2855759700000000    0.8824487600000001 O
   0.6059862000000000    0.2144240300000000    0.3824487600000000 O
   0.3940138000000000    0.7144240300000000    0.1175512400000000 O
   0.8256011900000000    0.0044464600000000    0.7537311100000000 O
   0.1743988100000000    0.5044464600000000    0.7462688900000000 O
   0.1743988100000000    0.9955535400000000    0.2462688900000000 O
   0.8256011900000000    0.4955535400000000    0.2537311100000000 O
