Ba4 Cr4 O16
1.0
   9.0899372100000004    0.0000000000000000    0.0000000000000000
   0.0000000000000000    5.4937903600000002    0.0000000000000000
   0.0000000000000000    0.0000000000000000    7.3178791099999998
Ba Cr O
4 4 16
direct
   0.6837322800000000    0.2500000000000000    0.3450907900000000 Ba
   0.3162677200000000    0.7500000000000000    0.6549092100000000 Ba
   0.8162677200000000    0.7500000000000000    0.8450907900000000 Ba
   0.1837322800000000    0.2500000000000000    0.1549092100000000 Ba
   0.0574044200000000    0.2500000000000000    0.6950480300000000 Cr
   0.9425955800000000    0.7500000000000000    0.3049519700000000 Cr
   0.4425955800000000    0.7500000000000000    0.1950480300000000 Cr
   0.5574044200000000    0.2500000000000000    0.8049519700000000 Cr
   0.9177982900000000    0.5057543200000000    0.1753561800000000 O
   0.0822017100000000    0.0057543200000000    0.8246438200000000 O
   0.5822017100000000    0.4942456800000000    0.6753561800000000 O
   0.4177982900000000    0.9942456800000000    0.3246438200000000 O
   0.0822017100000000    0.4942456800000000    0.8246438200000000 O
   0.9177982900000000    0.9942456800000000    0.1753561800000000 O
   0.4177982900000000    0.5057543200000000    0.3246438200000000 O
   0.5822017100000000    0.0057543200000000    0.6753561800000000 O
   0.3877511400000000    0.2500000000000000    0.8823971100000000 O
   0.6122488600000000    0.7500000000000000    0.1176028900000000 O
   0.1122488600000000    0.7500000000000000    0.3823971100000000 O
   0.8877511400000000    0.2500000000000000    0.6176028900000000 O
   0.6817643700000000    0.2500000000000000    0.9683333400000000 O
   0.3182356300000000    0.7500000000000000    0.0316666600000000 O
   0.8182356300000000    0.7500000000000000    0.4683333400000000 O
   0.1817643700000000    0.2500000000000000    0.5316666600000000 O
