Cs4 Sr1 Sn3 Se9
1.0
   7.2421803300000001    4.1812756499999999    3.2320798399999999
  -7.2421806300000000    4.1812751300000004    3.2320798399999999
   0.0000003000000000   -8.3625498199999999    3.2320798599999998
Cs Sr Sn Se
4 1 3 9
direct
   0.7273930600000000    0.1819433800000000    0.6137051800000000 Cs
   0.6137051800000000    0.7273930600000000    0.1819433800000000 Cs
   0.1819433800000000    0.6137051800000000    0.7273930600000000 Cs
   0.8603448400000000    0.8603448400000000    0.8603448400000000 Cs
   0.3168019000000000    0.3168019000000000    0.3168019000000000 Sr
   0.7880974500000000    0.3297739400000000    0.2037566100000000 Sn
   0.2037566100000000    0.7880974500000000    0.3297739400000000 Sn
   0.3297739400000000    0.2037566100000000    0.7880974500000000 Sn
   0.5344854100000000    0.0767236900000000    0.9171496600000000 Se
   0.9171496600000000    0.5344854100000000    0.0767236900000000 Se
   0.0767236900000000    0.9171496600000000    0.5344854100000000 Se
   0.7154805600000000    0.4914034800000000    0.4307679000000000 Se
   0.4307679000000000    0.7154805600000000    0.4914034800000000 Se
   0.4914034800000000    0.4307679000000000    0.7154805600000000 Se
   0.9532692100000000    0.1752236000000000    0.3139441400000000 Se
   0.3139441400000000    0.9532692100000000    0.1752236000000000 Se
   0.1752236000000000    0.3139441400000000    0.9532692100000000 Se
