Na2 Ca8 B6 O18
1.0
  10.6240005899999996    0.0000000000000000    0.0000000000000000
   0.0000000000000000    5.5746062900000002    3.2178629200000000
   0.0000000000000000   -5.5746062900000002    3.2178629200000000
Na Ca B O
2 8 6 18
direct
   0.2500000000000000    0.5290265300000000    0.3862123700000000 Na
   0.7500000000000000    0.3862123700000000    0.5290265300000000 Na
   0.4719921100000000    0.1784489000000000    0.6063366500000000 Ca
   0.5280078900000000    0.6063366500000000    0.1784489000000000 Ca
   0.0280078900000000    0.1784489000000000    0.6063366500000000 Ca
   0.9719921100000000    0.6063366500000000    0.1784489000000000 Ca
   0.5000000000000000    0.0320054600000000    0.0320054600000000 Ca
   0.0000000000000000    0.0320054600000000    0.0320054600000000 Ca
   0.2500000000000000    0.6088851700000000    0.9105156900000000 Ca
   0.7500000000000000    0.9105156900000000    0.6088851700000000 Ca
   0.2500000000000000    0.1654144600000000    0.9221528400000000 B
   0.7500000000000000    0.9221528400000000    0.1654144600000000 B
   0.2500000000000000    0.0143182800000000    0.3570370300000000 B
   0.7500000000000000    0.3570370300000000    0.0143182800000000 B
   0.5000000000000000    0.6085206399999999    0.6085206399999999 B
   0.0000000000000000    0.6085206399999999    0.6085206399999999 B
   0.2500000000000000    0.2530116600000000    0.5321850400000000 O
   0.7500000000000000    0.5321850400000000    0.2530116600000000 O
   0.5000000000000000    0.3949735000000000    0.3949735000000000 O
   0.0000000000000000    0.3949735000000000    0.3949735000000000 O
   0.4716593300000000    0.6098573900000001    0.8192627300000001 O
   0.5283406700000000    0.8192627300000001    0.6098573900000001 O
   0.0283406700000000    0.6098573900000001    0.8192627300000001 O
   0.9716593300000000    0.8192627300000001    0.6098573900000001 O
   0.3617829400000000    0.2997793000000000    0.9783292700000000 O
   0.6382170600000000    0.9783292700000000    0.2997793000000000 O
   0.1382170600000000    0.2997793000000000    0.9783292700000000 O
   0.8617829400000000    0.9783292700000000    0.2997793000000000 O
   0.3622051300000000    0.8893346800000000    0.2681799200000000 O
   0.6377948700000000    0.2681799200000000    0.8893346800000000 O
   0.1377948700000000    0.8893346800000000    0.2681799200000000 O
   0.8622051300000000    0.2681799200000000    0.8893346800000000 O
   0.2500000000000000    0.9229369100000000    0.8323881400000001 O
   0.7500000000000000    0.8323881400000001    0.9229369100000000 O
