Ba3 Si2 B6 O16
1.0
   5.0363803200000001   -0.0107017000000000    0.0045845100000000
   0.3442522800000000    7.5482789099999996    0.0060720100000000
   1.8247320700000000    1.8025260700000001    8.1509949200000005
Ba Si B O
3 2 6 16
direct
   0.5000000000000000    0.0000000000000000    0.5000000000000000 Ba
   0.6196304000000000    0.5806819200000000    0.2346320500000000 Ba
   0.3803696000000000    0.4193180800000000    0.7653679500000000 Ba
   0.2389551600000000    0.8259079000000000    0.9410353100000000 Si
   0.7610448399999999    0.1740921000000000    0.0589646900000000 Si
   0.8146884400000000    0.7571723200000000    0.7968033900000000 B
   0.1853115600000000    0.2428276800000000    0.2031966100000000 B
   0.9675851900000000    0.3060968000000000    0.4744371000000000 B
   0.0324148100000000    0.6939032000000001    0.5255629000000001 B
   0.0221317900000000    0.9092521000000000    0.2482394400000000 B
   0.9778682100000000    0.0907479000000000    0.7517605600000000 B
   0.2184283700000000    0.8229415700000000    0.1344623200000000 O
   0.7815716300000000    0.1770584300000000    0.8655376800000000 O
   0.1429958900000000    0.3657659300000000    0.3196975300000000 O
   0.8570041100000000    0.6342340700000000    0.6803024700000000 O
   0.9924172700000000    0.7045242000000000    0.9182191700000000 O
   0.0075827300000000    0.2954758000000000    0.0817808300000000 O
   0.9043498599999999    0.7716452000000000    0.3968549100000000 O
   0.0956501400000000    0.2283548000000000    0.6031450900000001 O
   0.6973591500000000    0.3247321800000000    0.4941797900000000 O
   0.3026408500000000    0.6752678200000000    0.5058202100000000 O
   0.4745397000000000    0.2763470700000000    0.1122283500000000 O
   0.5254603000000000    0.7236529300000000    0.8877716500000000 O
   0.8656958100000000    0.9427814100000000    0.7035033800000000 O
   0.1343041900000000    0.0572185900000000    0.2964966200000000 O
   0.7786399300000000    0.9710625400000000    0.1738667900000000 O
   0.2213600700000000    0.0289374600000000    0.8261332100000000 O
