Ta2 B2 O8
1.0
  -3.1285986900000000    3.1285986900000000    2.7588177100000002
   3.1285986900000000   -3.1285986900000000    2.7588177100000002
   3.1285986900000000    3.1285986900000000   -2.7588177100000002
Ta B O
2 2 8
direct
   0.7500000000000000    0.2500000000000000    0.5000000000000000 Ta
   0.0000000000000000    0.0000000000000000    0.0000000000000000 Ta
   0.2500000000000000    0.7500000000000000    0.5000000000000000 B
   0.5000000000000000    0.5000000000000000    0.0000000000000000 B
   0.0749371500000000    0.3969534700000000    0.3220163200000000 O
   0.5029208300000000    0.3249371500000000    0.1779836800000000 O
   0.2470791700000000    0.9250628500000000    0.3220163200000000 O
   0.6750628500000000    0.8530465300000000    0.1779836800000000 O
   0.6750628500000000    0.4970791700000000    0.8220163200000000 O
   0.6030465300000000    0.9250628500000000    0.6779836800000000 O
   0.0749371500000000    0.7529208300000000    0.6779836800000000 O
   0.1469534700000000    0.3249371500000000    0.8220163200000000 O
