Cs1 K1 Na2 Li12 Si4 O16
1.0
  -5.5080777000000003    5.5080777000000003    3.1845094399999998
   5.5080777000000003   -5.5080777000000003    3.1845094399999998
   5.5080777000000003    5.5080777000000003   -3.1845094399999998
Cs K Na Li Si O
1 1 2 12 4 16
direct
   0.0000000000000000    0.0000000000000000    0.0000000000000000 Cs
   0.5000000000000000    0.5000000000000000    0.0000000000000000 K
   0.7500000000000000    0.2500000000000000    0.5000000000000000 Na
   0.2500000000000000    0.7500000000000000    0.5000000000000000 Na
   0.0744081000000000    0.2884099500000000    0.3628180600000000 Li
   0.7115900500000000    0.0744081000000000    0.7859981500000000 Li
   0.9255919000000000    0.7115900500000000    0.6371819399999999 Li
   0.2884099500000000    0.9255919000000000    0.2140018500000000 Li
   0.1463442400000000    0.5003595300000000    0.1291120100000000 Li
   0.5003595300000000    0.3712475300000000    0.3540152900000000 Li
   0.8536557600000000    0.4996404700000000    0.8708879899999999 Li
   0.3712475300000000    0.0172322400000000    0.8708879899999999 Li
   0.6287524700000000    0.9827677600000000    0.1291120100000000 Li
   0.9827677600000000    0.8536557600000000    0.3540152900000000 Li
   0.4996404700000000    0.6287524700000000    0.6459847100000000 Li
   0.0172322400000000    0.1463442400000000    0.6459847100000000 Li
   0.2143239600000000    0.5786121400000001    0.7929361000000000 Si
   0.7856760400000000    0.4213878600000000    0.2070639000000000 Si
   0.5786121400000001    0.7856760400000000    0.3642881800000000 Si
   0.4213878600000000    0.2143239600000000    0.6357118200000000 Si
   0.6227752400000000    0.5118258800000000    0.7013650000000000 O
   0.9214102400000000    0.6227752400000000    0.1109493600000000 O
   0.8104608800000001    0.9214102400000000    0.2986350000000000 O
   0.5118258800000000    0.8104608800000001    0.8890506400000000 O
   0.0785897600000000    0.3772247600000000    0.8890506400000000 O
   0.3772247600000000    0.4881741200000000    0.2986350000000000 O
   0.4881741200000000    0.1895391200000000    0.1109493600000000 O
   0.1895391200000000    0.0785897600000000    0.7013650000000000 O
   0.5620350000000000    0.1609223400000000    0.7229573400000000 O
   0.1609223400000000    0.4379650000000000    0.5988863400000000 O
   0.8390776599999999    0.5620350000000000    0.4011136600000000 O
   0.4379650000000000    0.8390776599999999    0.2770426600000000 O
   0.9014745300000000    0.3272946400000000    0.2287691700000000 O
   0.3272946400000000    0.0985254700000000    0.4258201100000000 O
   0.6727053600000000    0.9014745300000000    0.5741798900000000 O
   0.0985254700000000    0.6727053600000000    0.7712308300000000 O
