Li2 Sn4 P6 O24
1.0
   8.4605953399999994   -0.0036798900000000   -0.0057745000000000
  -4.1753940199999997    7.3991715100000004    0.0032985200000000
  -0.0497841500000000   -4.8632611199999998    7.4827064700000001
Li Sn P O
2 4 6 24
direct
   0.7773880399999999    0.2511836100000000    0.4296846300000000 Li
   0.2226119600000000    0.7488163900000000    0.5703153700000000 Li
   0.6430248400000000    0.7922037100000000    0.4394547600000000 Sn
   0.8654996700000001    0.2104432600000000    0.0689346700000000 Sn
   0.1345003300000000    0.7895567400000000    0.9310653300000000 Sn
   0.3569751600000000    0.2077962900000000    0.5605452399999999 Sn
   0.0384428600000000    0.0075749500000000    0.7532468500000000 P
   0.4615839200000000    0.7172276400000001    0.7480773400000000 P
   0.9615571400000000    0.9924250500000000    0.2467531500000000 P
   0.5384160800000000    0.2827723600000000    0.2519226600000000 P
   0.7488352700000001    0.2909360500000000    0.7466849000000000 P
   0.2511647300000000    0.7090639500000000    0.2533151000000000 P
   0.2585653400000000    0.8851208500000000    0.4319017100000000 O
   0.8333148100000000    0.8388158999999999    0.3023042100000000 O
   0.8832849100000000    0.1261423500000000    0.2499232900000000 O
   0.7391982100000000    0.3396724000000000    0.2356225800000000 O
   0.3816970200000000    0.0859467800000000    0.0766185700000000 O
   0.7414346600000000    0.1148791500000000    0.5680982900000000 O
   0.2608017900000000    0.6603276000000000    0.7643774200000000 O
   0.1674672900000000    0.1547849700000000    0.3734910800000000 O
   0.6183029799999999    0.9140532200000000    0.9233814299999999 O
   0.5513136199999999    0.2552051600000000    0.7402430400000000 O
   0.9570689100000001    0.8579908000000001    0.0543992800000000 O
   0.0429310900000000    0.1420092000000000    0.9456007200000000 O
   0.8325327100000000    0.8452150300000000    0.6265089200000000 O
   0.4486863800000000    0.7447948400000000    0.2597569600000000 O
   0.1666851900000000    0.1611841000000000    0.6976957900000000 O
   0.1113452900000000    0.5028433800000000    0.2511390000000000 O
   0.4794863900000000    0.5294227900000000    0.6951754000000000 O
   0.4662746400000000    0.7644179600000000    0.5976057000000000 O
   0.8886547100000000    0.4971566200000000    0.7488610000000000 O
   0.1167150900000000    0.8738576500000000    0.7500767100000000 O
   0.5205136100000000    0.4705772100000000    0.3048246000000000 O
   0.5337253600000000    0.2355820400000000    0.4023943000000000 O
   0.8201295199999999    0.2999009600000000    0.9085968300000000 O
   0.1798704800000000    0.7000990400000000    0.0914031700000000 O
