Ba4 Mg2 Si4 O14
1.0
   8.2209388400000005    0.0000000000000000    0.0000000000000000
   0.0000000000000000    8.2209388400000005    0.0000000000000000
   0.0000000000000000    0.0000000000000000    5.4091535899999998
Ba Mg Si O
4 2 4 14
direct
   0.6643838800000000    0.1643838800000000    0.5100925400000000 Ba
   0.8356161200000000    0.6643838800000000    0.4899074600000000 Ba
   0.1643838800000000    0.3356161200000000    0.4899074600000000 Ba
   0.3356161200000000    0.8356161200000000    0.5100925400000000 Ba
   0.0000000000000000    0.0000000000000000    0.0000000000000000 Mg
   0.5000000000000000    0.5000000000000000    0.0000000000000000 Mg
   0.8626310000000000    0.3626310000000000    0.9546605400000000 Si
   0.1373690000000000    0.6373690000000000    0.9546605400000000 Si
   0.6373690000000000    0.8626310000000000    0.0453394600000000 Si
   0.3626310000000000    0.1373690000000000    0.0453394600000000 Si
   0.6935535800000000    0.4225181000000000    0.8201423000000000 O
   0.3064464200000000    0.5774819000000000    0.8201423000000000 O
   0.4225181000000000    0.3064464200000000    0.1798577000000000 O
   0.5774819000000000    0.6935535800000000    0.1798577000000000 O
   0.9225181000000000    0.1935535800000000    0.8201423000000000 O
   0.8064464200000000    0.9225181000000000    0.1798577000000000 O
   0.1935535800000000    0.0774819000000000    0.1798577000000000 O
   0.0774819000000000    0.8064464200000000    0.8201423000000000 O
   0.8598163900000000    0.3598163900000000    0.2537405300000000 O
   0.6401836100000000    0.8598163900000000    0.7462594700000000 O
   0.5000000000000000    0.0000000000000000    0.1416723300000000 O
   0.0000000000000000    0.5000000000000000    0.8583276700000000 O
   0.1401836100000000    0.6401836100000000    0.2537405300000000 O
   0.3598163900000000    0.1401836100000000    0.7462594700000000 O
