Cr2 Ag1 Bi1 O8
1.0
  -2.5240891099999998    2.5240892200000000    5.7927768000000004
   2.5240891099999998   -2.5240892200000000    5.7927768000000004
   2.5240892200000000    2.5240891099999998   -5.7927768000000004
Cr Ag Bi O
2 1 1 8
direct
   0.2500000000000000    0.7500000000000000    0.5000000000000000 Cr
   0.0000000000000000    0.0000000000000000    0.0000000000000000 Cr
   0.7500000000000000    0.2500000000000000    0.5000000000000000 Ag
   0.5000000000000000    0.5000000000000000    0.0000000000000000 Bi
   0.4568244100000000    0.5889169100000000    0.3841928100000000 O
   0.7925689800000000    0.1698899200000000    0.1160196800000000 O
   0.9273694000000000    0.5431755900000000    0.1320925000000000 O
   0.4110830900000000    0.7952769000000000    0.8679075000000001 O
   0.8301100800000000    0.9461297700000000    0.6226790600000000 O
   0.2047231000000000    0.0726306000000000    0.6158071899999999 O
   0.3234507000000000    0.2074310200000000    0.3773209400000000 O
   0.0538702300000000    0.6765493000000000    0.8839803200000000 O
