Ca2 Ti2 Si2 O10
1.0
   3.2945280000000001   -4.3634880000000003    0.0000000000000000
   3.2945280000000001    4.3634880000000003    0.0000000000000000
  -2.8621960000000000    0.0000000000000000    6.4784379999999997
Ca Ti Si O
2 2 2 10
direct
   0.8311600000000000    0.1688400000000000    0.7500000000000000 Ca
   0.1688400000000000    0.8311600000000000    0.2500000000000000 Ca
   0.5000000000000000    0.5000000000000000    0.5000000000000000 Ti
   0.5000000000000000    0.5000000000000000    0.0000000000000000 Ti
   0.1814670000000000    0.8185330000000000    0.7500000000000000 Si
   0.8185330000000000    0.1814670000000000    0.2500000000000000 Si
   0.1823670000000000    0.6071260000000001    0.8807000000000000 O
   0.3928740000000000    0.8176330000000001    0.6193000000000000 O
   0.8176330000000001    0.3928740000000000    0.1193000000000000 O
   0.6071260000000001    0.1823670000000000    0.3807000000000000 O
   0.1186450000000000    0.2471710000000000    0.4124320000000000 O
   0.7528290000000000    0.8813550000000000    0.0875680000000000 O
   0.8813550000000000    0.7528290000000000    0.5875680000000000 O
   0.2471710000000000    0.1186450000000000    0.9124320000000000 O
   0.4250610000000000    0.5749390000000000    0.2500000000000000 O
   0.5749390000000000    0.4250610000000000    0.7500000000000000 O
