Ba4 P4 Se12
1.0
   6.9852294500000003    0.0000000000000000   -0.0169577700000000
   0.0000000000000000    7.8274324300000000    0.0000000000000000
  -6.8039828699999996    0.0000000000000000   10.2709664899999993
Ba P Se
4 4 12
direct
   0.7089338400000000    0.9089465400000000    0.2489819600000000 Ba
   0.2910661600000000    0.4089465400000000    0.2510180400000000 Ba
   0.2910661600000000    0.0910534600000000    0.7510180400000001 Ba
   0.7089338400000000    0.5910534600000000    0.7489819599999999 Ba
   0.3951959100000000    0.8878444700000000    0.4394055200000000 P
   0.6048040900000000    0.3878444700000000    0.0605944800000000 P
   0.6048040900000000    0.1121555300000000    0.5605944800000000 P
   0.3951959100000000    0.6121555300000000    0.9394055200000000 P
   0.1737989000000000    0.5160585300000000    0.7394191600000000 Se
   0.8262011000000000    0.0160585300000000    0.7605808400000000 Se
   0.8262011000000000    0.4839414700000000    0.2605808400000000 Se
   0.1737989000000000    0.9839414700000000    0.2394191600000000 Se
   0.2140250500000000    0.7094391900000000    0.0267515800000000 Se
   0.7859749500000000    0.2094391900000000    0.4732484200000000 Se
   0.7859749500000000    0.2905608100000000    0.9732484200000000 Se
   0.2140250500000000    0.7905608100000000    0.5267515800000000 Se
   0.6514219400000000    0.7981695400000000    0.9641160100000000 Se
   0.3485780600000000    0.2981695400000000    0.5358839900000000 Se
   0.3485780600000000    0.2018304600000000    0.0358839900000000 Se
   0.6514219400000000    0.7018304600000000    0.4641160100000000 Se
