Na16 Be8 O16
1.0
   7.8099825799999998    0.0000000000000000   -0.0513296900000000
   0.0000000000000000    5.2509122899999996    0.0000000000000000
  -6.0632459200000000    0.0000000000000000   11.2506003000000003
Na Be O
16 8 16
direct
   0.0732633100000000    0.4482112600000000    0.6259194000000000 Na
   0.9267366900000000    0.9482112600000000    0.8740806000000000 Na
   0.6458631300000000    0.1676428700000000    0.9653071700000000 Na
   0.3541368700000000    0.6676428700000000    0.5346928300000000 Na
   0.6458631300000000    0.3323571300000000    0.4653071700000000 Na
   0.3541368700000000    0.8323571300000000    0.0346928300000000 Na
   0.4195460900000000    0.3837527000000000    0.1678743700000000 Na
   0.5804539100000000    0.8837526999999999    0.3321256300000000 Na
   0.4195460900000000    0.1162473000000000    0.6678743700000001 Na
   0.5804539100000000    0.6162473000000001    0.8321256299999999 Na
   0.9267366900000000    0.5517887400000000    0.3740806000000000 Na
   0.0732633100000000    0.0517887400000000    0.1259194000000000 Na
   0.1739909800000000    0.9447363600000001    0.7642445600000000 Na
   0.8260090200000000    0.4447363600000000    0.7357554400000000 Na
   0.8260090200000000    0.0552636400000000    0.2357554400000000 Na
   0.1739909800000000    0.5552636399999999    0.2642445600000000 Na
   0.2625569000000000    0.3836529000000000    0.8774090900000000 Be
   0.7374431000000000    0.8836529000000000    0.6225909100000000 Be
   0.2625569000000000    0.1163471000000000    0.3774090900000000 Be
   0.7374431000000000    0.6163471000000000    0.1225909100000000 Be
   0.0909070100000000    0.4580450500000000    0.9614529400000000 Be
   0.9090929900000000    0.9580450500000000    0.5385470600000000 Be
   0.9090929900000000    0.5419549500000000    0.0385470600000000 Be
   0.0909070100000000    0.0419549500000000    0.4614529400000000 Be
   0.7502227900000000    0.7741298700000000    0.0211772000000000 O
   0.2497772100000000    0.2741298700000000    0.4788228000000000 O
   0.7502227900000000    0.7258701300000000    0.5211772000000000 O
   0.2497772100000000    0.2258701300000000    0.9788228000000000 O
   0.8727126100000000    0.1194975500000000    0.6413497800000000 O
   0.1272873900000000    0.6194975500000000    0.8586502200000000 O
   0.8727126100000000    0.3805024500000000    0.1413497800000000 O
   0.1272873900000000    0.8805024500000000    0.3586502200000000 O
   0.3625788000000000    0.3067935900000000    0.8052576100000000 O
   0.6374212000000000    0.8067935899999999    0.6947423900000000 O
   0.6374212000000000    0.6932064100000001    0.1947423900000000 O
   0.3625788000000000    0.1932064100000000    0.3052576100000000 O
   0.8679697700000000    0.1351513000000000    0.4220823700000000 O
   0.1320302300000000    0.6351513000000000    0.0779176300000000 O
   0.1320302300000000    0.8648487000000000    0.5779176300000000 O
   0.8679697700000000    0.3648487000000000    0.9220823700000000 O
