Ag2 Bi2 P4 Se12
1.0
   3.3004540400000000    1.9055149899999999   13.2454869899999998
  -3.3004512699999999    1.9055198000000000   13.2454869899999998
  -0.0000027800000000   -3.8110347899999999   13.2454869899999998
Ag Bi P Se
2 2 4 12
direct
   0.5946528000000000    0.5946528000000000    0.5946528000000000 Ag
   0.4053472000000000    0.4053472000000000    0.4053472000000000 Ag
   0.0883509400000000    0.0883509400000000    0.0883509400000000 Bi
   0.9116490600000000    0.9116490600000000    0.9116490600000000 Bi
   0.7223955900000000    0.7223955900000000    0.7223955900000000 P
   0.7793000900000000    0.7793000900000000    0.7793000900000000 P
   0.2206999100000000    0.2206999100000000    0.2206999100000000 P
   0.2776044100000000    0.2776044100000000    0.2776044100000000 P
   0.7380904100000000    0.1397589300000000    0.5036024300000000 Se
   0.7290726500000000    0.3761705900000000    0.0082657000000000 Se
   0.9917343000000000    0.2709273500000000    0.6238294100000000 Se
   0.3761705900000000    0.0082657000000000    0.7290726500000000 Se
   0.1397589300000000    0.5036024300000000    0.7380904100000000 Se
   0.0082657000000000    0.7290726500000000    0.3761705900000000 Se
   0.6238294100000000    0.9917343000000000    0.2709273500000000 Se
   0.5036024300000000    0.7380904100000000    0.1397589300000000 Se
   0.2709273500000000    0.6238294100000000    0.9917343000000000 Se
   0.4963975700000000    0.2619095900000000    0.8602410700000001 Se
   0.8602410700000001    0.4963975700000000    0.2619095900000000 Se
   0.2619095900000000    0.8602410700000001    0.4963975700000000 Se
