Cd4 P4 O14
1.0
   6.6182044700000002   -0.0198759200000000    0.0051599400000000
   0.9663833200000000    6.6088092500000002   -0.0432613400000000
   2.8834103799999999    0.3631424000000000    6.1773647100000000
Cd P O
4 4 14
direct
   0.1179020500000000    0.1630442400000000    0.2509357200000000 Cd
   0.8820979500000000    0.8369557600000000    0.7490642800000000 Cd
   0.2778281000000000    0.3549297400000000    0.6560614700000000 Cd
   0.7221719000000000    0.6450702600000000    0.3439385300000000 Cd
   0.2346975700000000    0.6602870199999999    0.2481540000000000 P
   0.7653024300000000    0.3397129800000000    0.7518460000000000 P
   0.3604768400000000    0.8649112600000000    0.8118764900000000 P
   0.6395231600000000    0.1350887400000000    0.1881235100000000 P
   0.2098298700000000    0.7447736400000000    0.7654237400000000 O
   0.7901701300000000    0.2552263600000000    0.2345762600000000 O
   0.0949126500000000    0.5071389100000000    0.2226328200000000 O
   0.9050873500000000    0.4928610900000000    0.7773671800000000 O
   0.2582840300000000    0.0809797300000000    0.8873767500000000 O
   0.7417159700000000    0.9190202700000000    0.1126232500000000 O
   0.3934567200000000    0.5670134100000001    0.3510028500000000 O
   0.6065432800000000    0.4329865900000000    0.6489971500000000 O
   0.5974268600000000    0.2547745700000000    0.9845931400000000 O
   0.4025731400000000    0.7452254300000000    0.0154068600000000 O
   0.9298914400000000    0.1616811300000000    0.6350123600000001 O
   0.0701085600000000    0.8383188700000000    0.3649876400000000 O
   0.3999379800000000    0.1378294400000000    0.3653835100000000 O
   0.6000620200000000    0.8621705600000000    0.6346164900000000 O
