Ba2 Nb4 Bi4 O18
1.0
  12.5957404200000003   -2.8296790700000001    0.0000000000000000
  12.5957404200000003    2.8296790700000001    0.0000000000000000
   0.0000000000000000    0.0000000000000000    5.6668763400000000
Ba Nb Bi O
2 4 4 18
direct
   0.2474625300000000    0.7525374700000000    0.4603300000000000 Ba
   0.7525374700000000    0.2474625300000000    0.9603300000000000 Ba
   0.6609649200000000    0.1669630700000000    0.4639772300000000 Nb
   0.1669630700000000    0.6609649200000000    0.9639772300000000 Nb
   0.8330369300000000    0.3390350800000000    0.4639772300000000 Nb
   0.3390350800000000    0.8330369300000000    0.9639772300000000 Nb
   0.5116281499999999    0.0855004100000000    0.0598663500000000 Bi
   0.0855004100000000    0.5116281499999999    0.5598663500000000 Bi
   0.4883718500000000    0.9144995900000000    0.5598663500000000 Bi
   0.9144995900000000    0.4883718500000000    0.0598663500000000 Bi
   0.2656566300000000    0.2301608200000000    0.7704510700000000 O
   0.5717549900000000    0.5748138800000000    0.2067155900000000 O
   0.8449629000000000    0.4760481300000000    0.4442703700000000 O
   0.5748138800000000    0.5717549900000000    0.7067155899999999 O
   0.9103604700000000    0.9194980900000000    0.2030881000000000 O
   0.0805019100000000    0.0896395300000000    0.2030881000000000 O
   0.4760481300000000    0.8449629000000000    0.9442703700000000 O
   0.1550371000000000    0.5239518700000000    0.9442703700000000 O
   0.9194980900000000    0.9103604700000000    0.7030881000000000 O
   0.0896395300000000    0.0805019100000000    0.7030881000000000 O
   0.4251861200000000    0.4282450100000000    0.2067155900000000 O
   0.4282450100000000    0.4251861200000000    0.7067155899999999 O
   0.7343433700000001    0.7698391800000000    0.2704510700000000 O
   0.7698391800000000    0.7343433700000001    0.7704510700000000 O
   0.2301608200000000    0.2656566300000000    0.2704510700000000 O
   0.5239518700000000    0.1550371000000000    0.4442703700000000 O
   0.2283581700000000    0.7716418300000000    0.9549325600000000 O
   0.7716418300000000    0.2283581700000000    0.4549325600000000 O
