Cs2 V6 Se4 O24
1.0
   7.0533832199999997    0.0000010400000000    0.0000000000000000
  -3.5266920300000000    6.1084079300000003    0.0000000000000000
   0.0000000000000000    0.0000000000000000   11.8006504700000008
Cs V Se O
2 6 4 24
direct
   0.3333330000000000    0.6666670000000000    0.9687853700000000 Cs
   0.6666670000000000    0.3333330000000000    0.4687853700000000 Cs
   0.6672122100000000    0.7971142000000000    0.2941143800000000 V
   0.1299019900000000    0.3327877900000000    0.2941143800000000 V
   0.7971142000000000    0.1299019900000000    0.7941143800000000 V
   0.3327877900000000    0.2028858000000000    0.7941143800000000 V
   0.2028858000000000    0.8700980100000000    0.2941143800000000 V
   0.8700980100000000    0.6672122100000000    0.7941143800000000 V
   0.0000000000000000    0.0000000000000000    0.0746155400000000 Se
   0.3333330000000000    0.6666670000000000    0.5168407200000000 Se
   0.6666670000000000    0.3333330000000000    0.0168407200000000 Se
   0.0000000000000000    0.0000000000000000    0.5746155400000000 Se
   0.1249815000000000    0.8764575400000000    0.8238058100000000 O
   0.2485229700000000    0.1249815000000000    0.3238058100000000 O
   0.8764575400000000    0.7514770300000000    0.3238058100000000 O
   0.1235424600000000    0.2485229700000000    0.8238058100000000 O
   0.7514770300000000    0.8750185000000000    0.8238058100000000 O
   0.8750185000000000    0.1235424600000000    0.3238058100000000 O
   0.9162766700000000    0.4570144300000000    0.7706669100000000 O
   0.4592622300000000    0.9162766700000000    0.2706669100000000 O
   0.4570144300000000    0.5407377700000000    0.2706669100000000 O
   0.5429855700000000    0.4592622300000000    0.7706669100000000 O
   0.5407377700000000    0.0837233300000000    0.7706669100000000 O
   0.0837233300000000    0.5429855700000000    0.2706669100000000 O
   0.2095533100000000    0.4102223100000000    0.4556565800000000 O
   0.7993309900000000    0.2095533100000000    0.9556565800000000 O
   0.4102223100000000    0.2006690100000000    0.9556565800000000 O
   0.5897776900000000    0.7993309900000000    0.4556565800000000 O
   0.2006690100000000    0.7904466900000000    0.4556565800000000 O
   0.7904466900000000    0.5897776900000000    0.9556565800000000 O
   0.1321532300000000    0.2555891700000000    0.1382044500000000 O
   0.8765640600000000    0.1321532300000000    0.6382044500000000 O
   0.2555891700000000    0.1234359400000000    0.6382044500000000 O
   0.7444108300000000    0.8765640600000000    0.1382044500000000 O
   0.1234359400000000    0.8678467700000000    0.1382044500000000 O
   0.8678467700000000    0.7444108300000000    0.6382044500000000 O
