Cs1 Ta1 P2 O8
1.0
   4.3775821500000003   -2.6290298999999999   -0.0002836200000000
   4.3775821500000003    2.6290298999999999   -0.0002836200000000
  -0.5087224600000000    0.0000000000000000    8.8016192600000007
Cs Ta P O
1 1 2 8
direct
   0.0000000000000000    0.0000000000000000    0.5000000000000000 Cs
   0.0000000000000000    0.0000000000000000    0.0000000000000000 Ta
   0.6438695800000001    0.6438695800000001    0.8053513900000000 P
   0.3561304200000000    0.3561304200000000    0.1946486100000000 P
   0.7880066200000000    0.7880066200000000    0.9186251800000000 O
   0.2152525000000000    0.6888477900000000    0.1505933100000000 O
   0.3211467900000000    0.3211467900000000    0.3575470200000000 O
   0.3111522100000000    0.7847475000000000    0.8494066900000000 O
   0.7847475000000000    0.3111522100000000    0.8494066900000000 O
   0.2119933800000000    0.2119933800000000    0.0813748200000000 O
   0.6788532100000000    0.6788532100000000    0.6424529800000000 O
   0.6888477900000000    0.2152525000000000    0.1505933100000000 O
