Ag10 P2 Se2 O8
1.0
   6.8261185500000003    0.0000000000000000    0.0000000000000000
   0.0000000000000000    6.8261185500000003    0.0000000000000000
   0.0000000000000000    0.0000000000000000    7.1135059299999996
Ag P Se O
10 2 2 8
direct
   0.7798290800000000    0.7201709200000000    0.1949896700000000 Ag
   0.2201709200000000    0.7201709200000000    0.1949896700000000 Ag
   0.7798290800000000    0.2798290800000000    0.1949896700000000 Ag
   0.2201709200000000    0.2798290800000000    0.1949896700000000 Ag
   0.7201709200000000    0.7798290800000000    0.8050103300000000 Ag
   0.2798290800000000    0.7798290800000000    0.8050103300000000 Ag
   0.7201709200000000    0.2201709200000000    0.8050103300000000 Ag
   0.2798290800000000    0.2201709200000000    0.8050103300000000 Ag
   0.0000000000000000    0.5000000000000000    0.4691379600000000 Ag
   0.5000000000000000    0.0000000000000000    0.5308620400000000 Ag
   0.5000000000000000    0.5000000000000000    0.5000000000000000 P
   0.0000000000000000    0.0000000000000000    0.5000000000000000 P
   0.0000000000000000    0.5000000000000000    0.9988016500000000 Se
   0.5000000000000000    0.0000000000000000    0.0011983500000000 Se
   0.5000000000000000    0.3129858800000000    0.3744187200000000 O
   0.5000000000000000    0.6870141200000000    0.3744187200000000 O
   0.8129858800000000    0.0000000000000000    0.3744187200000000 O
   0.1870141200000000    0.0000000000000000    0.3744187200000000 O
   0.0000000000000000    0.1870141200000000    0.6255812800000000 O
   0.0000000000000000    0.8129858800000000    0.6255812800000000 O
   0.6870141200000000    0.5000000000000000    0.6255812800000000 O
   0.3129858800000000    0.5000000000000000    0.6255812800000000 O
