Sr2 Mg1 B2 O6
1.0
   4.5132956300000000   -2.5711448500000000    0.0062848700000000
   4.5132956300000000    2.5711448500000000    0.0062848700000000
  -2.9360991599999999    0.0000000000000000    5.3109379499999996
Sr Mg B O
2 1 2 6
direct
   0.7094631100000000    0.7094631100000000    0.1839794400000000 Sr
   0.2905368900000000    0.2905368900000000    0.8160205600000000 Sr
   0.5000000000000000    0.5000000000000000    0.5000000000000000 Mg
   0.9376156900000000    0.9376156900000000    0.7382377900000000 B
   0.0623843100000000    0.0623843100000000    0.2617622100000000 B
   0.7670465900000000    0.7670465900000000    0.6624080600000000 O
   0.7426994700000000    0.2073186000000000    0.2291456700000000 O
   0.7926814000000000    0.2573005300000000    0.7708543300000000 O
   0.2573005300000000    0.7926814000000000    0.7708543300000000 O
   0.2073186000000000    0.7426994700000000    0.2291456700000000 O
   0.2329534100000000    0.2329534100000000    0.3375919400000000 O
