Ca4 P4 Se12
1.0
   6.8169935199999996    0.0000000000000000    0.0055705800000000
   0.0000000000000000    7.4499207600000004    0.0000000000000000
  -6.4391689200000002    0.0000000000000000    9.4538928400000000
Ca P Se
4 4 12
direct
   0.2839279200000000    0.3863969300000000    0.2468229700000000 Ca
   0.2839279200000000    0.1136030700000000    0.7468229700000000 Ca
   0.7160720800000000    0.8863969300000000    0.2531770300000000 Ca
   0.7160720800000000    0.6136030700000000    0.7531770300000000 Ca
   0.3702735500000000    0.8919703700000000    0.4351209800000000 P
   0.6297264500000000    0.1080296300000000    0.5648790200000000 P
   0.6297264500000000    0.3919703700000000    0.0648790200000000 P
   0.3702735500000000    0.6080296300000000    0.9351209800000000 P
   0.1075775100000000    0.0133843300000000    0.2288152400000000 Se
   0.7779901600000000    0.2075102100000000    0.4482132100000000 Se
   0.2220098400000000    0.7075102100000000    0.0517867900000000 Se
   0.2220098400000000    0.7924897900000000    0.5517867900000000 Se
   0.6035282500000000    0.8143714200000000    0.9387506400000000 Se
   0.3964717500000000    0.3143714200000000    0.5612493600000000 Se
   0.3964717500000000    0.1856285800000000    0.0612493600000000 Se
   0.6035282500000000    0.6856285800000000    0.4387506400000000 Se
   0.8924224900000000    0.5133843300000001    0.2711847600000000 Se
   0.8924224900000000    0.9866156699999999    0.7711847600000000 Se
   0.1075775100000000    0.4866156700000000    0.7288152400000000 Se
   0.7779901600000000    0.2924897900000000    0.9482132100000000 Se
