Cs4 K4 Cd6 O10
1.0
   6.6020282300000002    0.0038746000000000    0.0238958500000000
   2.9476904300000002    8.7413215599999994    0.0013008100000000
   2.6539300500000000    3.1999406600000002    8.4639290299999992
Cs K Cd O
4 4 6 10
direct
   0.0531100100000000    0.5749266500000000    0.6481131800000000 Cs
   0.6075478200000000    0.2893813200000000    0.7535035200000000 Cs
   0.3924521800000000    0.7106186799999999    0.2464964800000000 Cs
   0.9468899900000000    0.4250733500000000    0.3518868200000000 Cs
   0.0529573300000000    0.9495966200000000    0.6953526600000000 K
   0.2418686500000000    0.5700048900000000    0.9762520400000000 K
   0.7581313500000000    0.4299951100000000    0.0237479600000000 K
   0.9470426700000000    0.0504033800000000    0.3046473400000000 K
   0.5999315700000000    0.8164467900000000    0.5048723300000000 Cd
   0.1244850100000000    0.1412451400000000    0.9052294800000000 Cd
   0.4323134300000000    0.1689509300000000    0.1707897400000000 Cd
   0.8755149900000000    0.8587548600000000    0.0947705200000000 Cd
   0.4000684300000000    0.1835532100000000    0.4951276700000000 Cd
   0.5676865700000000    0.8310490699999999    0.8292102600000000 Cd
   0.8133110600000000    0.7202662700000000    0.9820168800000000 O
   0.4214452900000000    0.3694463000000000    0.2581709400000000 O
   0.1866889400000000    0.2797337300000000    0.0179831200000000 O
   0.3212434100000000    0.9955766600000000    0.4064771400000000 O
   0.6787565900000000    0.0044233400000000    0.5935228600000000 O
   0.1040853700000000    0.2546817700000000    0.6530343500000000 O
   0.5785547100000000    0.6305537000000000    0.7418290600000000 O
   0.8959146300000000    0.7453182300000000    0.3469656500000000 O
   0.7681665200000000    0.1237076600000000    0.0385938500000000 O
   0.2318334800000000    0.8762923400000000    0.9614061500000000 O
