Ba4 Sn4 S8
1.0
   6.0747665499999997    0.0000000000000000   -0.0167387700000000
   0.0000000000000000   12.1129786300000006    0.0000000000000000
  -0.7138904100000000    0.0000000000000000    6.1836261099999996
Ba Sn S
4 4 8
direct
   0.0596139500000000    0.8797777100000000    0.7605412000000000 Ba
   0.9403860500000000    0.3797777100000000    0.7394588000000000 Ba
   0.9403860500000000    0.1202222900000000    0.2394588000000000 Ba
   0.0596139500000000    0.6202222900000000    0.2605412000000000 Ba
   0.5421147600000000    0.8696506500000000    0.3016717000000000 Sn
   0.4578852400000000    0.1303493500000000    0.6983283000000000 Sn
   0.4578852400000000    0.3696506500000000    0.1983283000000000 Sn
   0.5421147600000000    0.6303493500000000    0.8016717000000000 Sn
   0.5715897200000000    0.8403231900000000    0.8887251400000000 S
   0.4284102800000000    0.3403231900000000    0.6112748600000000 S
   0.4284102800000000    0.1596768100000000    0.1112748600000000 S
   0.5715897200000000    0.6596768100000000    0.3887251400000000 S
   0.1214111700000000    0.6241302100000000    0.7669870100000000 S
   0.1214111700000000    0.8758697900000000    0.2669870100000000 S
   0.8785888300000000    0.3758697900000000    0.2330129900000000 S
   0.8785888300000000    0.1241302100000000    0.7330129900000000 S
