Ba4 P8 O24
1.0
   7.5324842099999998    0.0000000000000000   -0.0061489500000000
   0.0000000000000000    6.9167964299999998    0.0000000000000000
  -6.7384202699999998    0.0000000000000000    9.6888964899999994
Ba P O
4 8 24
direct
   0.6782909800000000    0.0984614600000000    0.8234853400000000 Ba
   0.6782909800000000    0.4015385400000000    0.3234853400000000 Ba
   0.3217090200000000    0.5984614600000000    0.6765146600000000 Ba
   0.3217090200000000    0.9015385400000000    0.1765146600000000 Ba
   0.0462188400000000    0.1087964100000000    0.6630251200000000 P
   0.2921915800000000    0.2042352300000000    0.4221346800000000 P
   0.9537811600000000    0.6087964100000000    0.8369748800000000 P
   0.7078084200000000    0.7957647700000000    0.5778653200000000 P
   0.7078084200000000    0.7042352300000000    0.0778653200000000 P
   0.2921915800000000    0.2957647700000000    0.9221346800000000 P
   0.0462188400000000    0.3912035900000000    0.1630251200000000 P
   0.9537811600000000    0.8912035900000000    0.3369748800000000 P
   0.3889921800000000    0.2211128100000000    0.0646696700000000 O
   0.7833761000000000    0.0280932900000000    0.3153003500000000 O
   0.8181762200000000    0.4967467400000000    0.0975763400000000 O
   0.1818237800000000    0.9967467400000000    0.4024236600000000 O
   0.0893965100000000    0.1599754400000000    0.8134123900000000 O
   0.0893965100000000    0.3400245600000000    0.3134123900000000 O
   0.8181762200000000    0.0032532600000000    0.5975763400000000 O
   0.5671690700000001    0.8204382800000000    0.6294684900000000 O
   0.6110078200000000    0.7211128100000000    0.4353303300000000 O
   0.9106034900000000    0.8400245600000000    0.1865876100000000 O
   0.6110078200000000    0.7788871900000000    0.9353303300000000 O
   0.9961920200000000    0.7945765000000000    0.9142299900000000 O
   0.3889921800000000    0.2788871900000000    0.5646696700000000 O
   0.4328309300000000    0.1795617200000000    0.3705315100000000 O
   0.2166239000000000    0.5280932900000000    0.1846996500000000 O
   0.9961920200000000    0.7054235000000000    0.4142299900000000 O
   0.0038079800000000    0.2945765000000000    0.5857700100000000 O
   0.9106034900000000    0.6599754400000000    0.6865876100000000 O
   0.7833761000000000    0.4719067100000000    0.8153003500000000 O
   0.1818237800000000    0.5032532600000000    0.9024236600000000 O
   0.0038079800000000    0.2054235000000000    0.0857700100000000 O
   0.4328309300000000    0.3204382800000000    0.8705315100000000 O
   0.2166239000000000    0.9719067100000000    0.6846996500000000 O
   0.5671690700000001    0.6795617200000000    0.1294684900000000 O
