Na4 Be2 B4 O10
1.0
   2.8856149400000000   -4.0801315599999999    0.0000504800000000
   2.8856149400000000    4.0801315599999999    0.0000504800000000
  -1.5578589700000001    0.0000000000000000    8.6777358800000002
Na Be B O
4 2 4 10
direct
   0.6826937800000000    0.2909082800000000    0.4259881100000000 Na
   0.7090917200000000    0.3173062200000000    0.0740118900000000 Na
   0.3173062200000000    0.7090917200000000    0.5740118900000000 Na
   0.2909082800000000    0.6826937800000000    0.9259881100000000 Na
   0.2878330800000000    0.7121669200000000    0.2500000000000000 Be
   0.7121669200000000    0.2878330800000000    0.7500000000000000 Be
   0.8385689300000000    0.8287116200000000    0.3237025500000000 B
   0.1712883800000000    0.1614310700000000    0.1762974500000000 B
   0.8287116200000000    0.8385689300000000    0.8237025500000000 B
   0.1614310700000000    0.1712883800000000    0.6762974500000000 B
   0.6715380000000000    0.0124787300000000    0.8416724200000000 O
   0.0124787300000000    0.6715380000000000    0.3416724200000000 O
   0.7596719900000000    0.5766830300000000    0.8737708000000000 O
   0.4233169700000000    0.2403280100000000    0.6262292000000000 O
   0.2403280100000000    0.4233169700000000    0.1262292000000000 O
   0.5766830300000000    0.7596719900000000    0.3737708000000000 O
   0.0759394100000000    0.9240605900000000    0.7500000000000000 O
   0.9240605900000000    0.0759394100000000    0.2500000000000000 O
   0.3284620000000000    0.9875212700000000    0.1583275800000000 O
   0.9875212700000000    0.3284620000000000    0.6583275800000000 O
