Rb1 Y1 S2
1.0
   2.0100541900000000    1.1605048400000000    7.5579844999999999
  -2.0100541900000000    1.1605048400000000    7.5579844999999999
   0.0000000000000000   -2.3210096700000000    7.5579844999999999
Rb Y S
1 1 2
direct
   0.0000000000000000    0.0000000000000000    0.0000000000000000 Rb
   0.5000000000000000    0.5000000000000000    0.5000000000000000 Y
   0.7687908900000000    0.7687908900000000    0.7687908900000000 S
   0.2312091100000000    0.2312091100000000    0.2312091100000000 S
