Tl4 Si2 Se6
1.0
   6.7323162700000001   -0.0086212900000000    0.0096591300000000
  -2.6652935699999998    6.2314166699999998    0.0135371400000000
  -0.1556124900000000   -3.5343201999999998    7.8629303300000002
Tl Si Se
4 2 6
direct
   0.6731453900000000    0.2527230600000000    0.8953856900000000 Tl
   0.3268546100000000    0.7472769400000000    0.1046143100000000 Tl
   0.9406547200000001    0.1110251700000000    0.3332845500000000 Tl
   0.0593452800000000    0.8889748300000000    0.6667154500000000 Tl
   0.4535419200000000    0.5681893500000000    0.6821552600000000 Si
   0.5464580800000000    0.4318106500000000    0.3178447400000000 Si
   0.2782113900000000    0.2363146200000000    0.0872020000000000 Se
   0.7217886100000001    0.7636853800000000    0.9127980000000000 Se
   0.1089232500000000    0.4824285700000000    0.7321824700000000 Se
   0.8910767500000000    0.5175714300000001    0.2678175300000000 Se
   0.5296954699999999    0.7720047400000000    0.5072709399999999 Se
   0.4703045300000000    0.2279952600000000    0.4927290600000000 Se
