La4 P4 O16
1.0
   6.4679310900000004    0.0000000000000000   -0.0180778000000000
   0.0000000000000000    7.0574066000000002    0.0000000000000000
  -4.8552619999999997    0.0000000000000000    6.6541998299999996
La P O
4 4 16
direct
   0.8184124000000000    0.3407615800000000    0.2173922700000000 La
   0.1815876000000000    0.8407615800000000    0.2826077300000000 La
   0.1815876000000000    0.6592384200000000    0.7826077299999999 La
   0.8184124000000000    0.1592384200000000    0.7173922700000001 La
   0.3078950700000000    0.3365322000000000    0.1954069500000000 P
   0.6921049300000000    0.8365321999999999    0.3045930500000000 P
   0.6921049300000000    0.6634678000000001    0.8045930500000000 P
   0.3078950700000000    0.1634678000000000    0.6954069500000000 P
   0.3315512100000000    0.3930589500000000    0.0252307400000000 O
   0.6684487900000000    0.8930589500000000    0.4747692600000000 O
   0.6684487900000000    0.6069410500000000    0.9747692600000000 O
   0.3315512100000000    0.1069410500000000    0.5252307400000000 O
   0.1147027300000000    0.1682807900000000    0.1183707400000000 O
   0.8852972700000000    0.6682807900000000    0.3816292600000000 O
   0.8852972700000000    0.8317192100000000    0.8816292600000000 O
   0.1147027300000000    0.3317192100000000    0.6183707400000000 O
   0.5842508100000000    0.2149195100000000    0.8727337200000000 O
   0.4157491900000000    0.7149195100000000    0.6272662800000000 O
   0.4157491900000000    0.7850804900000000    0.1272662800000000 O
   0.5842508100000000    0.2850804900000000    0.3727337200000000 O
   0.1938438500000000    0.0057387600000000    0.7508182200000000 O
   0.8061561500000000    0.5057387600000000    0.7491817800000000 O
   0.8061561500000000    0.9942612400000000    0.2491817800000000 O
   0.1938438500000000    0.4942612400000000    0.2508182200000000 O
