Al4 Cd2 Se8
1.0
   0.0000000000000000    5.4076860000000000    5.4076860000000000
   5.4076860000000000    0.0000000000000000    5.4076860000000000
   5.4076860000000000    5.4076860000000000    0.0000000000000000
Al Cd Se
4 2 8
direct
   0.6250000000000000    0.6250000000000000    0.6250000000000000 Al
   0.1250000000000000    0.6250000000000000    0.6250000000000000 Al
   0.6250000000000000    0.1250000000000000    0.6250000000000000 Al
   0.6250000000000000    0.6250000000000000    0.1250000000000000 Al
   0.2500000000000000    0.2500000000000000    0.2500000000000000 Cd
   0.0000000000000000    0.0000000000000000    0.0000000000000000 Cd
   0.8615190000000000    0.8615190000000000    0.4154420000000000 Se
   0.3884810000000000    0.8345580000000000    0.3884810000000000 Se
   0.8615190000000000    0.4154420000000000    0.8615190000000000 Se
   0.3884810000000000    0.3884810000000000    0.8345580000000000 Se
   0.8345580000000000    0.3884810000000000    0.3884810000000000 Se
   0.3884810000000000    0.3884810000000000    0.3884810000000000 Se
   0.4154420000000000    0.8615190000000000    0.8615190000000000 Se
   0.8615190000000000    0.8615190000000000    0.8615190000000000 Se
