Hf3 Te1 Pb4 O13
1.0
   3.7804266300000000    2.1826303399999998    6.1892609800000002
  -3.7804266300000000    2.1826303399999998    6.1892609800000002
   0.0000000000000000   -4.3652616699999998    6.1892609800000002
Hf Te Pb O
3 1 4 13
direct
   0.5006310200000000    0.5006310200000000    0.9998324600000000 Hf
   0.5006310200000000    0.9998324600000000    0.5006310200000000 Hf
   0.9998324600000000    0.5006310200000000    0.5006310200000000 Hf
   0.5009169400000000    0.5009169400000000    0.5009169400000000 Te
   0.0005607700000000    0.0005607700000000    0.4976346100000000 Pb
   0.0005607700000000    0.4976346100000000    0.0005607700000000 Pb
   0.4976346100000000    0.0005607700000000    0.0005607700000000 Pb
   0.9973618100000000    0.9973618100000000    0.9973618100000000 Pb
   0.5733248600000000    0.1673586300000000    0.1673586300000000 O
   0.1966041300000000    0.5681301400000000    0.5681301400000000 O
   0.1673586300000000    0.5733248600000000    0.1673586300000000 O
   0.5681301400000000    0.1966041300000000    0.5681301400000000 O
   0.1673586300000000    0.1673586300000000    0.5733248600000000 O
   0.5681301400000000    0.5681301400000000    0.1966041300000000 O
   0.4336050800000000    0.8298294800000000    0.8298294800000000 O
   0.8032804000000000    0.4346945600000000    0.4346945600000000 O
   0.8298294800000000    0.4336050800000000    0.8298294800000000 O
   0.4346945600000000    0.8032804000000000    0.4346945600000000 O
   0.8298294800000000    0.8298294800000000    0.4336050800000000 O
   0.4346945600000000    0.4346945600000000    0.8032804000000000 O
   0.8700295000000000    0.8700295000000000    0.8700295000000000 O
