Rb12 P4 O16
1.0
  11.6259952500000008    0.0000000000000000    0.0000000000000000
   0.0000000000000000    8.3966708600000004    0.0000000000000000
   0.0000000000000000    0.0000000000000000    6.1612829099999997
Rb P O
12 4 16
direct
   0.9292423700000000    0.2500000000000000    0.1363394100000000 Rb
   0.8557768400000000    0.4921654600000000    0.6906538200000000 Rb
   0.0707576300000000    0.7500000000000000    0.8636605900000000 Rb
   0.6442231600000000    0.5078345399999999    0.1906538200000000 Rb
   0.8557768400000000    0.0078345400000000    0.6906538200000000 Rb
   0.6442231600000000    0.9921654600000001    0.1906538200000000 Rb
   0.5707576300000000    0.7500000000000000    0.6363394100000000 Rb
   0.1442231600000000    0.9921654600000001    0.3093461800000000 Rb
   0.1442231600000000    0.5078345399999999    0.3093461800000000 Rb
   0.3557768400000000    0.0078345400000000    0.8093461800000000 Rb
   0.3557768400000000    0.4921654600000000    0.8093461800000000 Rb
   0.4292423700000000    0.2500000000000000    0.3636605900000000 Rb
   0.6146201800000000    0.2500000000000000    0.7798766200000000 P
   0.8853798200000000    0.7500000000000000    0.2798766200000000 P
   0.3853798200000000    0.7500000000000000    0.2201233800000000 P
   0.1146201800000000    0.2500000000000000    0.7201233800000000 P
   0.3910975300000000    0.5972038100000000    0.3636776700000000 O
   0.7710477200000000    0.7500000000000000    0.4134357700000000 O
   0.1089024700000000    0.4027961900000000    0.8636776700000000 O
   0.8910975300000000    0.9027961900000000    0.1363223300000000 O
   0.1089024700000000    0.0972038100000000    0.8636776700000000 O
   0.0114077700000000    0.2500000000000000    0.5567464800000000 O
   0.4885922300000000    0.7500000000000000    0.0567464800000000 O
   0.5114077700000000    0.2500000000000000    0.9432535200000000 O
   0.6089024700000000    0.0972038100000000    0.6363223300000000 O
   0.3910975300000000    0.9027961900000000    0.3636776700000000 O
   0.9885922300000000    0.7500000000000000    0.4432535200000000 O
   0.6089024700000000    0.4027961900000000    0.6363223300000000 O
   0.2710477200000000    0.7500000000000000    0.0865642300000000 O
   0.7289522800000000    0.2500000000000000    0.9134357700000000 O
   0.2289522800000000    0.2500000000000000    0.5865642300000000 O
   0.8910975300000000    0.5972038100000000    0.1363223300000000 O
