Cs2 Ti2 Cu6 Se8
1.0
   5.7452490500000000    0.0000000000000000    0.0119297100000000
   0.0000000000000000    7.6624466499999997    0.0000000000000000
  -2.8358934300000000    0.0000000000000000    9.7664957000000001
Cs Ti Cu Se
2 2 6 8
direct
   0.8039360900000000    0.7500000000000000    0.6214536700000000 Cs
   0.1960639100000000    0.2500000000000000    0.3785463300000000 Cs
   0.1460767300000000    0.2500000000000000    0.7922293200000000 Ti
   0.8539232700000000    0.7500000000000000    0.2077706800000000 Ti
   0.7203412500000000    0.4889154300000000    0.9966814200000000 Cu
   0.6524191300000000    0.2500000000000000    0.8030933600000000 Cu
   0.3475808700000000    0.7500000000000000    0.1969066400000000 Cu
   0.2796587500000000    0.5110845700000000    0.0033185800000000 Cu
   0.2796587500000000    0.9889154300000000    0.0033185800000000 Cu
   0.7203412500000000    0.0110845700000000    0.9966814200000000 Cu
   0.3896033100000000    0.5086252300000000    0.7886846199999999 Se
   0.6103966900000000    0.0086252300000000    0.2113153800000000 Se
   0.3896033100000000    0.9913747700000000    0.7886846199999999 Se
   0.6103966900000000    0.4913747700000000    0.2113153800000000 Se
   0.9770890600000000    0.7500000000000000    0.9934874500000000 Se
   0.0229109400000000    0.2500000000000000    0.0065125500000000 Se
   0.2006520900000000    0.7500000000000000    0.3972469800000000 Se
   0.7993479100000001    0.2500000000000000    0.6027530200000000 Se
