Li6 Bi2 O8
1.0
   5.2066677099999996    0.0000000000000000    0.0460467900000000
   0.0000000000000000    6.2884687300000000    0.0000000000000000
  -1.6741759800000000    0.0000000000000000    5.0297543899999999
Li Bi O
6 2 8
direct
   0.0000000000000000    0.6123664000000000    0.2500000000000000 Li
   0.0000000000000000    0.3876336000000000    0.7500000000000000 Li
   0.5000000000000000    0.8446908000000000    0.2500000000000000 Li
   0.5000000000000000    0.4289504700000000    0.2500000000000000 Li
   0.5000000000000000    0.5710495300000000    0.7500000000000000 Li
   0.5000000000000000    0.1553092000000000    0.7500000000000000 Li
   0.0000000000000000    0.1490876300000000    0.2500000000000000 Bi
   0.0000000000000000    0.8509123700000000    0.7500000000000000 Bi
   0.7479404800000000    0.3737493400000000    0.0146137100000000 O
   0.7625879700000000    0.1072878700000000    0.5132577800000000 O
   0.7479404800000000    0.6262506600000000    0.5146137100000000 O
   0.7625879700000000    0.8927121300000000    0.0132577800000000 O
   0.2520595200000000    0.3737493400000000    0.4853862900000000 O
   0.2374120300000000    0.8927121300000000    0.4867422200000000 O
   0.2520595200000000    0.6262506600000000    0.9853862900000000 O
   0.2374120300000000    0.1072878700000000    0.9867422200000000 O
