Na4 As8 O22
1.0
   4.5400039599999999   -4.1911168700000001    0.0081739600000000
   4.5400039599999999    4.1911168700000001    0.0081739600000000
  -2.6108380000000002    0.0000000000000000   11.3284161399999999
Na As O
4 8 22
direct
   0.2637601500000000    0.4585356000000000    0.0350280400000000 Na
   0.5414644000000000    0.7362398500000000    0.4649719600000000 Na
   0.7362398500000000    0.5414644000000000    0.9649719600000000 Na
   0.4585356000000000    0.2637601500000000    0.5350280400000000 Na
   0.9533259100000000    0.5355957400000000    0.6652219000000000 As
   0.4644042600000000    0.0466740900000000    0.8347781000000000 As
   0.0466740900000000    0.4644042600000000    0.3347781000000000 As
   0.5355957400000000    0.9533259100000000    0.1652219000000000 As
   0.9971835200000000    0.9152537400000000    0.8818957800000000 As
   0.0847462600000000    0.0028164800000000    0.6181042200000000 As
   0.0028164800000000    0.0847462600000000    0.1181042200000000 As
   0.9152537400000000    0.9971835200000000    0.3818957800000000 As
   0.6879633400000000    0.5304338100000000    0.6136938800000000 O
   0.4695661900000000    0.3120366600000000    0.8863061200000000 O
   0.3120366600000000    0.4695661900000000    0.3863061200000000 O
   0.5304338100000000    0.6879633400000000    0.1136938800000000 O
   0.1269197700000000    0.3048708500000000    0.6416165200000000 O
   0.6951291500000000    0.8730802300000000    0.8583834800000000 O
   0.8730802300000000    0.6951291500000000    0.3583834800000000 O
   0.3048708500000000    0.1269197700000000    0.1416165200000000 O
   0.1004096600000000    0.6999080000000000    0.6014156800000000 O
   0.3000920000000000    0.8995903400000000    0.8985843200000000 O
   0.8995903400000000    0.3000920000000000    0.3985843200000000 O
   0.6999080000000000    0.1004096600000000    0.1014156800000000 O
   0.0104208800000000    0.6164278600000000    0.8184410400000000 O
   0.3835721400000000    0.9895791200000000    0.6815589600000000 O
   0.9895791200000000    0.3835721400000000    0.1815589600000000 O
   0.6164278600000000    0.0104208800000000    0.3184410400000000 O
   0.0215429600000000    0.8137240900000000    0.0250472800000000 O
   0.1862759100000000    0.9784570400000000    0.4749527200000000 O
   0.9784570400000000    0.1862759100000000    0.9749527200000000 O
   0.8137240900000000    0.0215429600000000    0.5250472800000000 O
   0.9564908400000000    0.0435091600000000    0.7500000000000000 O
   0.0435091600000000    0.9564908400000000    0.2500000000000000 O
