Ba2 Y1 Nb1 O6
1.0
   0.0000000000000000    4.2355608599999996    4.2355608599999996
   4.2355608599999996    0.0000000000000000    4.2355608599999996
   4.2355608599999996    4.2355608599999996    0.0000000000000000
Ba Y Nb O
2 1 1 6
direct
   0.2500000000000000    0.2500000000000000    0.2500000000000000 Ba
   0.7500000000000000    0.7500000000000000    0.7500000000000000 Ba
   0.0000000000000000    0.0000000000000000    0.0000000000000000 Y
   0.5000000000000000    0.5000000000000000    0.5000000000000000 Nb
   0.7382778300000000    0.7382778300000000    0.2617221700000000 O
   0.7382778300000000    0.2617221700000000    0.7382778300000000 O
   0.2617221700000000    0.7382778300000000    0.2617221700000000 O
   0.7382778300000000    0.2617221700000000    0.2617221700000000 O
   0.2617221700000000    0.2617221700000000    0.7382778300000000 O
   0.2617221700000000    0.7382778300000000    0.7382778300000000 O
