Sn4 P4 S12
1.0
   6.4738447299999997    0.0000000000000000    0.0125276400000000
   0.0000000000000000    7.4221358899999998    0.0000000000000000
  -6.2945729400000001    0.0000000000000000    9.1439807999999996
Sn P S
4 4 12
direct
   0.8032420100000000    0.8810321400000000    0.7735056500000000 Sn
   0.2327082800000000    0.3725845900000000    0.7727892100000000 Sn
   0.8032420100000000    0.1189678600000000    0.2735056500000000 Sn
   0.2327082800000000    0.6274154100000000    0.2727892100000000 Sn
   0.8684163300000000    0.6373699600000000    0.4342331800000000 P
   0.8684163300000000    0.3626300400000000    0.9342331800000000 P
   0.1337231300000000    0.1443528400000000    0.0697551700000000 P
   0.1337231300000000    0.8556471600000000    0.5697551700000000 P
   0.9079997000000000    0.9455615900000000    0.0584796500000000 S
   0.3783499200000000    0.7497771700000000    0.7701962400000000 S
   0.7045403500000000    0.4453893100000000    0.0350970900000000 S
   0.6272568800000000    0.2477423500000000    0.7361438100000000 S
   0.9079997000000000    0.0544384100000000    0.5584796500000000 S
   0.0996046900000000    0.5563191000000000    0.9431622500000000 S
   0.2876597100000000    0.0629845100000000    0.9614387300000000 S
   0.3783499200000000    0.2502228300000000    0.2701962400000000 S
   0.2876597100000000    0.9370154900000000    0.4614387300000000 S
   0.7045403500000000    0.5546106900000000    0.5350970900000001 S
   0.0996046900000000    0.4436809000000000    0.4431622500000000 S
   0.6272568800000000    0.7522576500000000    0.2361438100000000 S
