Ba2 Se2 O6
1.0
   4.6768256399999997    0.0000000000000000    0.0439698100000000
   0.0000000000000000    5.6627143000000002    0.0000000000000000
  -2.0692449700000002    0.0000000000000000    6.5121624899999997
Ba Se O
2 2 6
direct
   0.3419419800000000    0.2500000000000000    0.7065273000000000 Ba
   0.6580580200000000    0.7500000000000000    0.2934727000000000 Ba
   0.9333584400000000    0.7500000000000000    0.8416407600000000 Se
   0.0666415600000000    0.2500000000000000    0.1583592400000000 Se
   0.1766093600000000    0.0150640300000000    0.3224556100000000 O
   0.8233906400000000    0.5150640300000000    0.6775443900000000 O
   0.8233906400000000    0.9849359700000000    0.6775443900000000 O
   0.1766093600000000    0.4849359700000000    0.3224556100000000 O
   0.6855346800000000    0.2500000000000000    0.1160896900000000 O
   0.3144653200000000    0.7500000000000000    0.8839103100000000 O
