Cs8 In8 S16
1.0
   5.6143908500000004   -5.6142196499999999   -0.0002354000000000
   5.6143908500000004    5.6142196499999999   -0.0002354000000000
  -2.8124870300000002    0.0000000000000000   16.0476919799999997
Cs In S
8 8 16
direct
   0.2770033800000000    0.6516546700000000    0.6078457200000000 Cs
   0.3483453300000000    0.7229966200000000    0.8921542800000000 Cs
   0.7229966200000000    0.3483453300000000    0.3921542800000000 Cs
   0.6516546700000000    0.2770033800000000    0.1078457200000000 Cs
   0.1525790200000000    0.2773621300000000    0.1090644300000000 Cs
   0.7226378700000000    0.8474209800000000    0.3909355700000000 Cs
   0.8474209800000000    0.7226378700000000    0.8909355700000000 Cs
   0.2773621300000000    0.1525790200000000    0.6090644300000000 Cs
   0.2090942600000000    0.5855051999999999    0.3357278200000000 In
   0.4144948000000000    0.7909057400000000    0.1642721800000000 In
   0.7909057400000000    0.4144948000000000    0.6642721800000000 In
   0.5855051999999999    0.2090942600000000    0.8357278200000000 In
   0.2090999300000000    0.0823835600000000    0.3357184700000000 In
   0.9176164400000000    0.7909000700000000    0.1642815300000000 In
   0.7909000700000000    0.9176164400000000    0.6642815300000000 In
   0.0823835600000000    0.2090999300000000    0.8357184700000000 In
   0.4480243000000000    0.5519757000000000    0.2500000000000000 S
   0.5519757000000000    0.4480243000000000    0.7500000000000000 S
   0.9271307600000001    0.5519808500000000    0.2500556800000000 S
   0.4480191500000000    0.0728692400000000    0.2499443200000000 S
   0.0728692400000000    0.4480191500000000    0.7499443200000000 S
   0.5519808500000000    0.9271307600000001    0.7500556800000000 S
   0.9270977600000000    0.0729022400000000    0.2500000000000000 S
   0.0729022400000000    0.9270977600000000    0.7500000000000000 S
   0.2327945000000000    0.3573734400000000    0.4293075800000000 S
   0.6426265600000000    0.7672055000000000    0.0706924200000000 S
   0.7672055000000000    0.6426265600000000    0.5706924200000000 S
   0.3573734400000000    0.2327945000000000    0.9293075800000000 S
   0.2331683500000000    0.8577588500000000    0.4307294400000000 S
   0.1422411500000000    0.7668316500000000    0.0692705600000000 S
   0.7668316500000000    0.1422411500000000    0.5692705600000000 S
   0.8577588500000000    0.2331683500000000    0.9307294400000000 S
