In4 Sb4 Se12
1.0
   9.8276927900000004    0.0000000000000000    0.0000000000000000
   0.0000000000000000    3.9826802099999998    0.0000000000000000
   0.0000000000000000    0.0000000000000000   13.5543695900000003
In Sb Se
4 4 12
direct
   0.1532878400000000    0.2500000000000000    0.0435202800000000 In
   0.8467121600000000    0.7500000000000000    0.9564797200000000 In
   0.3467121600000000    0.7500000000000000    0.5435202800000000 In
   0.6532878400000000    0.2500000000000000    0.4564797200000000 In
   0.0264024800000000    0.2500000000000000    0.6453385100000000 Sb
   0.9735975200000000    0.7500000000000000    0.3546614900000000 Sb
   0.4735975200000000    0.7500000000000000    0.1453385100000000 Sb
   0.5264024800000000    0.2500000000000000    0.8546614900000000 Sb
   0.4987549900000000    0.2500000000000000    0.6216057800000000 Se
   0.5012450100000000    0.7500000000000000    0.3783942200000000 Se
   0.0012450100000000    0.7500000000000000    0.1216057800000000 Se
   0.9987549900000000    0.2500000000000000    0.8783942200000000 Se
   0.3081139000000000    0.2500000000000000    0.2109326600000000 Se
   0.6918860999999999    0.7500000000000000    0.7890673400000000 Se
   0.1918861000000000    0.7500000000000000    0.7109326600000000 Se
   0.8081139000000001    0.2500000000000000    0.2890673400000000 Se
   0.1588536200000000    0.2500000000000000    0.4722760700000000 Se
   0.8411463800000000    0.7500000000000000    0.5277239300000000 Se
   0.3411463800000000    0.7500000000000000    0.9722760700000000 Se
   0.6588536200000000    0.2500000000000000    0.0277239300000000 Se
