Li8 Te2 O10
1.0
   5.1173494300000000    0.0115067300000000    0.0075839200000000
  -1.0572167100000001    5.0669356800000003   -0.0139964600000000
  -1.6229905800000000   -2.7373462100000001    7.0912669700000004
Li Te O
8 2 10
direct
   0.4241655900000000    0.8032958500000000    0.3181637900000000 Li
   0.5758344100000000    0.1967041500000000    0.6818362100000001 Li
   0.0000000000000000    0.0000000000000000    0.5000000000000000 Li
   0.5000000000000000    0.0000000000000000    0.0000000000000000 Li
   0.2278177700000000    0.3933562900000000    0.8875074800000000 Li
   0.7721822300000000    0.6066437099999999    0.1124925200000000 Li
   0.2959285000000000    0.6133965400000000    0.6037953100000000 Li
   0.7040715000000000    0.3866034600000000    0.3962046900000000 Li
   0.8911817600000000    0.7891867600000000    0.7880282100000000 Te
   0.1088182400000000    0.2108132400000000    0.2119717900000000 Te
   0.5748137700000000    0.6091494600000000    0.8472869500000000 O
   0.4251862300000000    0.3908505400000000    0.1527130500000000 O
   0.0504274200000000    0.5636983800000001    0.3309807800000000 O
   0.9495725800000000    0.4363016200000000    0.6690192200000000 O
   0.1331094100000000    0.8299466900000000    0.0444001200000000 O
   0.8668905900000000    0.1700533100000000    0.9555998800000000 O
   0.2200146800000000    0.9905806600000000    0.7504955600000000 O
   0.7799853200000000    0.0094193400000000    0.2495044400000000 O
   0.3373843800000000    0.1829169600000000    0.4284249000000000 O
   0.6626156200000000    0.8170830400000000    0.5715751000000000 O
