Cd8 Si2 Se12
1.0
   6.3998308699999997   -3.6734140800000001    0.0087478900000000
   6.3998308699999997    3.6734140800000001    0.0087478900000000
  -4.4120795399999997    0.0000000000000000   11.9751627099999993
Cd Si Se
8 2 12
direct
   0.6722581100000000    0.2775459100000000    0.6893908800000000 Cd
   0.2775459100000000    0.6722581100000000    0.1893908800000000 Cd
   0.9179001300000000    0.7734958100000000    0.8474686400000000 Cd
   0.7734958100000000    0.9179001300000000    0.3474686400000000 Cd
   0.7654865800000000    0.5523457300000000    0.0410407500000000 Cd
   0.5523457300000000    0.7654865800000000    0.5410407500000000 Cd
   0.2903925500000000    0.0806764400000000    0.8568561500000000 Cd
   0.0806764400000000    0.2903925500000000    0.3568561500000000 Cd
   0.1426533800000000    0.6778740300000000    0.6038789500000000 Si
   0.6778740300000000    0.1426533800000000    0.1038789500000000 Si
   0.0243048600000000    0.5570210799999999    0.2339532400000000 Se
   0.5570210799999999    0.0243048600000000    0.7339532400000000 Se
   0.9727434700000001    0.0023073700000000    0.5546882800000000 Se
   0.0023073700000000    0.9727434700000001    0.0546882800000000 Se
   0.4766126000000000    0.9695311400000000    0.0587757400000000 Se
   0.9695311400000000    0.4766126000000000    0.5587757400000000 Se
   0.2701761300000000    0.7047777500000000    0.7907939600000000 Se
   0.7047777500000000    0.2701761300000000    0.2907939600000000 Se
   0.9146926399999999    0.4175892600000000    0.8540275100000000 Se
   0.4175892600000000    0.9146926399999999    0.3540275100000000 Se
   0.4289401500000000    0.4702738900000000    0.5149248900000000 Se
   0.4702738900000000    0.4289401500000000    0.0149248900000000 Se
