Ba2 Ga8 O14
1.0
   6.8444291799999997   -4.7022477599999997    0.0002821800000000
   6.8444291799999997    4.7022477599999997    0.0002821800000000
  -1.4661197200000000    0.0000000000000000    5.6023349700000002
Ba Ga O
2 8 14
direct
   0.6894069100000000    0.3105930900000000    0.7500000000000000 Ba
   0.3105930900000000    0.6894069100000000    0.2500000000000000 Ba
   0.1842971200000000    0.0568182200000000    0.7769405500000000 Ga
   0.0568182200000000    0.1842971200000000    0.2769405500000000 Ga
   0.2389757400000000    0.4136368400000000    0.7048630500000000 Ga
   0.4136368400000000    0.2389757400000000    0.2048630500000000 Ga
   0.5863631600000000    0.7610242600000000    0.7951369500000000 Ga
   0.7610242600000000    0.5863631600000000    0.2951369500000000 Ga
   0.9431817800000000    0.8157028800000000    0.7230594500000000 Ga
   0.8157028800000000    0.9431817800000000    0.2230594500000000 Ga
   0.1249942800000000    0.2466381400000000    0.6068493500000000 O
   0.2466381400000000    0.1249942800000000    0.1068493500000000 O
   0.4155706800000000    0.3416555900000000    0.9540902400000000 O
   0.1152336500000000    0.6317386000000000    0.8335886600000000 O
   0.3416555900000000    0.4155706800000000    0.4540902400000000 O
   0.6317386000000000    0.1152336500000000    0.3335886600000000 O
   0.9749819900000000    0.0250180100000000    0.7500000000000000 O
   0.0250180100000000    0.9749819900000000    0.2500000000000000 O
   0.3682614000000000    0.8847663500000000    0.6664113400000000 O
   0.6583444100000000    0.5844293200000000    0.5459097600000000 O
   0.8847663500000000    0.3682614000000000    0.1664113400000000 O
   0.5844293200000000    0.6583444100000000    0.0459097600000000 O
   0.7533618600000000    0.8750057200000000    0.8931506500000000 O
   0.8750057200000000    0.7533618600000000    0.3931506500000000 O
