Ba3 Ga2 Ge4 O14
1.0
   8.6097999200000004    0.0000000000000000    0.0000000000000000
  -4.3048999600000002    7.4563060300000004    0.0000000000000000
   0.0000000000000000    0.0000000000000000    5.0674314499999999
Ba Ga Ge O
3 2 4 14
direct
   0.5703355900000000    0.0000000000000000    0.0000000000000000 Ba
   0.4296644100000000    0.4296644100000000    0.0000000000000000 Ba
   1.0000000000000000    0.5703355900000000    0.0000000000000000 Ba
   0.6666670000000000    0.3333330000000000    0.5000321400000000 Ga
   0.3333330000000000    0.6666670000000000    0.4999678600000000 Ga
   1.0000000000000000    0.2426917600000000    0.5000000000000000 Ge
   0.2426917600000000    0.0000000000000000    0.5000000000000000 Ge
   0.7573082400000000    0.7573082400000000    0.5000000000000000 Ge
   0.0000000000000000    0.0000000000000000    0.0000000000000000 Ge
   0.2830507700000000    0.8349712400000000    0.6544459800000000 O
   0.8349712400000000    0.2830507700000000    0.3455540200000000 O
   0.3333330000000000    0.6666670000000000    0.1511731400000000 O
   0.0928963800000000    0.8869901700000000    0.2298020700000000 O
   0.7940937900000000    0.9071036200000000    0.2298020700000000 O
   0.2059062100000000    0.1130098300000000    0.7701979300000000 O
   0.5519204700000000    0.7169492300000000    0.6544459800000000 O
   0.1650287600000000    0.4480795300000000    0.6544459800000000 O
   0.6666670000000000    0.3333330000000000    0.8488268600000000 O
   0.7169492300000000    0.5519204700000000    0.3455540200000000 O
   0.8869901700000000    0.0928963800000000    0.7701979300000000 O
   0.4480795300000000    0.1650287600000000    0.3455540200000000 O
   0.9071036200000000    0.7940937900000000    0.7701979300000000 O
   0.1130098300000000    0.2059062100000000    0.2298020700000000 O
