Ba8 Ga4 S14
1.0
   8.9590143500000003    0.0000000000000000    0.0061816600000000
   0.0000000000000000    7.0452447100000004    0.0000000000000000
  -3.8142193199999999    0.0000000000000000   11.1692086400000008
Ba Ga S
8 4 14
direct
   0.9900844300000000    0.7500000000000000    0.6119094800000000 Ba
   0.0099155700000000    0.2500000000000000    0.3880905200000000 Ba
   0.9243871100000000    0.7500000000000000    0.0673318800000000 Ba
   0.0756128900000000    0.2500000000000000    0.9326681200000000 Ba
   0.4663530900000000    0.7500000000000000    0.8184549500000000 Ba
   0.5336469100000000    0.2500000000000000    0.1815450500000000 Ba
   0.3732290100000000    0.7500000000000000    0.3906517900000000 Ba
   0.6267709900000000    0.2500000000000000    0.6093482099999999 Ba
   0.7347584400000000    0.7500000000000000    0.3110525800000000 Ga
   0.2652415600000000    0.2500000000000000    0.6889474200000000 Ga
   0.3128700000000000    0.7500000000000000    0.0812526500000000 Ga
   0.6871300000000000    0.2500000000000000    0.9187473500000000 Ga
   0.9956727399999999    0.7500000000000000    0.3435069100000000 S
   0.0043272600000000    0.2500000000000000    0.6564930900000000 S
   0.1587948200000000    0.7500000000000000    0.8881231600000000 S
   0.8412051800000000    0.2500000000000000    0.1118768400000000 S
   0.5840689000000000    0.7500000000000000    0.1097372400000000 S
   0.4159311000000000    0.2500000000000000    0.8902627600000000 S
   0.3119393300000000    0.5030152200000000    0.5884609300000000 S
   0.6880606700000000    0.0030152200000000    0.4115390700000000 S
   0.6880606700000000    0.4969847800000000    0.4115390700000000 S
   0.3119393300000000    0.9969847800000000    0.5884609300000000 S
   0.7585491800000000    0.5064597199999999    0.8326956200000000 S
   0.2414508200000000    0.0064597200000000    0.1673043800000000 S
   0.7585491800000000    0.9935402800000001    0.8326956200000000 S
   0.2414508200000000    0.4935402800000000    0.1673043800000000 S
