Sn4 Pb8 O16
1.0
   8.7214032400000008    0.0000000000000000    0.0000000000000000
   0.0000000000000000    8.7214032400000008    0.0000000000000000
   0.0000000000000000    0.0000000000000000    6.4025262600000001
Sn Pb O
4 8 16
direct
   0.0000000000000000    0.5000000000000000    0.7500000000000000 Sn
   0.5000000000000000    0.0000000000000000    0.2500000000000000 Sn
   0.0000000000000000    0.5000000000000000    0.2500000000000000 Sn
   0.5000000000000000    0.0000000000000000    0.7500000000000000 Sn
   0.3595922700000000    0.6596811000000000    0.0000000000000000 Pb
   0.6404077300000000    0.3403189000000000    0.0000000000000000 Pb
   0.1404077300000000    0.1596811000000000    0.0000000000000000 Pb
   0.8595922700000000    0.8403189000000000    0.0000000000000000 Pb
   0.8403189000000000    0.1404077300000000    0.5000000000000000 Pb
   0.1596811000000000    0.8595922700000000    0.5000000000000000 Pb
   0.6596811000000000    0.6404077300000000    0.5000000000000000 Pb
   0.3403189000000000    0.3595922700000000    0.5000000000000000 Pb
   0.3725774500000000    0.0948655100000000    0.5000000000000000 O
   0.6274225500000000    0.9051344900000000    0.5000000000000000 O
   0.1274225500000000    0.5948655100000000    0.5000000000000000 O
   0.8725774500000000    0.4051344900000000    0.5000000000000000 O
   0.4051344900000000    0.1274225500000000    0.0000000000000000 O
   0.5948655100000000    0.8725774500000000    0.0000000000000000 O
   0.0948655100000000    0.6274225500000000    0.0000000000000000 O
   0.9051344900000000    0.3725774500000000    0.0000000000000000 O
   0.1664942700000000    0.3335057300000000    0.7500000000000000 O
   0.8335057299999999    0.6664942700000001    0.7500000000000000 O
   0.3335057300000000    0.8335057299999999    0.2500000000000000 O
   0.6664942700000001    0.1664942700000000    0.2500000000000000 O
   0.3335057300000000    0.8335057299999999    0.7500000000000000 O
   0.6664942700000001    0.1664942700000000    0.7500000000000000 O
   0.1664942700000000    0.3335057300000000    0.2500000000000000 O
   0.8335057299999999    0.6664942700000001    0.2500000000000000 O
