La6 Sb10 O24
1.0
  -5.5432711299999999    5.5432711299999999    5.5432711299999999
   5.5432711299999999   -5.5432711299999999    5.5432711299999999
   5.5432711299999999    5.5432711299999999   -5.5432711299999999
La Sb O
6 10 24
direct
   0.2500000000000000    0.7500000000000000    0.5000000000000000 La
   0.7500000000000000    0.2500000000000000    0.5000000000000000 La
   0.7500000000000000    0.5000000000000000    0.2500000000000000 La
   0.2500000000000000    0.5000000000000000    0.7500000000000000 La
   0.5000000000000000    0.2500000000000000    0.7500000000000000 La
   0.5000000000000000    0.7500000000000000    0.2500000000000000 La
   0.5049890700000000    0.5049890700000000    0.5049890700000000 Sb
   0.4950109300000000    0.0000000000000000    0.0000000000000000 Sb
   0.0000000000000000    0.4950109300000000    0.0000000000000000 Sb
   0.0000000000000000    0.0000000000000000    0.4950109300000000 Sb
   0.7229527000000000    0.7229527000000000    0.0000000000000000 Sb
   0.2770473000000000    0.2770473000000000    0.0000000000000000 Sb
   0.7229527000000000    0.0000000000000000    0.7229527000000000 Sb
   0.2770473000000000    0.0000000000000000    0.2770473000000000 Sb
   0.0000000000000000    0.7229527000000000    0.7229527000000000 Sb
   0.0000000000000000    0.2770473000000000    0.2770473000000000 Sb
   0.8013617500000000    0.5136005200000000    0.5136005200000000 O
   0.1986382500000000    0.7122377700000000    0.7122377700000000 O
   0.0000000000000000    0.4863994800000000    0.2877622300000000 O
   0.5136005200000000    0.5136005200000000    0.8013617500000000 O
   0.0000000000000000    0.2877622300000000    0.4863994800000000 O
   0.7122377700000000    0.7122377700000000    0.1986382500000000 O
   0.4863994800000000    0.2877622300000000    0.0000000000000000 O
   0.2877622300000000    0.4863994800000000    0.0000000000000000 O
   0.5136005200000000    0.8013617500000000    0.5136005200000000 O
   0.2877622300000000    0.0000000000000000    0.4863994800000000 O
   0.4863994800000000    0.0000000000000000    0.2877622300000000 O
   0.7122377700000000    0.1986382500000000    0.7122377700000000 O
   0.2726163700000000    0.4687462900000000    0.4687462900000000 O
   0.7273836299999999    0.1961289200000000    0.1961289200000000 O
   0.0000000000000000    0.5312537100000000    0.8038710800000000 O
   0.4687462900000000    0.4687462900000000    0.2726163700000000 O
   0.0000000000000000    0.8038710800000000    0.5312537100000000 O
   0.1961289200000000    0.1961289200000000    0.7273836299999999 O
   0.5312537100000000    0.8038710800000000    0.0000000000000000 O
   0.8038710800000000    0.5312537100000000    0.0000000000000000 O
   0.4687462900000000    0.2726163700000000    0.4687462900000000 O
   0.8038710800000000    0.0000000000000000    0.5312537100000000 O
   0.5312537100000000    0.0000000000000000    0.8038710800000000 O
   0.1961289200000000    0.7273836299999999    0.1961289200000000 O
