La8 S12
1.0
   7.4847302000000004    0.0000000000000000    0.0000000000000000
   0.0000000000000000    4.1149850900000002    0.0000000000000000
   0.0000000000000000    0.0000000000000000   15.6404100199999991
La S
8 12
direct
   0.6448355700000000    0.2500000000000000    0.2952039900000000 La
   0.3551644300000000    0.7500000000000000    0.7047960100000000 La
   0.1448355700000000    0.2500000000000000    0.2047960100000000 La
   0.8551644300000000    0.7500000000000000    0.7952039900000000 La
   0.2640244500000000    0.2500000000000000    0.9559252300000000 La
   0.7359755500000000    0.7500000000000000    0.0440747700000000 La
   0.7640244500000000    0.2500000000000000    0.5440747700000000 La
   0.2359755500000000    0.7500000000000000    0.4559252300000000 La
   0.8707235200000000    0.2500000000000000    0.9328106600000000 S
   0.1292764800000000    0.7500000000000000    0.0671893400000000 S
   0.3707235200000000    0.2500000000000000    0.5671893400000000 S
   0.6292764800000000    0.7500000000000000    0.4328106600000000 S
   0.6442762600000000    0.2500000000000000    0.7199457000000000 S
   0.3557237400000000    0.7500000000000000    0.2800543000000000 S
   0.1442762600000000    0.2500000000000000    0.7800543000000000 S
   0.8557237400000000    0.7500000000000000    0.2199457000000000 S
   0.9913474300000000    0.7500000000000000    0.6103303800000000 S
   0.0086525700000000    0.2500000000000000    0.3896696200000000 S
   0.4913474300000000    0.7500000000000000    0.8896696200000000 S
   0.5086525700000000    0.2500000000000000    0.1103303800000000 S
