Li4 Zn4 P4 O16
1.0
   9.9850152699999999    0.0000000000000000    0.0000000000000000
   0.0000000000000000    4.9428229300000002    0.0000000000000000
   0.0000000000000000    0.0000000000000000    6.6217269099999996
Li Zn P O
4 4 4 16
direct
   0.6549962400000000    0.1861910500000000    0.7130737300000000 Li
   0.8450037600000000    0.6861910500000000    0.2130737300000000 Li
   0.3450037600000000    0.8138089500000000    0.2130737300000000 Li
   0.1549962400000000    0.3138089500000000    0.7130737300000000 Li
   0.3444496700000000    0.8138088600000000    0.7131355300000000 Zn
   0.6555503300000000    0.1861911400000000    0.2131355300000000 Zn
   0.8444496700000000    0.6861911400000000    0.7131355300000000 Zn
   0.1555503300000000    0.3138088600000000    0.2131355300000000 Zn
   0.0939181900000000    0.8150318500000000    0.4630922800000000 P
   0.4060818100000000    0.3150318500000000    0.9630922800000000 P
   0.9060818100000000    0.1849681500000000    0.9630922800000000 P
   0.5939181900000000    0.6849681500000000    0.4630922800000000 P
   0.3418743200000000    0.1938430500000000    0.7699398300000000 O
   0.8367716800000000    0.2981700700000000    0.1547886500000000 O
   0.1581256800000000    0.6938430500000000    0.2699398300000000 O
   0.6632283200000000    0.7981700700000000    0.6547886500000000 O
   0.4434641400000000    0.7585163400000000    0.4695576700000000 O
   0.1149264500000000    0.1259013900000000    0.4574123100000000 O
   0.3367716800000000    0.2018299300000000    0.1547886500000000 O
   0.6581256800000000    0.8061569500000000    0.2699398300000000 O
   0.6149264500000000    0.3740986100000000    0.4574123100000000 O
   0.8850735500000000    0.8740986100000000    0.9574123100000000 O
   0.0565358600000000    0.2585163400000000    0.9695576700000000 O
   0.1632283200000000    0.7018299300000000    0.6547886500000000 O
   0.9434641400000000    0.7414836600000000    0.4695576700000000 O
   0.3850735500000000    0.6259013900000000    0.9574123100000000 O
   0.5565358600000000    0.2414836600000000    0.9695576700000000 O
   0.8418743200000000    0.3061569500000000    0.7699398300000000 O
