Na4 Ti2 Si8 O22
1.0
  -5.3867234599999998    5.3867270300000003    3.9212598399999998
   5.3867234599999998   -5.3867270300000003    3.9212598399999998
   5.3867270300000003    5.3867234599999998   -3.9212598399999998
Na Ti Si O
4 2 8 22
direct
   0.3757554300000000    0.3151887900000000    0.6909432200000000 Na
   0.3151887900000000    0.6242445700000000    0.9394333600000000 Na
   0.6242445700000000    0.6848112100000000    0.3090567800000000 Na
   0.6848112100000000    0.3757554300000000    0.0605666400000000 Na
   0.7551651300000000    0.7551651300000000    0.0000000000000000 Ti
   0.2448348700000000    0.2448348700000000    0.0000000000000000 Ti
   0.4993065000000000    0.7924660200000000    0.6771054399999999 Si
   0.5006935000000000    0.2075339800000000    0.3228945600000000 Si
   0.2075339800000000    0.8846394300000000    0.7068404800000000 Si
   0.8846394300000000    0.1777989400000000    0.6771054399999999 Si
   0.1777989400000000    0.5006935000000000    0.2931595200000000 Si
   0.8222010600000000    0.4993065000000000    0.7068404800000000 Si
   0.1153605700000000    0.8222010600000000    0.3228945600000000 Si
   0.7924660200000000    0.1153605700000000    0.2931595200000000 Si
   0.5507946700000000    0.6722692400000000    0.7662518100000000 O
   0.4085002700000000    0.6787656399999999    0.4622447600000000 O
   0.4492053300000000    0.3277307600000000    0.2337481900000000 O
   0.0537444900000000    0.5914997300000000    0.2702653700000000 O
   0.2154581400000000    0.4492053300000000    0.1214745700000000 O
   0.3009989500000000    0.9591983300000000    0.2601972800000000 O
   0.7845418600000000    0.5507946700000000    0.8785254300000001 O
   0.3277307600000000    0.0939835700000000    0.8785254300000001 O
   0.6787656399999999    0.2165208800000000    0.2702653700000000 O
   0.3212343600000000    0.7834791200000000    0.7297346300000001 O
   0.6990010500000000    0.0408016700000000    0.7398027200000000 O
   0.0408016700000000    0.3009989500000000    0.3418006200000000 O
   0.5000000000000000    0.5000000000000000    0.0000000000000000 O
   0.7834791200000000    0.0537444900000000    0.4622447600000000 O
   0.2165208800000000    0.9462555100000000    0.5377552400000000 O
   0.9060164300000000    0.7845418600000000    0.2337481900000000 O
   0.0939835700000000    0.2154581400000000    0.7662518100000000 O
   0.9591983300000000    0.6990010500000000    0.6581993800000000 O
   0.6722692400000000    0.9060164300000000    0.1214745700000000 O
   0.5914997300000000    0.3212343600000000    0.5377552400000000 O
   0.0000000000000000    0.0000000000000000    0.0000000000000000 O
   0.9462555100000000    0.4085002700000000    0.7297346300000001 O
