Na2 Al2 Si4 O12
1.0
   4.7306137300000000   -4.2833022300000003   -0.0028551200000000
   4.7306137300000000    4.2833022300000003   -0.0028551200000000
  -1.6029631900000001    0.0000000000000000    4.9885770000000003
Na Al Si O
2 2 4 12
direct
   0.2996960100000000    0.7003039900000000    0.2500000000000000 Na
   0.7003039900000000    0.2996960100000000    0.7500000000000000 Na
   0.9071743300000000    0.0928256700000000    0.2500000000000000 Al
   0.0928256700000000    0.9071743300000000    0.7500000000000000 Al
   0.3846631900000000    0.1962541100000000    0.2285489300000000 Si
   0.8037458900000000    0.6153368100000000    0.2714510700000000 Si
   0.6153368100000000    0.8037458900000000    0.7714510700000000 Si
   0.1962541100000000    0.3846631900000000    0.7285489300000000 Si
   0.3490057900000000    0.3605637800000000    0.5096149700000000 O
   0.6394362200000000    0.6509942100000000    0.9903850300000000 O
   0.6509942100000000    0.6394362200000000    0.4903850300000000 O
   0.3605637800000000    0.3490057900000000    0.0096149700000000 O
   0.0958862600000000    0.6265392600000000    0.7943848900000000 O
   0.3734607400000000    0.9041137400000000    0.7056151100000000 O
   0.9041137400000000    0.3734607400000000    0.2056151100000000 O
   0.6265392600000000    0.0958862600000000    0.2943848900000000 O
   0.1853874900000000    0.0309811300000000    0.1291416600000000 O
   0.9690188700000000    0.8146125100000000    0.3708583400000000 O
   0.8146125100000000    0.9690188700000000    0.8708583400000000 O
   0.0309811300000000    0.1853874900000000    0.6291416600000000 O
