Rb2 Al2 As4 O14
1.0
   6.2784755299999997    0.0002395700000000   -0.0087976400000000
  -1.3841752800000000    6.2204661799999998    0.0111239500000000
  -2.0224052200000000   -1.4569431100000001    7.9065129499999998
Rb Al As O
2 2 4 14
direct
   0.0000000000000000    0.0000000000000000    0.0000000000000000 Rb
   0.0000000000000000    0.0000000000000000    0.5000000000000000 Rb
   0.6235935300000000    0.3137047600000000    0.7713567800000000 Al
   0.3764064700000000    0.6862952400000000    0.2286432200000000 Al
   0.1758778800000000    0.4718678400000000    0.8137348500000000 As
   0.8241221200000000    0.5281321600000000    0.1862651500000000 As
   0.5083789800000000    0.7558698500000000    0.6632393300000000 As
   0.4916210200000000    0.2441301500000000    0.3367606700000000 As
   0.3360793700000000    0.2894336500000000    0.8151102400000000 O
   0.4645414400000000    0.2552911400000000    0.5346062300000000 O
   0.5799949300000000    0.0115293700000000    0.7732328700000000 O
   0.3253204500000000    0.3797917800000000    0.2190446800000000 O
   0.0939187100000000    0.6807985800000000    0.2743764700000000 O
   0.9060812900000000    0.3192014200000000    0.7256235300000000 O
   0.4200050700000000    0.9884706300000000    0.2267671300000000 O
   0.6639206300000000    0.7105663500000000    0.1848897600000000 O
   0.5354585600000000    0.7447088600000000    0.4653937700000000 O
   0.7799479499999999    0.3618279200000000    0.3427911300000000 O
   0.6746795500000000    0.6202082200000000    0.7809553200000000 O
   0.2200520500000000    0.6381720800000000    0.6572088699999999 O
   0.2223069900000000    0.6488947500000000    0.9929874600000000 O
   0.7776930100000000    0.3511052500000000    0.0070125400000000 O
