Cs4 P4 Pb4 Se16
1.0
  18.1921075499999993    0.0000000000000000    0.0000000000000000
   0.0000000000000000    6.9988611699999996    0.0000000000000000
   0.0000000000000000    0.0000000000000000    6.7514651399999996
Cs P Pb Se
4 4 4 16
direct
   0.2861740700000000    0.7500000000000000    0.9862501299999999 Cs
   0.7861740699999999    0.7500000000000000    0.5137498700000001 Cs
   0.7138259300000001    0.2500000000000000    0.0137498700000000 Cs
   0.2138259300000000    0.2500000000000000    0.4862501300000000 Cs
   0.5900517300000000    0.7500000000000000    0.2257772700000000 P
   0.0900517300000000    0.7500000000000000    0.2742227300000000 P
   0.4099482700000000    0.2500000000000000    0.7742227300000000 P
   0.9099482700000000    0.2500000000000000    0.7257772700000000 P
   0.5213894100000001    0.7500000000000000    0.7181450400000000 Pb
   0.0213894100000000    0.7500000000000000    0.7818549600000000 Pb
   0.4786105900000000    0.2500000000000000    0.2818549600000000 Pb
   0.9786105899999999    0.2500000000000000    0.2181450400000000 Pb
   0.6621282700000000    0.7500000000000000    0.9633531400000001 Se
   0.1621282700000000    0.7500000000000000    0.5366468599999999 Se
   0.3378717300000000    0.2500000000000000    0.0366468600000000 Se
   0.8378717300000000    0.2500000000000000    0.4633531400000000 Se
   0.3885317100000000    0.9972308100000000    0.5848508100000001 Se
   0.8885317100000000    0.5027691900000000    0.9151491899999999 Se
   0.6114682900000000    0.4972308100000000    0.4151491900000000 Se
   0.1114682900000000    0.0027691900000000    0.0848508100000000 Se
   0.6114682900000000    0.0027691900000000    0.4151491900000000 Se
   0.1114682900000000    0.4972308100000000    0.0848508100000000 Se
   0.3885317100000000    0.5027691900000000    0.5848508100000001 Se
   0.8885317100000000    0.9972308100000000    0.9151491899999999 Se
   0.4720501500000000    0.7500000000000000    0.1455863900000000 Se
   0.9720501499999999    0.7500000000000000    0.3544136100000000 Se
   0.5279498500000001    0.2500000000000000    0.8544136100000000 Se
   0.0279498500000000    0.2500000000000000    0.6455863900000000 Se
