Hf4 Pb4 S12
1.0
   8.9310521000000005    0.0000000000000000    0.0000000000000000
   0.0000000000000000    3.7651064500000002    0.0000000000000000
   0.0000000000000000    0.0000000000000000   13.8583828800000006
Hf Pb S
4 4 12
direct
   0.1670330600000000    0.2500000000000000    0.4490213500000000 Hf
   0.8329669400000000    0.7500000000000000    0.5509786500000000 Hf
   0.6670330600000000    0.2500000000000000    0.0509786500000000 Hf
   0.3329669400000000    0.7500000000000000    0.9490213500000000 Hf
   0.9917851900000000    0.7500000000000000    0.1732601700000000 Pb
   0.0082148100000000    0.2500000000000000    0.8267398300000000 Pb
   0.4917851900000000    0.7500000000000000    0.3267398300000000 Pb
   0.5082148100000000    0.2500000000000000    0.6732601700000000 Pb
   0.3358490200000000    0.7500000000000000    0.5101219500000000 S
   0.6641509799999999    0.2500000000000000    0.4898780500000000 S
   0.8358490200000001    0.7500000000000000    0.9898780500000000 S
   0.1641509800000000    0.2500000000000000    0.0101219500000000 S
   0.0126087500000000    0.2500000000000000    0.6067506600000000 S
   0.9873912500000001    0.7500000000000000    0.3932493400000000 S
   0.5126087499999999    0.2500000000000000    0.8932493400000000 S
   0.4873912500000000    0.7500000000000000    0.1067506600000000 S
   0.2776195800000000    0.2500000000000000    0.2830256600000000 S
   0.7223804200000000    0.7500000000000000    0.7169743400000000 S
   0.7776195800000000    0.2500000000000000    0.2169743400000000 S
   0.2223804200000000    0.7500000000000000    0.7830256600000000 S
