Rb8 Se20
1.0
   6.6360349599999999    0.0000000000000000    0.0000000000000000
   0.0000000000000000    7.1607298799999999    0.0000000000000000
   0.0000000000000000    0.0000000000000000   17.9126357200000008
Rb Se
8 20
direct
   0.5884234000000000    0.2416982100000000    0.1607065600000000 Rb
   0.6124830700000000    0.4145730700000000    0.5078007800000000 Rb
   0.9115766000000000    0.7583017900000000    0.6607065600000001 Rb
   0.8875169300000000    0.5854269300000000    0.0078007800000000 Rb
   0.1124830700000000    0.0854269300000000    0.4921992200000000 Rb
   0.3875169300000000    0.9145730700000000    0.9921992200000000 Rb
   0.4115766000000000    0.7416982100000000    0.3392934400000000 Rb
   0.0884234000000000    0.2583017900000000    0.8392934399999999 Rb
   0.8961209600000000    0.0757058900000000    0.0143285200000000 Se
   0.4264224700000000    0.8722910000000000    0.6259555600000000 Se
   0.0238490400000000    0.8574235700000000    0.2026438400000000 Se
   0.9761509600000000    0.3574235700000000    0.2973561600000000 Se
   0.2467026100000000    0.3703780000000000    0.6511577300000000 Se
   0.0735775300000000    0.1277090000000000    0.1259555600000000 Se
   0.5922315200000000    0.7408889100000000    0.1648113300000000 Se
   0.5238490400000000    0.6425764300000000    0.7973561600000000 Se
   0.5735775300000000    0.3722910000000000    0.8740444400000000 Se
   0.1038790400000000    0.5757058900000001    0.4856714800000000 Se
   0.6038790400000000    0.9242941099999999    0.5143285200000000 Se
   0.0922315200000000    0.7591110900000000    0.8351886700000000 Se
   0.7467026100000000    0.1296220000000000    0.3488422700000000 Se
   0.9264224700000000    0.6277090000000000    0.3740444400000000 Se
   0.9077684800000000    0.2591110900000000    0.6648113300000000 Se
   0.4761509600000000    0.1425764300000000    0.7026438400000000 Se
   0.7532973900000000    0.8703780000000000    0.8488422700000000 Se
   0.4077684800000000    0.2408889100000000    0.3351886700000000 Se
   0.2532973900000000    0.6296220000000000    0.1511577300000000 Se
   0.3961209600000000    0.4242941100000000    0.9856714800000000 Se
