Cd2 In4 O8
1.0
   0.0000000000000000    4.6281317399999997    4.6281317399999997
   4.6281317399999997    0.0000000000000000    4.6281317399999997
   4.6281317399999997    4.6281317399999997    0.0000000000000000
Cd In O
2 4 8
direct
   0.5000000000000000    0.5000000000000000    0.5000000000000000 Cd
   0.7500000000000000    0.7500000000000000    0.7500000000000000 Cd
   0.1250000000000000    0.1250000000000000    0.6250000000000000 In
   0.1250000000000000    0.1250000000000000    0.1250000000000000 In
   0.1250000000000000    0.6250000000000000    0.1250000000000000 In
   0.6250000000000000    0.1250000000000000    0.1250000000000000 In
   0.8871994000000000    0.8871994000000000    0.3384007900000000 O
   0.3384007900000000    0.8871994000000000    0.8871994000000000 O
   0.8871994000000000    0.3384007900000000    0.8871994000000000 O
   0.3628006000000000    0.3628006000000000    0.3628006000000000 O
   0.8871994000000000    0.8871994000000000    0.8871994000000000 O
   0.9115992100000000    0.3628006000000000    0.3628006000000000 O
   0.3628006000000000    0.9115992100000000    0.3628006000000000 O
   0.3628006000000000    0.3628006000000000    0.9115992100000000 O
