Bi14 S1 O24
1.0
   6.1168398300000000   -8.5272721600000008   -0.0040829500000000
   6.1168398300000000    8.5272721600000008   -0.0040829500000000
  -6.0999149099999999    0.0000000000000000    6.1216959600000003
Bi S O
14 1 24
direct
   0.2130654400000000    0.2130654400000000    0.6652334100000000 Bi
   0.4646071000000000    0.1258721200000000    0.4114907400000000 Bi
   0.7209807600000000    0.0583629700000000    0.1840200000000000 Bi
   0.4554211000000000    0.4554211000000000    0.2472675800000000 Bi
   0.6645159400000000    0.3418501300000000    0.0014555600000000 Bi
   0.5554304700000000    0.5554304700000000    0.7634022499999999 Bi
   0.9467823500000000    0.2786252600000000    0.8219786700000000 Bi
   0.8741911500000000    0.5405386500000000    0.6008808200000000 Bi
   0.7968290099999999    0.7968290099999999    0.3509579100000000 Bi
   0.1258721200000000    0.4646071000000000    0.4114907400000000 Bi
   0.0583629700000000    0.7209807600000000    0.1840200000000000 Bi
   0.3418501300000000    0.6645159400000000    0.0014555600000000 Bi
   0.2786252600000000    0.9467823500000000    0.8219786700000000 Bi
   0.5405386500000000    0.8741911500000000    0.6008808200000000 Bi
   0.9640391300000000    0.9640391300000000    0.9333188600000000 S
   0.5005641900000000    0.0103624000000000    0.8376924800000000 O
   0.3996114400000000    0.2424981800000000    0.9510167800000000 O
   0.4518624400000000    0.2930091500000000    0.6927416300000000 O
   0.6719948700000000    0.1797158600000000    0.6866204400000000 O
   0.6183702900000000    0.3807240000000000    0.5002537300000000 O
   0.8812632300000000    0.1185138000000000    0.5018236900000000 O
   0.9648672500000000    0.1084776100000000    0.0709484200000000 O
   0.8275430499999999    0.3370826200000000    0.3306016700000000 O
   0.7109984000000000    0.5528497700000000    0.3156448200000000 O
   0.7639093200000000    0.6036301700000000    0.0534237800000000 O
   0.0103624000000000    0.5005641900000000    0.8376924800000000 O
   0.9908067500000000    0.4999481700000000    0.1689443100000000 O
   0.2424981800000000    0.3996114400000000    0.9510167800000000 O
   0.7947048400000000    0.7947048400000000    0.8000550500000000 O
   0.2930091500000000    0.4518624400000000    0.6927416300000000 O
   0.1797158600000000    0.6719948700000000    0.6866204400000000 O
   0.9843806500000000    0.9843806500000000    0.7810878200000000 O
   0.1185138000000000    0.8812632300000000    0.5018236900000000 O
   0.3807240000000000    0.6183702900000000    0.5002537300000000 O
   0.1084776100000000    0.9648672500000000    0.0709484200000000 O
   0.3370826200000000    0.8275430499999999    0.3306016700000000 O
   0.5528497700000000    0.7109984000000000    0.3156448200000000 O
   0.6036301700000000    0.7639093200000000    0.0534237800000000 O
   0.4999481700000000    0.9908067500000000    0.1689443100000000 O
