Sr4 Li4 B4 O12
1.0
   6.5128997699999998    0.0000000000000000    0.0257576700000000
   0.0000000000000000    6.6541099299999997    0.0000000000000000
  -4.2793191000000004    0.0000000000000000    6.4533935800000002
Sr Li B O
4 4 4 12
direct
   0.6644278400000000    0.3790803900000000    0.3679523800000000 Sr
   0.3355721600000000    0.8790803900000000    0.1320476200000000 Sr
   0.3355721600000000    0.6209196100000000    0.6320476200000000 Sr
   0.6644278400000000    0.1209196100000000    0.8679523800000000 Sr
   0.0916077500000000    0.0947570800000000    0.6927200500000000 Li
   0.9083922500000000    0.5947570800000000    0.8072799500000000 Li
   0.9083922500000000    0.9052429200000000    0.3072799500000000 Li
   0.0916077500000000    0.4052429200000000    0.1927200500000000 Li
   0.7610481100000001    0.6308354400000000    0.0735877400000000 B
   0.2389518900000000    0.1308354400000000    0.4264122600000000 B
   0.2389518900000000    0.3691645600000000    0.9264122600000000 B
   0.7610481100000001    0.8691645600000000    0.5735877400000000 B
   0.0629578800000000    0.3948305400000000    0.7158991700000000 O
   0.3898426900000000    0.2977211400000000    0.4941157100000000 O
   0.6101573100000000    0.7022788599999999    0.5058842900000000 O
   0.3898426900000000    0.2022788600000000    0.9941157100000000 O
   0.7433309600000000    0.4880078500000000    0.9356768500000000 O
   0.2566690400000000    0.9880078500000000    0.5643231500000000 O
   0.2566690400000000    0.5119921500000000    0.0643231500000000 O
   0.7433309600000000    0.0119921500000000    0.4356768500000000 O
   0.9370421200000000    0.6051694600000000    0.2841008300000000 O
   0.0629578800000000    0.1051694600000000    0.2158991700000000 O
   0.6101573100000000    0.7977211400000001    0.0058842900000000 O
   0.9370421200000000    0.8948305400000000    0.7841008300000000 O
