Tl3 V1 O4
1.0
  -2.9337522500000000    4.0843246999999998    3.2007659400000001
   2.9337522500000000   -4.0843246999999998    3.2007659400000001
   2.9337522500000000    4.0843246999999998   -3.2007659400000001
Tl V O
3 1 4
direct
   0.7041899500000000    0.4706500500000000    0.2335398900000000 Tl
   0.9547932000000000    0.9547932000000000    0.0000000000000000 Tl
   0.2371091600000000    0.4706500500000000    0.7664601100000000 Tl
   0.4914223100000000    0.9914223100000000    0.5000000000000000 V
   0.5144570100000000    0.8398737400000000    0.6745822700000000 O
   0.1652914700000000    0.8398737400000000    0.3254177300000000 O
   0.6408689500000000    0.8923493400000000    0.2514803900000000 O
   0.6408689500000000    0.3893885500000000    0.7485196100000000 O
