Cs4 V4 O12
1.0
   5.4108038399999998    0.0000000000000000    0.0000000000000000
   0.0000000000000000   12.1505612000000003    0.0000000000000000
   0.0000000000000000    0.0000000000000000    5.8136629400000004
Cs V O
4 4 12
direct
   0.0850793400000000    0.5975748300000000    0.7500000000000000 Cs
   0.0850793400000000    0.9024251700000000    0.2500000000000000 Cs
   0.9149206600000001    0.4024251700000000    0.2500000000000000 Cs
   0.9149206600000001    0.0975748300000000    0.7500000000000000 Cs
   0.5477874700000001    0.8290017900000000    0.7500000000000000 V
   0.5477874700000001    0.6709982100000000    0.2500000000000000 V
   0.4522125300000000    0.1709982100000000    0.2500000000000000 V
   0.4522125300000000    0.3290017900000000    0.7500000000000000 V
   0.8521033200000000    0.8476028799999999    0.7500000000000000 O
   0.8521033200000000    0.6523971200000001    0.2500000000000000 O
   0.1478966800000000    0.1523971200000000    0.2500000000000000 O
   0.1478966800000000    0.3476028800000000    0.7500000000000000 O
   0.4069859400000000    0.9497827100000000    0.7500000000000000 O
   0.4069859400000000    0.5502172900000000    0.2500000000000000 O
   0.5930140600000000    0.0502172900000000    0.2500000000000000 O
   0.5930140600000000    0.4497827100000000    0.7500000000000000 O
   0.4522179500000000    0.7500000000000000    0.0000000000000000 O
   0.5477820500000000    0.2500000000000000    0.5000000000000000 O
   0.5477820500000000    0.2500000000000000    0.0000000000000000 O
   0.4522179500000000    0.7500000000000000    0.5000000000000000 O
