Sr2 Mg1 W1 O6
1.0
  -2.7772421700000001    2.7772421700000001    3.9850590700000001
   2.7772421700000001   -2.7772421700000001    3.9850590700000001
   2.7772421700000001    2.7772421700000001   -3.9850590700000001
Sr Mg W O
2 1 1 6
direct
   0.7500000000000000    0.2500000000000000    0.5000000000000000 Sr
   0.2500000000000000    0.7500000000000000    0.5000000000000000 Sr
   0.0000000000000000    0.0000000000000000    0.0000000000000000 Mg
   0.5000000000000000    0.5000000000000000    0.0000000000000000 W
   0.7416438300000000    0.7416438300000000    0.0000000000000000 O
   0.2583561700000000    0.2583561700000000    0.0000000000000000 O
   0.7013817600000000    0.7812319500000000    0.4826137100000000 O
   0.7812319500000000    0.2986182400000000    0.0798501900000000 O
   0.2986182400000000    0.2187680500000000    0.5173862900000000 O
   0.2187680500000000    0.7013817600000000    0.9201498100000000 O
