Ba8 Ga4 Sb4 Se20
1.0
  12.5694287700000000    0.0000000000000000    0.0000000000000000
   0.0000000000000000    9.0701845599999995    0.0000000000000000
   0.0000000000000000    0.0000000000000000    9.1770788999999997
Ba Ga Sb Se
8 4 4 20
direct
   0.8235769400000000    0.0069280200000000    0.1226812700000000 Ba
   0.3235769400000000    0.4930719800000000    0.3773187300000000 Ba
   0.1764230600000000    0.5069280200000000    0.8773187300000000 Ba
   0.6764230600000000    0.9930719800000000    0.6226812700000000 Ba
   0.1764230600000000    0.9930719800000000    0.8773187300000000 Ba
   0.6764230600000000    0.5069280200000000    0.6226812700000000 Ba
   0.8235769400000000    0.4930719800000000    0.1226812700000000 Ba
   0.3235769400000000    0.0069280200000000    0.3773187300000000 Ba
   0.5953721900000000    0.2500000000000000    0.3343371300000000 Ga
   0.0953721900000000    0.2500000000000000    0.1656628700000000 Ga
   0.4046278100000000    0.7500000000000000    0.6656628700000000 Ga
   0.9046278100000000    0.7500000000000000    0.8343371300000000 Ga
   0.5238017500000000    0.2500000000000000    0.9735451100000000 Sb
   0.0238017500000000    0.2500000000000000    0.5264548900000000 Sb
   0.4761982500000000    0.7500000000000000    0.0264548900000000 Sb
   0.9761982500000000    0.7500000000000000    0.4735451100000000 Sb
   0.5552606700000000    0.0405045900000000    0.1760898600000000 Se
   0.0552606700000000    0.4594954100000000    0.3239101400000000 Se
   0.4447393300000000    0.5405045900000000    0.8239101400000000 Se
   0.9447393300000000    0.9594954100000000    0.6760898600000000 Se
   0.4447393300000000    0.9594954100000000    0.8239101400000000 Se
   0.9447393300000000    0.5405045900000000    0.6760898600000000 Se
   0.5552606700000000    0.4594954100000000    0.1760898600000000 Se
   0.0552606700000000    0.0405045900000000    0.3239101400000000 Se
   0.7188617000000000    0.2500000000000000    0.8818337800000000 Se
   0.2188617000000000    0.2500000000000000    0.6181662200000000 Se
   0.2811383000000000    0.7500000000000000    0.1181662200000000 Se
   0.7811383000000000    0.7500000000000000    0.3818337800000000 Se
   0.7809738200000000    0.2500000000000000    0.3904831100000000 Se
   0.2809738200000000    0.2500000000000000    0.1095168900000000 Se
   0.2190261800000000    0.7500000000000000    0.6095168900000000 Se
   0.7190261800000000    0.7500000000000000    0.8904831100000000 Se
   0.9895093100000000    0.2500000000000000    0.9536677700000000 Se
   0.4895093100000000    0.2500000000000000    0.5463322300000000 Se
   0.0104906900000000    0.7500000000000000    0.0463322300000000 Se
   0.5104906900000000    0.7500000000000000    0.4536677700000000 Se
