Ba2 Be4 Si4 O14
1.0
  11.6499689899999996    0.0000000000000000    0.0000000000000000
   0.0000000000000000    4.9193695200000001    0.0000000000000000
   0.0000000000000000    0.0000000000000000    4.6730975199999998
Ba Be Si O
2 4 4 14
direct
   0.0000000000000000    0.2024719600000000    0.0082585500000000 Ba
   0.5000000000000000    0.7975280400000000    0.5082585500000000 Ba
   0.7492739899999999    0.1688139400000000    0.5179188100000000 Be
   0.7507260100000001    0.8311860599999999    0.0179188100000000 Be
   0.2507260100000000    0.1688139400000000    0.5179188100000000 Be
   0.2492739900000000    0.8311860599999999    0.0179188100000000 Be
   0.6284413900000000    0.3255830000000000    0.0311925700000000 Si
   0.8715586100000000    0.6744170000000000    0.5311925700000000 Si
   0.1284413900000000    0.6744170000000000    0.5311925700000000 Si
   0.3715586100000000    0.3255830000000000    0.0311925700000000 Si
   0.0000000000000000    0.7788119600000000    0.4176731500000000 O
   0.5000000000000000    0.2211880400000000    0.9176731500000000 O
   0.3675278600000000    0.2710536800000000    0.3733141300000000 O
   0.1324721400000000    0.7289463200000000    0.8733141300000000 O
   0.6324721400000000    0.2710536800000000    0.3733141300000000 O
   0.8675278600000000    0.7289463200000000    0.8733141300000000 O
   0.3617829700000000    0.6473683800000000    0.9609258700000000 O
   0.1382170300000000    0.3526316200000000    0.4609258700000000 O
   0.8617829700000000    0.3526316200000000    0.4609258700000000 O
   0.6382170300000000    0.6473683800000000    0.9609258700000000 O
   0.2245109500000000    0.8656546200000000    0.3688842700000000 O
   0.2754890500000000    0.1343453800000000    0.8688842700000000 O
   0.7245109500000000    0.1343453800000000    0.8688842700000000 O
   0.7754890500000000    0.8656546200000000    0.3688842700000000 O
