Al2 Cu2 Sn2 S8
1.0
  -3.5529566699999999    3.6278297700000000    5.0680610300000000
   3.5529566699999999   -3.6278297700000000    5.0680610300000000
   3.5529566699999999    3.6278297700000000   -5.0680610300000000
Al Cu Sn S
2 2 2 8
direct
   0.0000000000000000    0.0000000000000000    0.5000000000000000 Al
   0.0000000000000000    0.5000000000000000    0.0000000000000000 Al
   0.3844349600000000    0.6344349600000000    0.7500000000000000 Cu
   0.6155650400000000    0.3655650400000000    0.2500000000000000 Cu
   0.0000000000000000    0.0000000000000000    0.0000000000000000 Sn
   0.5000000000000000    0.0000000000000000    0.5000000000000000 Sn
   0.2400575400000000    0.7376585600000000    0.9976020100000000 S
   0.2400575400000000    0.2424555300000000    0.5023979900000000 S
   0.2291929600000000    0.7498539500000000    0.4793390200000000 S
   0.7705139300000000    0.7498539500000000    0.0206609800000000 S
   0.7599424600000000    0.2623414400000000    0.0023979900000000 S
   0.7599424600000000    0.7575444700000000    0.4976020100000000 S
   0.7708070400000000    0.2501460500000000    0.5206609800000001 S
   0.2294860700000000    0.2501460500000000    0.9793390199999999 S
