Na8 Sn4 O12
1.0
   2.7625544000000000   -4.7895511099999997   -0.0062737600000000
   2.7625544000000000    4.7895511099999997   -0.0062737600000000
  -1.8545600700000000    0.0000000000000000   10.8113881200000002
Na Sn O
8 4 12
direct
   0.3171386900000000    0.1588597800000000    0.9997629400000000 Na
   0.5000000000000000    0.0000000000000000    0.5000000000000000 Na
   0.9150575700000000    0.0849424300000000    0.7500000000000000 Na
   0.0000000000000000    0.5000000000000000    0.0000000000000000 Na
   0.1588597800000000    0.3171386900000000    0.4997629400000000 Na
   0.8411402200000000    0.6828613100000001    0.5002370600000000 Na
   0.0849424300000000    0.9150575700000000    0.2500000000000000 Na
   0.6828613100000001    0.8411402200000000    0.0002370600000000 Na
   0.5818741300000000    0.4181258700000000    0.7500000000000000 Sn
   0.7507646600000000    0.2492353400000000    0.2500000000000000 Sn
   0.2492353400000000    0.7507646600000000    0.7500000000000000 Sn
   0.4181258700000000    0.5818741300000000    0.2500000000000000 Sn
   0.2436198500000000    0.0471223900000000    0.6413123100000000 O
   0.5848587200000001    0.1211470900000000    0.8572646300000000 O
   0.8788529100000000    0.4151412800000000    0.6427353700000000 O
   0.4871460900000000    0.3183991300000000    0.3577470400000000 O
   0.0471223900000000    0.2436198500000000    0.1413123100000000 O
   0.6816008700000000    0.5128539100000000    0.1422529600000000 O
   0.3183991300000000    0.4871460900000000    0.8577470400000000 O
   0.9528776100000000    0.7563801500000000    0.8586876900000000 O
   0.5128539100000000    0.6816008700000000    0.6422529600000000 O
   0.1211470900000000    0.5848587200000001    0.3572646300000000 O
   0.4151412800000000    0.8788529100000000    0.1427353700000000 O
   0.7563801500000000    0.9528776100000000    0.3586876900000000 O
