Ta2 Tl2 W2 O12
1.0
  -3.6937003499999999    5.1659624700000002    3.7011053299999999
   3.6937003499999999   -5.1659624700000002    3.7011053299999999
   3.6937003499999999    5.1659624700000002   -3.7011053299999999
Ta Tl W O
2 2 2 12
direct
   0.0053882600000000    0.5053882600000000    0.5000000000000000 Ta
   0.0053882600000000    0.0053882600000000    0.0000000000000000 Ta
   0.2197822600000000    0.6348130100000000    0.0849692500000000 Tl
   0.5498437600000000    0.1348130100000000    0.9150307500000000 Tl
   0.4926033500000000    0.4866973100000000    0.5059060399999999 W
   0.9807902700000000    0.9866973100000000    0.4940939600000000 W
   0.3146654700000000    0.2545585400000000    0.5601059300000000 O
   0.9481068300000000    0.2661645600000000    0.1819422700000000 O
   0.9494020800000000    0.8886533400000000    0.1963564500000000 O
   0.3251798400000000    0.6291606600000000    0.5596621700000000 O
   0.9494020800000000    0.2530466300000000    0.5607497400000000 O
   0.3251798400000000    0.2655176800000000    0.1960191800000000 O
   0.6944526200000000    0.7545585400000000    0.4398940700000000 O
   0.0842222800000000    0.7661645600000000    0.8180577300000000 O
   0.0694985000000000    0.1291606600000000    0.8039808200000000 O
   0.6922968900000001    0.3886533400000000    0.4392502600000000 O
   0.0694985000000000    0.7655176800000000    0.4403378300000000 O
   0.6922968900000001    0.7530466300000001    0.8036435500000000 O
