Zn2 W2 O8
1.0
   4.6050020199999997    0.0000000000000000    0.0344460500000000
   0.0000000000000000    5.6559725399999996    0.0000000000000000
  -0.1025681300000000    0.0000000000000000    4.9195774999999999
Zn W O
2 2 8
direct
   0.5000000000000000    0.6691114600000000    0.7500000000000000 Zn
   0.5000000000000000    0.3308885400000000    0.2500000000000000 Zn
   0.0000000000000000    0.1769473300000000    0.7500000000000000 W
   0.0000000000000000    0.8230526700000000    0.2500000000000000 W
   0.7794880700000000    0.1093244400000000    0.0695358200000000 O
   0.2205119300000000    0.1093244400000000    0.4304641800000000 O
   0.2205119300000000    0.8906755600000000    0.9304641800000000 O
   0.7794880700000000    0.8906755600000000    0.5695358200000000 O
   0.7403414500000000    0.3770780600000000    0.5963608000000000 O
   0.2596585500000000    0.3770780600000000    0.9036392000000000 O
   0.2596585500000000    0.6229219400000000    0.4036392000000000 O
   0.7403414500000000    0.6229219400000000    0.0963608000000000 O
