La4 Hg2 O8
1.0
   6.9922777299999996   -1.9421499600000001   -0.0287289000000000
   6.9922777299999996    1.9421499600000001   -0.0287289000000000
  -5.2304310500000000    0.0000000000000000    8.9077384800000008
La Hg O
4 2 8
direct
   0.6191945300000000    0.6191945300000000    0.4564111000000000 La
   0.1608846500000000    0.1608846500000000    0.7986506700000000 La
   0.8391153500000000    0.8391153500000000    0.2013493300000000 La
   0.3808054700000000    0.3808054700000000    0.5435889000000000 La
   0.8833606800000000    0.8833606800000000    0.8359058300000000 Hg
   0.1166393200000000    0.1166393200000000    0.1640941700000000 Hg
   0.2273053700000000    0.2273053700000000    0.6100095900000000 O
   0.7965629200000000    0.7965629200000000    0.9405747200000000 O
   0.0361302100000000    0.0361302100000000    0.2771775700000000 O
   0.5813703600000000    0.5813703600000000    0.6541772400000000 O
   0.4186296400000000    0.4186296400000000    0.3458227600000000 O
   0.9638697899999999    0.9638697899999999    0.7228224300000000 O
   0.2034370800000000    0.2034370800000000    0.0594252800000000 O
   0.7726946300000000    0.7726946300000000    0.3899904100000000 O
