Na1 Y1 Se2
1.0
   2.0420520000000000    1.1789793399999999    6.8507887800000002
  -2.0420520000000000    1.1789793399999999    6.8507887800000002
   0.0000000000000000   -2.3579586899999998    6.8507887800000002
Na Y Se
1 1 2
direct
   0.0000000000000000    0.0000000000000000    0.0000000000000000 Na
   0.5000000000000000    0.5000000000000000    0.5000000000000000 Y
   0.7558723600000000    0.7558723600000000    0.7558723600000000 Se
   0.2441276400000000    0.2441276400000000    0.2441276400000000 Se
