Cs12 Sb4 Se16
1.0
  10.0172009400000004    0.0000000000000000    0.0000000000000000
   0.0000000000000000   11.8178296599999992    0.0000000000000000
   0.0000000000000000    0.0000000000000000   10.5657349899999993
Cs Sb Se
12 4 16
direct
   0.0581679400000000    0.0418246000000000    0.1922181200000000 Cs
   0.6532964300000000    0.7500000000000000    0.0844970200000000 Cs
   0.3467035700000000    0.2500000000000000    0.9155029800000000 Cs
   0.8467035700000000    0.2500000000000000    0.5844970200000000 Cs
   0.1532964300000000    0.7500000000000000    0.4155029800000000 Cs
   0.5581679400000000    0.4581754000000000    0.3077818800000000 Cs
   0.4418320600000000    0.9581754000000000    0.6922181200000000 Cs
   0.9418320600000000    0.5418246000000000    0.8077818800000000 Cs
   0.9418320600000000    0.9581754000000000    0.8077818800000000 Cs
   0.4418320600000000    0.5418246000000000    0.6922181200000000 Cs
   0.5581679400000000    0.0418246000000000    0.3077818800000000 Cs
   0.0581679400000000    0.4581754000000000    0.1922181200000000 Cs
   0.7630643700000000    0.2500000000000000    0.0254250800000000 Sb
   0.7369356300000000    0.7500000000000000    0.5254250800000000 Sb
   0.2630643700000000    0.2500000000000000    0.4745749200000000 Sb
   0.2369356300000000    0.7500000000000000    0.9745749200000000 Sb
   0.6354894900000000    0.0732192500000000    0.9732642000000000 Se
   0.1354894900000000    0.4267807500000000    0.5267358000000000 Se
   0.8645105100000000    0.9267807500000000    0.4732642000000000 Se
   0.3645105100000000    0.5732192500000000    0.0267358000000000 Se
   0.3645105100000000    0.9267807500000000    0.0267358000000000 Se
   0.8645105100000000    0.5732192500000000    0.4732642000000000 Se
   0.1354894900000000    0.0732192500000000    0.5267358000000000 Se
   0.6354894900000000    0.4267807500000000    0.9732642000000000 Se
   0.0151815700000000    0.7500000000000000    0.0858507700000000 Se
   0.8105813200000000    0.2500000000000000    0.2572793000000000 Se
   0.4848184300000000    0.2500000000000000    0.5858507700000000 Se
   0.9848184300000000    0.2500000000000000    0.9141492300000000 Se
   0.1894186800000000    0.7500000000000000    0.7427207000000000 Se
   0.6894186800000000    0.7500000000000000    0.7572793000000000 Se
   0.3105813200000000    0.2500000000000000    0.2427207000000000 Se
   0.5151815700000000    0.7500000000000000    0.4141492300000000 Se
